NAME:  Quercetin
PRECURSORMZ:  301.03537620983
PRECURSORTYPE:  [M-H]-
FORMULA:  C15H10O7
Ontology: Kingdom: Organic compounds;Superclass: Phenylpropanoids and polyketides;Class: Flavonoids;Subclass: Flavones
INCHIKEY:  REFJWTPEDVJJIY-UHFFFAOYSA-N
SMILES:  OC1=CC(O)=C2C(OC(=C(O)C2=O)C2=CC(O)=C(O)C=C2)=C1
RETENTIONTIME:  
CCS:  166.0397546
IONMODE:  Negative
INSTRUMENTTYPE:  
INSTRUMENT:  Ion Trap
COLLISIONENERGY:  
Comment:  DB#=CCMSLIB00000077221; origin=GNPS
Num Peaks:  27
106.971	30.0
120.975	20.0
124.949	20.0
150.92599	630.0
150.92599	630.0
168.908	20.0
178.914	1000.0
178.914	1000.0
191.925	20.0
192.94501	80.0
192.94501	80.0
210.952	20.0
212.944	10.0
214.95	10.0
227.729	10.0
228.976	50.0
238.97301	70.0
238.97301	70.0
256.991	190.0
256.991	190.0
272.97198	190.0
272.97198	190.0
282.966	10.0
297.08899	20.0
298.98499	30.0
298.98499	30.0
300.978	560.0

NAME:  3-O-methylquercetin
PRECURSORMZ:  315.05102627383
PRECURSORTYPE:  [M-H]-
FORMULA:  C16H12O7
Ontology: Kingdom: Organic compounds;Superclass: Phenylpropanoids and polyketides;Class: Flavonoids;Subclass: O
INCHIKEY:  WEPBGSIAWZTEJR-UHFFFAOYSA-N
SMILES:  COC1=C(OC2=CC(O)=CC(O)=C2C1=O)C1=CC(O)=C(O)C=C1
RETENTIONTIME:  
CCS:  170.8616739
IONMODE:  Negative
INSTRUMENTTYPE:  
INSTRUMENT:  qTof
COLLISIONENERGY:  
Comment:  DB#=CCMSLIB00000077223; origin=GNPS
Num Peaks:  11
148.01271	30.0
150.99986	10.0
164.00873	10.0
199.03543	10.0
216.03912	20.0
226.02092	20.0
227.03139	40.0
243.02542	240.0
255.02292	380.0
271.01947	1000.0
300.02197	310.0

NAME:  Apigetrin
PRECURSORMZ:  431.09837039183
PRECURSORTYPE:  [M-H]-
FORMULA:  C21H20O10
Ontology: Kingdom: Organic compounds;Superclass: Phenylpropanoids and polyketides;Class: Flavonoids;Subclass: Flavonoid glycosides
INCHIKEY:  KMOUJOKENFFTPU-UHFFFAOYNA-N
SMILES:  OCC1OC(OC2=CC(O)=C3C(=O)C=C(OC3=C2)C2=CC=C(O)C=C2)C(O)C(O)C1O
RETENTIONTIME:  
CCS:  197.0643546
IONMODE:  Negative
INSTRUMENTTYPE:  
INSTRUMENT:  qTof
COLLISIONENERGY:  
Comment:  DB#=CCMSLIB00000077224; origin=GNPS
Num Peaks:  5
149.02049	10.0
150.99977	10.0
239.02774	20.0
240.03941	30.0
268.0325	1000.0

NAME:  Avicularin
PRECURSORMZ:  433.07763494783
PRECURSORTYPE:  [M-H]-
FORMULA:  C20H18O11
Ontology: Kingdom: Organic compounds;Superclass: Phenylpropanoids and polyketides;Class: Flavonoids;Subclass: Flavonoid glycosides
INCHIKEY:  BDCDNTVZSILEOY-UHFFFAOYNA-N
SMILES:  OCC1OC(OC2=C(OC3=CC(O)=CC(O)=C3C2=O)C2=CC(O)=C(O)C=C2)C(O)C1O
RETENTIONTIME:  
CCS:  205.0777048
IONMODE:  Negative
INSTRUMENTTYPE:  
INSTRUMENT:  qTof
COLLISIONENERGY:  
Comment:  DB#=CCMSLIB00000077225; origin=GNPS
Num Peaks:  17
151.00024	90.0
163.00092	30.0
178.99507	50.0
211.03819	10.0
227.03017	20.0
229.04601	20.0
243.0255	90.0
244.02901	20.0
245.04224	30.0
254.01643	30.0
255.02283	270.0
256.02869	40.0
271.01904	570.0
273.035	30.0
283.01859	30.0
300.02158	1000.0
301.0275	420.0

NAME:  Baicalein
PRECURSORMZ:  269.04554696983
PRECURSORTYPE:  [M-H]-
FORMULA:  C15H10O5
Ontology: Kingdom: Organic compounds;Superclass: Phenylpropanoids and polyketides;Class: Flavonoids;Subclass: Flavones
INCHIKEY:  FXNFHKRTJBSTCS-UHFFFAOYSA-N
SMILES:  OC1=CC2=C(C(O)=C1O)C(=O)C=C(O2)C1=CC=CC=C1
RETENTIONTIME:  
CCS:  160.68557
IONMODE:  Negative
INSTRUMENTTYPE:  
INSTRUMENT:  qTof
COLLISIONENERGY:  
Comment:  DB#=CCMSLIB00000077226; origin=GNPS
Num Peaks:  36
123.00683	20.0
136.98665	110.0
139.0002	110.0
141.06808	70.0
143.04755	40.0
145.02583	30.0
151.05321	40.0
155.04572	20.0
157.06342	30.0
164.98114	20.0
167.0472	80.0
169.06128	190.0
170.065	10.0
171.0426	110.0
173.10628	20.0
179.04671	30.0
181.06261	10.0
185.05669	50.0
192.00179	10.0
195.04233	170.0
196.04868	40.0
197.05713	170.0
198.05792	10.0
199.03603	40.0
207.04013	20.0
213.05147	110.0
223.03656	270.0
224.04297	50.0
225.0524	80.0
227.02808	10.0
239.02892	10.0
240.03525	30.0
241.04675	250.0
251.02834	120.0
252.0351	20.0
269.03879	1000.0

NAME:  Chrysin
PRECURSORMZ:  253.05063234983
PRECURSORTYPE:  [M-H]-
FORMULA:  C15H10O4
Ontology: Kingdom: Organic compounds;Superclass: Phenylpropanoids and polyketides;Class: Flavonoids;Subclass: Flavones
INCHIKEY:  RTIXKCRFFJGDFG-UHFFFAOYSA-N
SMILES:  OC1=CC(O)=C2C(=O)C=C(OC2=C1)C1=CC=CC=C1
RETENTIONTIME:  
CCS:  157.1834423
IONMODE:  Negative
INSTRUMENTTYPE:  
INSTRUMENT:  qTof
COLLISIONENERGY:  
Comment:  DB#=CCMSLIB00000077227; origin=GNPS
Num Peaks:  22
119.04781	10.0
139.05214	10.0
143.04793	200.0
144.04927	10.0
145.02631	80.0
151.00082	30.0
153.06615	10.0
155.04655	10.0
165.06667	30.0
167.04803	40.0
180.05444	20.0
181.06258	50.0
183.04001	10.0
185.05708	40.0
187.03564	10.0
197.05769	10.0
208.04941	10.0
209.05792	130.0
210.06096	10.0
211.03461	40.0
225.05383	20.0
253.04613	1000.0

NAME:  Hesperedin
PRECURSORMZ:  609.18249394283
PRECURSORTYPE:  [M-H]-
FORMULA:  C28H34O15
Ontology: Kingdom: Organic compounds;Superclass: Phenylpropanoids and polyketides;Class: Flavonoids;Subclass: Flavonoid glycosides
INCHIKEY:  QUQPHWDTPGMPEX-UHFFFAOYNA-N
SMILES:  COC1=C(O)C=C(C=C1)C1CC(=O)C2=C(O)C=C(OC3OC(COC4OC(C)C(O)C(O)C4O)C(O)C(O)C3O)C=C2O1
RETENTIONTIME:  
CCS:  228.0515203
IONMODE:  Negative
INSTRUMENTTYPE:  
INSTRUMENT:  qTof
COLLISIONENERGY:  
Comment:  DB#=CCMSLIB00000077229; origin=GNPS
Num Peaks:  7
271.05469	80.0
285.06839	10.0
301.0643	1000.0
325.06592	20.0
343.07541	10.0
579.16077	40.0
609.17249	40.0

NAME:  Hesperetin
PRECURSORMZ:  301.07176171883
PRECURSORTYPE:  [M-H]-
FORMULA:  C16H14O6
Ontology: Kingdom: Organic compounds;Superclass: Phenylpropanoids and polyketides;Class: Flavonoids;Subclass: O
INCHIKEY:  AIONOLUJZLIMTK-UHFFFAOYNA-N
SMILES:  COC1=C(O)C=C(C=C1)C1CC(=O)C2=C(O)C=C(O)C=C2O1
RETENTIONTIME:  
CCS:  171.1305627
IONMODE:  Negative
INSTRUMENTTYPE:  
INSTRUMENT:  qTof
COLLISIONENERGY:  
Comment:  DB#=CCMSLIB00000077230; origin=GNPS
Num Peaks:  31
125.02162	40.0
134.0336	20.0
149.05919	20.0
151.00087	100.0
164.00797	130.0
173.0554	10.0
174.02835	50.0
195.99725	90.0
199.0367	40.0
200.04288	20.0
201.01576	50.0
202.02542	10.0
214.05832	20.0
215.05144	30.0
216.03635	20.0
217.04549	20.0
227.02914	10.0
233.08228	20.0
240.0406	20.0
241.0419	30.0
242.05109	160.0
243.05849	20.0
257.07703	130.0
258.04797	60.0
259.05289	10.0
268.03397	20.0
283.05396	40.0
286.04251	320.0
291.66708	10.0
291.70764	20.0
301.06567	1000.0

NAME:  Isoquercitrin
PRECURSORMZ:  463.08819963183
PRECURSORTYPE:  [M-H]-
FORMULA:  C21H20O12
Ontology: Kingdom: Organic compounds;Superclass: Phenylpropanoids and polyketides;Class: Flavonoids;Subclass: Flavonoid glycosides
INCHIKEY:  OVSQVDMCBVZWGM-UHFFFAOYNA-N
SMILES:  OCC1OC(OC2=C(OC3=CC(O)=CC(O)=C3C2=O)C2=CC(O)=C(O)C=C2)C(O)C(O)C1O
RETENTIONTIME:  
CCS:  201.8799825
IONMODE:  Negative
INSTRUMENTTYPE:  
INSTRUMENT:  qTof
COLLISIONENERGY:  
Comment:  DB#=CCMSLIB00000077231; origin=GNPS
Num Peaks:  8
151.00175	40.0
178.99493	30.0
243.0247	20.0
254.01601	10.0
255.02214	80.0
271.01892	190.0
300.02155	1000.0
301.02783	290.0

NAME:  Luteolin
PRECURSORMZ:  285.04046158983
PRECURSORTYPE:  [M-H]-
FORMULA:  C15H10O6
Ontology: Kingdom: Organic compounds;Superclass: Phenylpropanoids and polyketides;Class: Flavonoids;Subclass: Flavones
INCHIKEY:  IQPNAANSBPBGFQ-UHFFFAOYSA-N
SMILES:  OC1=CC(O)=C2C(=O)C=C(OC2=C1)C1=CC(O)=C(O)C=C1
RETENTIONTIME:  
CCS:  163.4002984
IONMODE:  Negative
INSTRUMENTTYPE:  
INSTRUMENT:  qTof
COLLISIONENERGY:  
Comment:  DB#=CCMSLIB00000077233; origin=GNPS
Num Peaks:  27
132.01892	20.0
133.02646	470.0
134.03098	30.0
149.02094	80.0
151.00027	250.0
152.00333	10.0
169.01105	10.0
171.04207	20.0
175.03569	130.0
185.05635	20.0
189.05009	10.0
197.05649	20.0
198.02957	20.0
199.03577	110.0
200.04169	10.0
201.01546	60.0
213.05087	30.0
215.03178	30.0
217.04535	80.0
223.03662	10.0
229.0444	20.0
239.02853	10.0
241.04587	50.0
243.02654	30.0
257.03961	30.0
267.02472	20.0
285.03485	1000.0

NAME:  Rutin
PRECURSORMZ:  609.14610843383
PRECURSORTYPE:  [M-H]-
FORMULA:  C27H30O16
Ontology: Kingdom: Organic compounds;Superclass: Phenylpropanoids and polyketides;Class: Flavonoids;Subclass: Flavonoid glycosides
INCHIKEY:  IKGXIBQEEMLURG-UHFFFAOYNA-N
SMILES:  CC1OC(OCC2OC(OC3=C(OC4=CC(O)=CC(O)=C4C3=O)C3=CC=C(O)C(O)=C3)C(O)C(O)C2O)C(O)C(O)C1O
RETENTIONTIME:  
CCS:  227.7127405
IONMODE:  Negative
INSTRUMENTTYPE:  
INSTRUMENT:  qTof
COLLISIONENERGY:  
Comment:  DB#=CCMSLIB00000077235; origin=GNPS
Num Peaks:  9
150.99992	20.0
178.99422	20.0
255.02271	30.0
271.01859	50.0
272.02573	10.0
300.02179	1000.0
301.02798	440.0
343.03931	10.0
609.13416	70.0

NAME:  Swertisin
PRECURSORMZ:  445.11402045583
PRECURSORTYPE:  [M-H]-
FORMULA:  C22H22O10
Ontology: Kingdom: Organic compounds;Superclass: Phenylpropanoids and polyketides;Class: Flavonoids;Subclass: Flavonoid glycosides
INCHIKEY:  ABRULANJVVJLFI-UHFFFAOYNA-N
SMILES:  COC1=C(C2OC(CO)C(O)C(O)C2O)C(O)=C2C(=O)C=C(OC2=C1)C1=CC=C(O)C=C1
RETENTIONTIME:  
CCS:  205.9049838
IONMODE:  Negative
INSTRUMENTTYPE:  
INSTRUMENT:  qTof
COLLISIONENERGY:  
Comment:  DB#=CCMSLIB00000077236; origin=GNPS
Num Peaks:  30
117.03444	20.0
161.01924	10.0
163.03477	30.0
178.99677	10.0
205.04665	50.0
207.02782	20.0
216.00441	20.0
231.02733	50.0
268.02823	50.0
269.0379	70.0
274.33456	10.0
282.0466	510.0
293.03879	70.0
295.05219	70.0
297.03519	1000.0
300.66965	40.0
309.0321	30.0
310.03891	60.0
311.04752	40.0
314.03571	100.0
321.08081	10.0
323.04691	40.0
325.06155	310.0
327.04538	20.0
339.03601	20.0
341.05771	10.0
353.05826	10.0
355.07581	30.0
385.08945	10.0
445.10419	320.0

NAME:  Tiliroside
PRECURSORMZ:  593.13006444483
PRECURSORTYPE:  [M-H]-
FORMULA:  C30H26O13
Ontology: Kingdom: Organic compounds;Superclass: Phenylpropanoids and polyketides;Class: Flavonoids;Subclass: Flavonoid glycosides
INCHIKEY:  DVGGLGXQSFURLP-UHFFFAOYNA-N
SMILES:  OC1C(COC(=O)C=CC2=CC=C(O)C=C2)OC(OC2=C(OC3=CC(O)=CC(O)=C3C2=O)C2=CC=C(O)C=C2)C(O)C1O
RETENTIONTIME:  
CCS:  226.2850981
IONMODE:  Negative
INSTRUMENTTYPE:  
INSTRUMENT:  qTof
COLLISIONENERGY:  
Comment:  DB#=CCMSLIB00000077237; origin=GNPS
Num Peaks:  13
145.02873	50.0
151.00169	20.0
163.03958	20.0
227.03067	30.0
229.04654	10.0
255.02638	60.0
256.03363	40.0
257.03766	30.0
284.02493	1000.0
285.03302	1000.0
307.07529	40.0
447.08624	40.0
593.11615	70.0

NAME:  7-hydroxy-coumarin
PRECURSORMZ:  161.02441760083
PRECURSORTYPE:  [M-H]-
FORMULA:  C9H6O3
Ontology: Kingdom: Organic compounds;Superclass: Phenylpropanoids and polyketides;Class: Coumarins and derivatives;Subclass: Hydroxycoumarins
INCHIKEY:  ORHBXUUXSCNDEV-UHFFFAOYSA-N
SMILES:  OC1=CC2=C(C=C1)C=CC(=O)O2
RETENTIONTIME:  
CCS:  129.5382746
IONMODE:  Negative
INSTRUMENTTYPE:  
INSTRUMENT:  qTof
COLLISIONENERGY:  
Comment:  DB#=CCMSLIB00000078883; origin=GNPS
Num Peaks:  3
117.03911	20.0
133.03648	570.0
161.03233	1000.0

NAME:  trans-5-O-Caffeoylquinic acid
PRECURSORMZ:  353.08780570783
PRECURSORTYPE:  [M-H]-
FORMULA:  C16H18O9
Ontology: Kingdom: Organic compounds;Superclass: Organic oxygen compounds;Class: Organooxygen compounds;Subclass: Alcohols and polyols
INCHIKEY:  CWVRJTMFETXNAD-UHFFFAOYNA-N
SMILES:  OC1CC(O)(CC(OC(=O)C=CC2=CC(O)=C(O)C=C2)C1O)C(O)=O
RETENTIONTIME:  
CCS:  177.8649823
IONMODE:  Negative
INSTRUMENTTYPE:  
INSTRUMENT:  qTof
COLLISIONENERGY:  
Comment:  DB#=CCMSLIB00000078885; origin=GNPS
Num Peaks:  2
161.03177	10.0
191.06528	1000.0

NAME:  Gallic acid
PRECURSORMZ:  169.01424684083
PRECURSORTYPE:  [M-H]-
FORMULA:  C7H6O5
Ontology: Kingdom: Organic compounds;Superclass: Benzenoids;Class: Benzene and substituted derivatives;Subclass: Benzoic acids and derivatives
INCHIKEY:  LNTHITQWFMADLM-UHFFFAOYSA-N
SMILES:  OC(=O)C1=CC(O)=C(O)C(O)=C1
RETENTIONTIME:  
CCS:  129.6279314
IONMODE:  Negative
INSTRUMENTTYPE:  
INSTRUMENT:  qTof
COLLISIONENERGY:  
Comment:  DB#=CCMSLIB00000078886; origin=GNPS
Num Peaks:  4
124.02251	30.0
125.03031	1000.0
126.03368	20.0
169.02184	190.0

NAME:  trans-p-Hydroxycinnamic acid
PRECURSORMZ:  163.04006766583
PRECURSORTYPE:  [M-H]-
FORMULA:  C9H8O3
Ontology: Kingdom: Organic compounds;Superclass: Phenylpropanoids and polyketides;Class: Cinnamic acids and derivatives;Subclass: Hydroxycinnamic acids and derivatives
INCHIKEY:  NGSWKAQJJWESNS-UHFFFAOYSA-N
SMILES:  OC(=O)C=CC1=CC=C(O)C=C1
RETENTIONTIME:  
CCS:  132.7145287
IONMODE:  Negative
INSTRUMENTTYPE:  
INSTRUMENT:  qTof
COLLISIONENERGY:  
Comment:  DB#=CCMSLIB00000078887; origin=GNPS
Num Peaks:  4
117.03919	20.0
119.05614	1000.0
120.05879	20.0
163.04848	10.0

NAME:  Rosmarinic acid
PRECURSORMZ:  359.07724102283
PRECURSORTYPE:  [M-H]-
FORMULA:  C18H16O8
Ontology: Kingdom: Organic compounds;Superclass: Phenylpropanoids and polyketides;Class: Cinnamic acids and derivatives;Subclass: Hydroxycinnamic acids and derivatives
INCHIKEY:  DOUMFZQKYFQNTF-UHFFFAOYNA-N
SMILES:  OC(=O)C(CC1=CC(O)=C(O)C=C1)OC(=O)C=CC1=CC(O)=C(O)C=C1
RETENTIONTIME:  
CCS:  181.2276172
IONMODE:  Negative
INSTRUMENTTYPE:  
INSTRUMENT:  qTof
COLLISIONENERGY:  
Comment:  DB#=CCMSLIB00000078888; origin=GNPS
Num Peaks:  8
123.05144	100.0
132.02689	30.0
133.03598	300.0
134.04294	30.0
135.04993	340.0
151.04561	20.0
161.03178	1000.0
179.04236	300.0

NAME:  Sinapinic acid
PRECURSORMZ:  223.06119703383
PRECURSORTYPE:  [M-H]-
FORMULA:  C11H12O5
Ontology: Kingdom: Organic compounds;Superclass: Phenylpropanoids and polyketides;Class: Cinnamic acids and derivatives;Subclass: Hydroxycinnamic acids and derivatives
INCHIKEY:  PCMORTLOPMLEFB-UHFFFAOYSA-N
SMILES:  COC1=CC(C=CC(O)=O)=CC(OC)=C1O
RETENTIONTIME:  
CCS:  148.2422518
IONMODE:  Negative
INSTRUMENTTYPE:  
INSTRUMENT:  qTof
COLLISIONENERGY:  
Comment:  DB#=CCMSLIB00000078889; origin=GNPS
Num Peaks:  11
121.03572	270.0
134.04289	10.0
135.04988	120.0
148.02412	50.0
149.03201	620.0
163.04808	170.0
164.05611	40.0
165.02728	300.0
193.02319	1000.0
207.04012	10.0
208.04813	20.0

NAME:  Baicalin
PRECURSORMZ:  445.07763494783
PRECURSORTYPE:  [M-H]-
FORMULA:  C21H18O11
Ontology: Kingdom: Organic compounds;Superclass: Phenylpropanoids and polyketides;Class: Flavonoids;Subclass: Flavonoid glycosides
INCHIKEY:  IKIIZLYTISPENI-UHFFFAOYNA-N
SMILES:  OC1C(O)C(OC2=C(O)C(O)=C3C(=O)C=C(OC3=C2)C2=CC=CC=C2)OC(C1O)C(O)=O
RETENTIONTIME:  
CCS:  198.5176695
IONMODE:  Negative
INSTRUMENTTYPE:  
INSTRUMENT:  qTof
COLLISIONENERGY:  
Comment:  DB#=CCMSLIB00000078890; origin=GNPS
Num Peaks:  3
175.03218	90.0
269.05536	1000.0
445.09705	160.0

NAME:  Daidzein
PRECURSORMZ:  253.05063234983
PRECURSORTYPE:  [M-H]-
FORMULA:  C15H10O4
Ontology: Kingdom: Organic compounds;Superclass: Phenylpropanoids and polyketides;Class: Isoflavonoids;Subclass: Isoflav
INCHIKEY:  ZQSIJRDFPHDXIC-UHFFFAOYSA-N
SMILES:  OC1=CC=C(C=C1)C1=COC2=C(C=CC(O)=C2)C1=O
RETENTIONTIME:  
CCS:  158.7776973
IONMODE:  Negative
INSTRUMENTTYPE:  
INSTRUMENT:  qTof
COLLISIONENERGY:  
Comment:  DB#=CCMSLIB00000078891; origin=GNPS
Num Peaks:  16
132.02686	1000.0
133.03558	670.0
135.01488	190.0
153.02834	120.0
167.05592	120.0
169.07437	110.0
180.06659	330.0
195.05351	530.0
196.05981	200.0
197.06747	150.0
208.06493	620.0
209.06924	210.0
223.04932	940.0
224.05693	440.0
225.06587	110.0
253.06114	510.0

NAME:  Mangiferin
PRECURSORMZ:  421.07763494783
PRECURSORTYPE:  [M-H]-
FORMULA:  C19H18O11
Ontology: ;;;
INCHIKEY:  AEDDIBAIWPIIBD-UHFFFAOYNA-N
SMILES:  OCC1OC(C(O)C(O)C1O)C1=C(O)C2=C(OC3=C(C=C(O)C(O)=C3)C2=O)C=C1O
RETENTIONTIME:  
CCS:  196.0031985
IONMODE:  Negative
INSTRUMENTTYPE:  
INSTRUMENT:  qTof
COLLISIONENERGY:  
Comment:  DB#=CCMSLIB00000078892; origin=GNPS
Num Peaks:  9
258.03021	190.0
259.03568	350.0
271.03378	350.0
272.0405	410.0
273.05307	140.0
285.05444	70.0
301.04962	1000.0
313.04843	110.0
331.05649	670.0

NAME:  Quercitrin
PRECURSORMZ:  447.09328501183
PRECURSORTYPE:  [M-H]-
FORMULA:  C21H20O11
Ontology: Kingdom: Organic compounds;Superclass: Phenylpropanoids and polyketides;Class: Flavonoids;Subclass: Flavonoid glycosides
INCHIKEY:  OXGUCUVFOIWWQJ-UHFFFAOYNA-N
SMILES:  CC1OC(OC2=C(OC3=CC(O)=CC(O)=C3C2=O)C2=CC(O)=C(O)C=C2)C(O)C(O)C1O
RETENTIONTIME:  
CCS:  200.6827075
IONMODE:  Negative
INSTRUMENTTYPE:  
INSTRUMENT:  qTof
COLLISIONENERGY:  
Comment:  DB#=CCMSLIB00000078893; origin=GNPS
Num Peaks:  8
151.00951	120.0
163.0081	50.0
179.00439	80.0
243.04161	60.0
255.03976	200.0
271.03275	480.0
300.03873	1000.0
301.04486	460.0

NAME:  Taxifolin
PRECURSORMZ:  303.05102627383
PRECURSORTYPE:  [M-H]-
FORMULA:  C15H12O7
Ontology: Kingdom: Organic compounds;Superclass: Phenylpropanoids and polyketides;Class: Flavonoids;Subclass: Flavans
INCHIKEY:  CXQWRCVTCMQVQX-UHFFFAOYNA-N
SMILES:  OC1C(OC2=CC(O)=CC(O)=C2C1=O)C1=CC(O)=C(O)C=C1
RETENTIONTIME:  
CCS:  168.2785531
IONMODE:  Negative
INSTRUMENTTYPE:  
INSTRUMENT:  qTof
COLLISIONENERGY:  
Comment:  DB#=CCMSLIB00000078894; origin=GNPS
Num Peaks:  37
123.05216	30.0
125.03021	840.0
126.03233	30.0
137.03018	30.0
149.0336	80.0
150.03796	40.0
151.01154	190.0
152.01634	120.0
153.02541	260.0
161.03252	20.0
169.02193	30.0
174.03815	30.0
175.04906	230.0
177.02617	260.0
179.00482	320.0
180.01057	20.0
181.02016	120.0
188.05595	20.0
189.06471	70.0
191.04065	20.0
193.05788	50.0
199.04691	120.0
201.02763	30.0
213.06247	20.0
215.07462	20.0
216.05302	20.0
217.06122	230.0
219.03764	20.0
231.07414	80.0
235.07288	30.0
241.06139	120.0
243.04054	30.0
257.05527	30.0
259.06976	160.0
275.06836	230.0
285.05356	1000.0
303.06503	170.0

NAME:  Licarin A
PRECURSORMZ:  325.14453273583
PRECURSORTYPE:  [M-H]-
FORMULA:  C20H22O4
Ontology: Kingdom: Organic compounds;Superclass: Phenylpropanoids and polyketides;;
INCHIKEY:  ITDOFWOJEDZPCF-UHFFFAOYNA-N
SMILES:  COC1=CC(C=CC)=CC2=C1OC(C2C)C1=CC(OC)=C(O)C=C1
RETENTIONTIME:  
CCS:  184.7146417
IONMODE:  Negative
INSTRUMENTTYPE:  
INSTRUMENT:  Ion Trap
COLLISIONENERGY:  
Comment:  DB#=CCMSLIB00000081240; origin=GNPS
Num Peaks:  10
133.97701	20.0
133.987	20.0
148.97	60.0
148.97501	60.0
293.104	10.0
295.09	90.0
295.09799	90.0
309.077	10.0
310.10199	1000.0
310.104	1000.0

NAME:  2-(5-formyl-3,4-dihydro-2,2-dimethyl-2H-pyran-6-yl)-Benzoic acid
PRECURSORMZ:  259.09758254283
PRECURSORTYPE:  [M-H]-
FORMULA:  C15H16O4
Ontology: Kingdom: Organic compounds;Superclass: Phenylpropanoids and polyketides;Class: Cinnamaldehydes;
INCHIKEY:  PRIHHXHWVNIQPJ-UHFFFAOYSA-N
SMILES:  CC1(C)CCC(C=O)=C(O1)C1=CC=CC=C1C(O)=O
RETENTIONTIME:  
CCS:  -1
IONMODE:  Negative
INSTRUMENTTYPE:  
INSTRUMENT:  qTof
COLLISIONENERGY:  
Comment:  DB#=CCMSLIB00000081245; origin=GNPS
Num Peaks:  18
156.06631	20.0
157.07336	210.0
158.0461	250.0
159.04961	40.0
169.1109	30.0
171.05353	10.0
179.09407	50.0
181.07384	80.0
182.08305	80.0
183.0863	10.0
187.12241	10.0
195.09091	20.0
197.10568	900.0
198.10863	140.0
199.08466	30.0
215.11771	1000.0
216.12112	150.0
217.12341	20.0

NAME:  2,2-dimethyl-5-oxo-2,3,4,5-tetrahydroindeno[1,2-b]pyran-6-carboxylic acid
PRECURSORMZ:  257.08193247883
PRECURSORTYPE:  [M-H]-
FORMULA:  C15H14O4
Ontology: Kingdom: Organic compounds;Superclass: Benzenoids;Class: Indenes and isoindenes;
INCHIKEY:  SRAZIDLUTMRWNZ-UHFFFAOYSA-N
SMILES:  CC1(C)CCC2=C(O1)C1=C(C2=O)C(=CC=C1)C(O)=O
RETENTIONTIME:  
CCS:  -1
IONMODE:  Negative
INSTRUMENTTYPE:  
INSTRUMENT:  qTof
COLLISIONENERGY:  
Comment:  DB#=CCMSLIB00000081249; origin=GNPS
Num Peaks:  10
157.03802	440.0
158.03996	50.0
175.04893	80.0
213.10094	1000.0
214.1048	150.0
215.1106	20.0
231.11218	180.0
232.11691	30.0
255.24263	20.0
257.09351	60.0

NAME:  Cucurbitacin I
PRECURSORMZ:  513.28577723983
PRECURSORTYPE:  [M-H]-
FORMULA:  C30H42O7
Ontology: Kingdom: Organic compounds;Superclass: Lipids and lipid;Class: Steroids and steroid derivatives;Subclass: Cucurbitacins
INCHIKEY:  NISPVUDLMHQFRQ-UHFFFAOYNA-N
SMILES:  CC(C)(O)C=CC(=O)C(C)(O)C1C(O)CC2(C)C3CC=C4C(C=C(O)C(=O)C4(C)C)C3(C)C(=O)CC12C
RETENTIONTIME:  
CCS:  225.10431
IONMODE:  Negative
INSTRUMENTTYPE:  
INSTRUMENT:  qTof
COLLISIONENERGY:  
Comment:  DB#=CCMSLIB00000081268; origin=GNPS
Num Peaks:  3
163.07686	120.0
495.29291	600.0
513.30377	1000.0

NAME:  Gibberellic acid
PRECURSORMZ:  345.13436197583
PRECURSORTYPE:  [M-H]-
FORMULA:  C19H22O6
Ontology: Kingdom: Organic compounds;Superclass: Lipids and lipid;Class: Prenol lipids;Subclass: Diterpenoids
INCHIKEY:  IXORZMNAPKEEDV-UHFFFAOYNA-N
SMILES:  CC12C3C(C(O)=O)C45CC(=C)C(O)(C4)CCC5C3(OC1=O)C=CC2O
RETENTIONTIME:  
CCS:  183.8102282
IONMODE:  Negative
INSTRUMENTTYPE:  
INSTRUMENT:  qTof
COLLISIONENERGY:  
Comment:  DB#=CCMSLIB00000081269; origin=GNPS
Num Peaks:  22
143.07764	1000.0
144.0808	40.0
161.08879	40.0
183.07207	10.0
185.08961	10.0
197.1272	20.0
199.10742	20.0
201.12283	50.0
213.12044	40.0
221.12564	670.0
222.12968	40.0
227.10307	250.0
237.1234	20.0
239.1387	290.0
253.1187	20.0
255.131	20.0
257.14709	90.0
271.09198	90.0
283.12955	90.0
301.13821	70.0
327.11484	10.0
345.12823	220.0

NAME:  Goyazensolide
PRECURSORMZ:  359.11362653183
PRECURSORTYPE:  [M-H]-
FORMULA:  C19H20O7
Ontology: Kingdom: Organic compounds;Superclass: Lipids and lipid;Class: Prenol lipids;Subclass: Terpene lactones
INCHIKEY:  HTMCLLSRQWRPTN-UHFFFAOYNA-N
SMILES:  CC(=C)C(=O)OC1CC2(C)OC(=CC2=O)C(CO)=CC2OC(=O)C(=C)C12
RETENTIONTIME:  
CCS:  190.2413012
IONMODE:  Negative
INSTRUMENTTYPE:  
INSTRUMENT:  qTof
COLLISIONENERGY:  
Comment:  DB#=CCMSLIB00000081274; origin=GNPS
Num Peaks:  9
199.0706	70.0
211.06941	90.0
227.0638	100.0
243.06059	220.0
247.05399	150.0
255.05937	1000.0
273.07401	170.0
329.09525	170.0
359.10785	900.0

NAME:  Kaurenic acid
PRECURSORMZ:  301.21730375383
PRECURSORTYPE:  [M-H]-
FORMULA:  C20H30O2
Ontology: Kingdom: Organic compounds;Superclass: Lipids and lipid;Class: Prenol lipids;Subclass: Diterpenoids
INCHIKEY:  NIKHGUQULKYIGE-UHFFFAOYNA-N
SMILES:  [H]C12CC3(CC1=C)CCC1C(C)(CCCC1(C)C(O)=O)C3CC2
RETENTIONTIME:  
CCS:  182.2212014
IONMODE:  Negative
INSTRUMENTTYPE:  
INSTRUMENT:  qTof
COLLISIONENERGY:  
Comment:  DB#=CCMSLIB00000081278; origin=GNPS
Num Peaks:  1
301.21072	1000.0

NAME:  4'-Methylgenistein (Biochanin A)
PRECURSORMZ:  283.06119703383
PRECURSORTYPE:  [M-H]-
FORMULA:  C16H12O5
Ontology: Kingdom: Organic compounds;Superclass: Phenylpropanoids and polyketides;Class: Isoflavonoids;Subclass: O
INCHIKEY:  WUADCCWRTIWANL-UHFFFAOYSA-N
SMILES:  COC1=CC=C(C=C1)C1=COC2=CC(O)=CC(O)=C2C1=O
RETENTIONTIME:  
CCS:  166.8210396
IONMODE:  Negative
INSTRUMENTTYPE:  
INSTRUMENT:  qTof
COLLISIONENERGY:  
Comment:  DB#=CCMSLIB00000081281; origin=GNPS
Num Peaks:  22
132.01228	160.0
134.02489	10.0
134.9991	20.0
150.99377	20.0
153.00951	20.0
154.03351	20.0
167.04225	30.0
183.03368	20.0
184.04337	40.0
195.03729	80.0
196.04611	50.0
198.02235	20.0
211.03177	300.0
212.03931	80.0
223.03436	100.0
224.04199	90.0
226.01962	60.0
239.02795	520.0
240.03416	180.0
267.02115	540.0
268.02979	1000.0
283.05481	20.0

NAME:  Norberto Lopes
PRECURSORMZ:  267.06628241383
PRECURSORTYPE:  [M-H]-
FORMULA:  C16H12O4
Ontology: Kingdom: Organic compounds;Superclass: Phenylpropanoids and polyketides;Class: Isoflavonoids;Subclass: O
INCHIKEY:  HKQYGTCOTHHOMP-UHFFFAOYSA-N
SMILES:  COC1=CC=C(C=C1)C1=COC2=C(C=CC(O)=C2)C1=O
RETENTIONTIME:  
CCS:  164.0950615
IONMODE:  Negative
INSTRUMENTTYPE:  
INSTRUMENT:  qTof
COLLISIONENERGY:  
Comment:  DB#=CCMSLIB00000081283; origin=GNPS
Num Peaks:  12
132.00948	250.0
134.99854	110.0
153.0098	50.0
167.04221	90.0
180.04945	40.0
195.03749	720.0
196.04436	60.0
208.04568	90.0
223.03448	1000.0
224.04181	210.0
251.02766	430.0
252.03577	420.0

NAME:  Genistein
PRECURSORMZ:  269.04554696983
PRECURSORTYPE:  [M-H]-
FORMULA:  C15H10O5
Ontology: Kingdom: Organic compounds;Superclass: Phenylpropanoids and polyketides;Class: Isoflavonoids;Subclass: Isoflav
INCHIKEY:  TZBJGXHYKVUXJN-UHFFFAOYSA-N
SMILES:  OC1=CC=C(C=C1)C1=COC2=CC(O)=CC(O)=C2C1=O
RETENTIONTIME:  
CCS:  161.5037462
IONMODE:  Negative
INSTRUMENTTYPE:  
INSTRUMENT:  qTof
COLLISIONENERGY:  
Comment:  DB#=CCMSLIB00000081286; origin=GNPS
Num Peaks:  39
117.02414	30.0
129.02493	40.0
130.0314	50.0
131.03751	60.0
132.00932	520.0
133.01822	1000.0
134.0258	230.0
135.0332	390.0
141.02344	60.0
143.04076	50.0
150.99303	60.0
154.03329	60.0
155.04028	100.0
156.04736	40.0
157.01909	140.0
158.02602	50.0
159.03456	430.0
167.03992	60.0
169.0555	70.0
171.0369	70.0
173.05116	40.0
180.04919	190.0
181.05864	80.0
182.02704	70.0
183.03511	170.0
195.03506	80.0
196.04675	70.0
197.05235	50.0
199.033	50.0
201.04929	70.0
211.03165	30.0
213.05006	40.0
223.03374	70.0
224.04195	130.0
225.04588	40.0
239.02792	60.0
240.03275	40.0
241.04034	30.0
269.03854	300.0

NAME:  Monensin
PRECURSORMZ:  669.42193636383
PRECURSORTYPE:  [M-H]-
FORMULA:  C36H62O11
Ontology: Kingdom: Organic compounds;Superclass: Lipids and lipid;Class: Fatty Acyls;Subclass: Fatty acids and conjugates
INCHIKEY:  GAOZTHIDHYLHMS-UHFFFAOYNA-N
SMILES:  CCC1(CCC(O1)C1(C)CCC2(CC(O)C(C)C(O2)C(C)C(OC)C(C)C(O)=O)O1)C1OC(CC1C)C1OC(O)(CO)C(C)CC1C
RETENTIONTIME:  
CCS:  252.0189316
IONMODE:  Negative
INSTRUMENTTYPE:  
INSTRUMENT:  qTof
COLLISIONENERGY:  
Comment:  DB#=CCMSLIB00000081288; origin=GNPS
Num Peaks:  50
121.05332	30.0
123.06971	90.0
125.08332	60.0
127.06373	80.0
129.07983	30.0
135.07173	80.0
137.08565	1000.0
138.08965	40.0
139.0661	120.0
141.08253	280.0
151.10252	80.0
153.08182	510.0
155.097	30.0
159.0976	60.0
163.10356	60.0
165.11646	110.0
171.09508	40.0
173.11557	60.0
175.10132	30.0
177.11884	290.0
181.10571	100.0
183.12868	30.0
188.09618	30.0
191.13551	170.0
193.1169	40.0
195.13106	80.0
199.1252	30.0
201.10561	40.0
205.14973	40.0
207.166	30.0
211.161	90.0
213.13985	110.0
217.15297	30.0
223.15974	50.0
231.1665	30.0
233.1833	50.0
235.16437	30.0
269.17133	40.0
281.17096	20.0
283.18872	30.0
293.20551	30.0
311.21634	30.0
319.21945	30.0
337.23105	40.0
355.2424	30.0
439.26053	50.0
455.29437	70.0
593.39276	30.0
637.38336	380.0
669.40564	610.0

NAME:  Chrysoeriol (Luteolin 3'-methyl ether)
PRECURSORMZ:  299.05611165383
PRECURSORTYPE:  [M-H]-
FORMULA:  C16H12O6
Ontology: Kingdom: Organic compounds;Superclass: Phenylpropanoids and polyketides;Class: Flavonoids;Subclass: O
INCHIKEY:  SCZVLDHREVKTSH-UHFFFAOYSA-N
SMILES:  COC1=C(O)C=CC(=C1)C1=CC(=O)C2=C(O)C=C(O)C=C2O1
RETENTIONTIME:  
CCS:  168.4346568
IONMODE:  Negative
INSTRUMENTTYPE:  
INSTRUMENT:  qTof
COLLISIONENERGY:  
Comment:  DB#=CCMSLIB00000081299; origin=GNPS
Num Peaks:  1
284.02301	1000.0

NAME:  Catechin
PRECURSORMZ:  289.07176171883
PRECURSORTYPE:  [M-H]-
FORMULA:  C15H14O6
Ontology: Kingdom: Organic compounds;Superclass: Phenylpropanoids and polyketides;Class: Flavonoids;Subclass: Flavans
INCHIKEY:  PFTAWBLQPZVEMU-UHFFFAOYNA-N
SMILES:  OC1CC2=C(O)C=C(O)C=C2OC1C1=CC(O)=C(O)C=C1
RETENTIONTIME:  
CCS:  167.2576758
IONMODE:  Negative
INSTRUMENTTYPE:  
INSTRUMENT:  qTof
COLLISIONENERGY:  
Comment:  DB#=CCMSLIB00000081478; origin=GNPS
Num Peaks:  27
123.0351	350.0
125.01297	490.0
135.03632	80.0
137.01311	420.0
138.02063	70.0
139.02998	140.0
149.01605	210.0
151.03104	470.0
159.03577	70.0
161.04982	220.0
162.02437	80.0
163.03178	100.0
164.00157	140.0
165.01189	300.0
167.02847	110.0
175.0452	90.0
179.02794	400.0
187.03239	210.0
188.0416	180.0
202.0611	140.0
203.06606	660.0
205.04243	540.0
221.07558	370.0
227.0638	120.0
245.07732	1000.0
247.05414	120.0
289.06439	860.0

NAME:  Epicatechin
PRECURSORMZ:  289.07176171883
PRECURSORTYPE:  [M-H]-
FORMULA:  C15H14O6
Ontology: ;;;
INCHIKEY:  PFTAWBLQPZVEMU-UHFFFAOYNA-N
SMILES:  OC1CC2=C(O)C=C(O)C=C2OC1C1=CC(O)=C(O)C=C1
RETENTIONTIME:  
CCS:  167.2576758
IONMODE:  Negative
INSTRUMENTTYPE:  
INSTRUMENT:  qTof
COLLISIONENERGY:  
Comment:  DB#=CCMSLIB00000081480; origin=GNPS
Num Peaks:  16
123.03435	420.0
125.01284	840.0
137.01337	620.0
139.03032	180.0
149.01538	210.0
151.03102	750.0
161.04915	220.0
165.01138	350.0
179.02721	320.0
187.03201	280.0
188.04211	170.0
203.06592	710.0
205.04253	550.0
221.07559	300.0
245.07687	950.0
289.06369	1000.0

NAME:  Epigallocatechin
PRECURSORMZ:  305.06667633883
PRECURSORTYPE:  [M-H]-
FORMULA:  C15H14O7
Ontology: Kingdom: Organic compounds;Superclass: Phenylpropanoids and polyketides;Class: Flavonoids;Subclass: Flavans
INCHIKEY:  XMOCLSLCDHWDHP-UHFFFAOYNA-N
SMILES:  OC1CC2=C(O)C=C(O)C=C2OC1C1=CC(O)=C(O)C(O)=C1
RETENTIONTIME:  
CCS:  169.6317111
IONMODE:  Negative
INSTRUMENTTYPE:  
INSTRUMENT:  qTof
COLLISIONENERGY:  
Comment:  DB#=CCMSLIB00000081482; origin=GNPS
Num Peaks:  10
125.01235	1000.0
137.01245	350.0
139.0302	250.0
165.01125	390.0
167.02753	270.0
179.02728	320.0
219.05666	210.0
221.04349	150.0
261.07495	160.0
305.05911	940.0

NAME:  1-cyclopropyl-6,7-difluoro-1,4-dihydro-8-hydroxy-4-oxo-3-Quinoline-3-carboxylic acid
PRECURSORMZ:  280.04268764783
PRECURSORTYPE:  [M-H]-
FORMULA:  C13H9F2NO4
Ontology: Kingdom: Organic compounds;Superclass: Organoheterocyclic compounds;Class: Quinolines and derivatives;Subclass: Quinoline carboxylic acids
INCHIKEY:  NTWOKQCCNHKEIU-UHFFFAOYSA-N
SMILES:  OC(=O)C1=CN(C2CC2)C2=C(O)C(F)=C(F)C=C2C1=O
RETENTIONTIME:  
CCS:  -1
IONMODE:  Negative
INSTRUMENTTYPE:  
INSTRUMENT:  qTof
COLLISIONENERGY:  
Comment:  DB#=CCMSLIB00000081560; origin=GNPS
Num Peaks:  8
195.01353	1000.0
196.01781	100.0
216.04703	50.0
236.05284	120.0
237.05576	20.0
239.00331	640.0
240.00876	90.0
280.04004	980.0

NAME:  1-cyclopropyl-6,7-difluoro-1,4-dihydro-8-methoxy-4-oxo-3-Quinoline-3-carboxylic acid
PRECURSORMZ:  294.05833771183
PRECURSORTYPE:  [M-H]-
FORMULA:  C14H11F2NO4
Ontology: Kingdom: Organic compounds;Superclass: Organoheterocyclic compounds;Class: Quinolines and derivatives;Subclass: Quinoline carboxylic acids
INCHIKEY:  WQJZXSSAMGZVTM-UHFFFAOYSA-N
SMILES:  COC1=C2N(C=C(C(O)=O)C(=O)C2=CC(F)=C1F)C1CC1
RETENTIONTIME:  
CCS:  -1
IONMODE:  Negative
INSTRUMENTTYPE:  
INSTRUMENT:  qTof
COLLISIONENERGY:  
Comment:  DB#=CCMSLIB00000081562; origin=GNPS
Num Peaks:  29
127.00406	10.0
128.01083	10.0
138.03882	10.0
158.0451	50.0
166.03523	10.0
167.02734	60.0
179.02797	30.0
180.03365	20.0
186.04173	200.0
187.04919	120.0
188.05191	10.0
190.05373	20.0
194.03049	40.0
195.02116	560.0
196.02226	60.0
206.04938	100.0
207.05322	20.0
208.02808	50.0
209.03629	20.0
210.04272	20.0
214.03944	170.0
215.04614	70.0
216.04675	10.0
217.04163	20.0
220.02983	890.0
221.03278	110.0
233.03886	290.0
234.04485	1000.0
235.0493	190.0

NAME:  Carbamimidothioic acid
PRECURSORMZ:  182.99035802183
PRECURSORTYPE:  [M-H]-
FORMULA:  C3H8N2O3S2
Ontology: Kingdom: Organic compounds;Superclass: Organic acids and derivatives;Class: Organic sulfonic acids and derivatives;Subclass: Organosulfonic acids and derivatives
INCHIKEY:  LTHWZZOUNJCHES-UHFFFAOYSA-N
SMILES:  NC(=N)SCCS(O)(=O)=O
RETENTIONTIME:  
CCS:  133.6940137
IONMODE:  Negative
INSTRUMENTTYPE:  
INSTRUMENT:  qTof
COLLISIONENERGY:  
Comment:  DB#=CCMSLIB00000081564; origin=GNPS
Num Peaks:  1
140.96564	1000.0

NAME:  2-[(4,6-diamino-1,3,5-triazin-2-yl)thio]-Ethanesulfonic acid
PRECURSORMZ:  250.00740506583
PRECURSORTYPE:  [M-H]-
FORMULA:  C5H9N5O3S2
Ontology: Kingdom: Organic compounds;Superclass: Organoheterocyclic compounds;Class: Triazines;Subclass: Aminotriazines
INCHIKEY:  VOWJSEYJDXBICY-UHFFFAOYSA-N
SMILES:  OS(=O)(=O)CCSC1=NC(=N)NC(=N)N1
RETENTIONTIME:  
CCS:  -1
IONMODE:  Negative
INSTRUMENTTYPE:  
INSTRUMENT:  qTof
COLLISIONENERGY:  
Comment:  DB#=CCMSLIB00000081567; origin=GNPS
Num Peaks:  4
142.01634	1000.0
143.01562	60.0
144.01128	30.0
250.00069	60.0

NAME:  2,6-di-tert-butyl-4-methylphenol
PRECURSORMZ:  219.17543894083
PRECURSORTYPE:  [M-H]-
FORMULA:  C15H24O
Ontology: Kingdom: Organic compounds;Superclass: Benzenoids;Class: Benzene and substituted derivatives;Subclass: Phenylpropanes
INCHIKEY:  NLZUEZXRPGMBCV-UHFFFAOYSA-N
SMILES:  CC1=CC(=C(O)C(=C1)C(C)(C)C)C(C)(C)C
RETENTIONTIME:  
CCS:  156.758367
IONMODE:  Negative
INSTRUMENTTYPE:  
INSTRUMENT:  qTof
COLLISIONENERGY:  
Comment:  DB#=CCMSLIB00000081568; origin=GNPS
Num Peaks:  2
203.14291	540.0
219.17691	1000.0

NAME:  2-[[(Guanidino) (imino)methyl]sulfanyl]ethanesulfonic Acid
PRECURSORMZ:  225.01215609383
PRECURSORTYPE:  [M-H]-
FORMULA:  C4H10N4O3S2
Ontology: Kingdom: Organic compounds;Superclass: Organic acids and derivatives;Class: Organic sulfonic acids and derivatives;Subclass: Organosulfonic acids and derivatives
INCHIKEY:  MFFQNMFIVBUMBX-UHFFFAOYSA-N
SMILES:  NC(=N)NC(=N)SCCS(O)(=O)=O
RETENTIONTIME:  
CCS:  -1
IONMODE:  Negative
INSTRUMENTTYPE:  
INSTRUMENT:  qTof
COLLISIONENERGY:  
Comment:  DB#=CCMSLIB00000081569; origin=GNPS
Num Peaks:  13
140.96236	1000.0
141.967	30.0
142.9604	50.0
165.95963	270.0
174.99313	10.0
175.98102	20.0
176.97569	50.0
182.98639	270.0
183.98711	20.0
184.98105	10.0
193.98985	20.0
194.98524	70.0
225.00743	50.0

NAME:  3-Isobutylglutaric acid
PRECURSORMZ:  187.09758254283
PRECURSORTYPE:  [M-H]-
FORMULA:  C9H16O4
Ontology: Kingdom: Organic compounds;Superclass: Lipids and lipid;Class: Fatty Acyls;Subclass: Fatty acids and conjugates
INCHIKEY:  QMZIONVGEYVZHY-UHFFFAOYSA-N
SMILES:  CC(C)(C)C(CC(O)=O)CC(O)=O
RETENTIONTIME:  
CCS:  145.8764438
IONMODE:  Negative
INSTRUMENTTYPE:  
INSTRUMENT:  qTof
COLLISIONENERGY:  
Comment:  DB#=CCMSLIB00000081572; origin=GNPS
Num Peaks:  6
125.09242	90.0
127.07151	10.0
143.10464	1000.0
144.1088	30.0
169.08791	20.0
187.09837	80.0

NAME:  Perfluorooctylsulfonic acid
PRECURSORMZ:  498.93021738483
PRECURSORTYPE:  [M-H]-
FORMULA:  C8HF17O3S
Ontology: Kingdom: Organic compounds;Superclass: Organohalogen compounds;Class: Alkyl halides;Subclass: Alkyl fluorides
INCHIKEY:  YFSUTJLHUFNCNZ-UHFFFAOYSA-N
SMILES:  OS(=O)(=O)C(F)(F)C(F)(F)C(F)(F)C(F)(F)C(F)(F)C(F)(F)C(F)(F)C(F)(F)F
RETENTIONTIME:  
CCS:  159.3554712
IONMODE:  Negative
INSTRUMENTTYPE:  
INSTRUMENT:  qTof
COLLISIONENERGY:  
Comment:  DB#=CCMSLIB00000081573; origin=GNPS
Num Peaks:  22
118.98969	140.0
129.94914	930.0
130.95146	20.0
131.94786	50.0
161.93987	120.0
168.98598	380.0
179.94714	260.0
180.94797	10.0
181.94174	10.0
211.93752	150.0
218.981	20.0
229.94287	1000.0
231.94191	50.0
261.93323	270.0
263.93176	10.0
274.95804	10.0
279.94177	200.0
281.93665	10.0
324.95624	10.0
329.93478	20.0
460.93127	20.0
498.92401	230.0

NAME:  Zoledronic acid
PRECURSORMZ:  270.98904821383
PRECURSORTYPE:  [M-H]-
FORMULA:  C5H10N2O7P2
Ontology: Kingdom: Organic compounds;Superclass: Organic acids and derivatives;Class: Organic phosphonic acids and derivatives;Subclass: Bisphosphonates
INCHIKEY:  XRASPMIURGNCCH-UHFFFAOYSA-N
SMILES:  OC(CN1C=CN=C1)(P(O)(O)=O)P(O)(O)=O
RETENTIONTIME:  
CCS:  157.2670571
IONMODE:  Negative
INSTRUMENTTYPE:  
INSTRUMENT:  qTof
COLLISIONENERGY:  
Comment:  DB#=CCMSLIB00000081574; origin=GNPS
Num Peaks:  7
127.00898	190.0
142.93205	90.0
170.99979	60.0
189.01131	1000.0
234.96982	80.0
252.98141	40.0
270.99124	30.0

NAME:  Beclometasone
PRECURSORMZ:  407.16307524783
PRECURSORTYPE:  [M-H]-
FORMULA:  C22H29ClO5
Ontology: Kingdom: Organic compounds;Superclass: Lipids and lipid;Class: Steroids and steroid derivatives;Subclass: Hydroxysteroids
INCHIKEY:  NBMKJKDGKREAPL-UHFFFAOYNA-N
SMILES:  CC1CC2C3CCC4=CC(=O)C=CC4(C)C3(Cl)C(O)CC2(C)C1(O)C(=O)CO
RETENTIONTIME:  
CCS:  199.405199
IONMODE:  Negative
INSTRUMENTTYPE:  
INSTRUMENT:  qTof
COLLISIONENERGY:  
Comment:  DB#=CCMSLIB00000081575; origin=GNPS
Num Peaks:  12
137.05872	20.0
181.08418	20.0
297.15024	440.0
313.18057	10.0
323.16492	130.0
326.15292	20.0
341.17703	1000.0
358.142	10.0
362.12894	20.0
377.15121	480.0
379.15112	170.0
407.16318	340.0

NAME:  Lauryl sulfate
PRECURSORMZ:  265.14790403883
PRECURSORTYPE:  [M-H]-
FORMULA:  C12H26O4S
Ontology: Kingdom: Organic compounds;Superclass: Organic acids and derivatives;Class: Organic sulfuric acids and derivatives;Subclass: Sulfuric acid esters
INCHIKEY:  MOTZDAYCYVMXPC-UHFFFAOYSA-N
SMILES:  CCCCCCCCCCCCOS(O)(=O)=O
RETENTIONTIME:  
CCS:  182.4316683
IONMODE:  Negative
INSTRUMENTTYPE:  
INSTRUMENT:  qTof
COLLISIONENERGY:  
Comment:  DB#=CCMSLIB00000081579; origin=GNPS
Num Peaks:  15
122.97009	20.0
136.98782	210.0
137.99396	20.0
151.00179	250.0
165.01685	720.0
166.02156	50.0
167.01511	30.0
179.0316	350.0
180.03587	30.0
183.16737	90.0
193.04929	200.0
194.05026	20.0
207.06554	90.0
221.07965	40.0
265.14182	1000.0

NAME:  Esomeprazole
PRECURSORMZ:  344.10743620583
PRECURSORTYPE:  [M-H]-
FORMULA:  C17H19N3O3S
Ontology: Kingdom: Organic compounds;Superclass: Organoheterocyclic compounds;Class: Benzimidazoles;Subclass: Sulfinylbenzimidazoles
INCHIKEY:  SUBDBMMJDZJVOS-UHFFFAOYNA-N
SMILES:  COC1=CC2=C(C=C1)N=C(N2)S(=O)CC1=C(C)C(OC)=C(C)C=N1
RETENTIONTIME:  
CCS:  182.6451965
IONMODE:  Negative
INSTRUMENTTYPE:  
INSTRUMENT:  qTof
COLLISIONENERGY:  
Comment:  DB#=CCMSLIB00000081582; origin=GNPS
Num Peaks:  8
147.01273	90.0
178.9879	1000.0
179.99069	80.0
180.98505	50.0
194.01254	960.0
195.01518	90.0
196.00813	50.0
339.19986	10.0

NAME:  Ezetimibe
PRECURSORMZ:  408.14167341383
PRECURSORTYPE:  [M-H]-
FORMULA:  C24H21F2NO3
Ontology: Kingdom: Organic compounds;Superclass: Organoheterocyclic compounds;Class: Lactams;Subclass: Beta lactams
INCHIKEY:  OLNTVTPDXPETLC-UHFFFAOYNA-N
SMILES:  OC(CCC1C(N(C1=O)C1=CC=C(F)C=C1)C1=CC=C(O)C=C1)C1=CC=C(F)C=C1
RETENTIONTIME:  
CCS:  216.5290497
IONMODE:  Negative
INSTRUMENTTYPE:  
INSTRUMENT:  qTof
COLLISIONENERGY:  
Comment:  DB#=CCMSLIB00000081587; origin=GNPS
Num Peaks:  1
271.10831	1000.0

NAME:  Quetiapine
PRECURSORMZ:  382.15947177883
PRECURSORTYPE:  [M-H]-
FORMULA:  C21H25N3O2S
Ontology: ;;;
INCHIKEY:  URKOMYMAXPYINW-UHFFFAOYSA-N
SMILES:  OCCOCCN1CCN(CC1)C1=NC2=CC=CC=C2SC2=CC=CC=C12
RETENTIONTIME:  
CCS:  188.1548338
IONMODE:  Negative
INSTRUMENTTYPE:  
INSTRUMENT:  qTof
COLLISIONENERGY:  
Comment:  DB#=CCMSLIB00000081590; origin=GNPS
Num Peaks:  5
251.06175	440.0
252.06203	90.0
252.99802	60.0
320.12091	360.0
382.15765	1000.0

NAME:  3-(2-amino-2-oxoethyl)-5-methyl-hexanoic acid
PRECURSORMZ:  186.11356695883
PRECURSORTYPE:  [M-H]-
FORMULA:  C9H17NO3
Ontology: Kingdom: Organic compounds;Superclass: Lipids and lipid;Class: Fatty Acyls;Subclass: Fatty acids and conjugates
INCHIKEY:  NPDKTSLVWGFPQG-UHFFFAOYNA-N
SMILES:  CC(C)CC(CC(O)=N)CC(O)=O
RETENTIONTIME:  
CCS:  150.9278124
IONMODE:  Negative
INSTRUMENTTYPE:  
INSTRUMENT:  qTof
COLLISIONENERGY:  
Comment:  DB#=CCMSLIB00000081591; origin=GNPS
Num Peaks:  8
125.09083	170.0
126.08596	460.0
127.07004	60.0
142.1171	1000.0
143.11861	30.0
168.09918	610.0
169.0909	30.0
186.11108	160.0

NAME:  3'-O-Methylquercetin
PRECURSORMZ:  315.05102627383
PRECURSORTYPE:  [M-H]-
FORMULA:  C16H12O7
Ontology: Kingdom: Organic compounds;Superclass: Phenylpropanoids and polyketides;Class: Flavonoids;Subclass: Flavones
INCHIKEY:  IZQSVPBOUDKVDZ-UHFFFAOYSA-N
SMILES:  COC1=C(O)C=CC(=C1)C1=C(O)C(=O)C2=C(O)C=C(O)C=C2O1
RETENTIONTIME:  
CCS:  171.1481859
IONMODE:  Negative
INSTRUMENTTYPE:  
INSTRUMENT:  qTof
COLLISIONENERGY:  
Comment:  DB#=CCMSLIB00000081595; origin=GNPS
Num Peaks:  41
124.01763	10.0
135.00847	10.0
136.01698	20.0
148.01527	120.0
149.02203	10.0
149.99539	40.0
151.0024	360.0
152.01021	50.0
153.01575	10.0
163.00356	80.0
164.01212	140.0
165.01584	10.0
169.01253	130.0
170.01875	10.0
172.05251	10.0
183.01186	240.0
184.01678	30.0
185.0114	20.0
188.04968	10.0
189.0172	20.0
192.00844	10.0
197.02538	20.0
199.03827	20.0
200.0451	20.0
202.02632	20.0
211.03593	10.0
215.03456	30.0
216.04179	70.0
226.02438	10.0
227.0363	80.0
228.03758	30.0
243.03027	80.0
244.03554	40.0
255.02829	70.0
256.03333	20.0
271.02106	140.0
272.02765	70.0
283.0246	100.0
285.03888	20.0
300.02573	1000.0
315.05121	30.0

NAME:  Perfluorooctanesulfonic acid
PRECURSORMZ:  498.93021738483
PRECURSORTYPE:  [M-H]-
FORMULA:  C8HF17O3S
Ontology: Kingdom: Organic compounds;Superclass: Organohalogen compounds;Class: Alkyl halides;Subclass: Alkyl fluorides
INCHIKEY:  YFSUTJLHUFNCNZ-UHFFFAOYSA-N
SMILES:  OS(=O)(=O)C(F)(F)C(F)(F)C(F)(F)C(F)(F)C(F)(F)C(F)(F)C(F)(F)C(F)(F)F
RETENTIONTIME:  
CCS:  159.3554712
IONMODE:  Negative
INSTRUMENTTYPE:  
INSTRUMENT:  qTof
COLLISIONENERGY:  
Comment:  DB#=CCMSLIB00000081601; origin=GNPS
Num Peaks:  15
118.99061	130.0
129.95303	920.0
131.9483	40.0
161.94228	60.0
168.98851	260.0
179.951	310.0
211.93951	30.0
218.92728	20.0
229.94905	1000.0
231.94347	50.0
260.87363	20.0
261.9418	40.0
279.94485	190.0
329.94394	30.0
498.93616	230.0

NAME:  Pitavastatin
PRECURSORMZ:  420.16165996783
PRECURSORTYPE:  [M-H]-
FORMULA:  C25H24FNO4
Ontology: ;;;
INCHIKEY:  VGYFMXBACGZSIL-UHFFFAOYNA-N
SMILES:  OC(CC(O)C=CC1=C(C2=CC=C(F)C=C2)C2=CC=CC=C2N=C1C1CC1)CC(O)=O
RETENTIONTIME:  
CCS:  201.0594612
IONMODE:  Negative
INSTRUMENTTYPE:  
INSTRUMENT:  qTof
COLLISIONENERGY:  
Comment:  DB#=CCMSLIB00000081602; origin=GNPS
Num Peaks:  20
194.0912	30.0
236.10034	20.0
238.08546	10.0
261.0892	20.0
262.09747	130.0
274.09604	20.0
276.11118	20.0
286.09534	10.0
288.11157	50.0
290.12503	1000.0
311.16409	20.0
316.10391	150.0
317.11002	50.0
320.13797	20.0
325.17786	10.0
332.13596	100.0
338.14584	110.0
340.14426	20.0
342.12082	20.0
358.15466	270.0

NAME:  Procyanidin B2
PRECURSORMZ:  577.13514982483
PRECURSORTYPE:  [M-H]-
FORMULA:  C30H26O12
Ontology: Kingdom: Organic compounds;Superclass: Phenylpropanoids and polyketides;Class: Flavonoids;Subclass: Biflavonoids and polyflavonoids
INCHIKEY:  XFZJEEAOWLFHDH-UHFFFAOYNA-N
SMILES:  OC1CC2=C(OC1C1=CC(O)=C(O)C=C1)C(C1C(O)C(OC3=CC(O)=CC(O)=C13)C1=CC(O)=C(O)C=C1)=C(O)C=C2O
RETENTIONTIME:  
CCS:  232.6141095
IONMODE:  Negative
INSTRUMENTTYPE:  
INSTRUMENT:  qTof
COLLISIONENERGY:  
Comment:  DB#=CCMSLIB00000081691; origin=GNPS
Num Peaks:  19
125.03019	190.0
137.03024	20.0
161.02991	100.0
205.05681	10.0
245.06815	60.0
273.05075	60.0
287.0639	150.0
289.08157	1000.0
299.06406	70.0
305.07785	50.0
329.08063	30.0
331.09387	10.0
339.10147	30.0
381.11365	50.0
407.09131	700.0
425.10281	430.0
451.11966	190.0
559.14099	20.0
577.16016	140.0

NAME:  3-O-beta-(6''-trans-caffeoyl)-galactopyranosyl quercetin
PRECURSORMZ:  625.11989368483
PRECURSORTYPE:  [M-H]-
FORMULA:  C30H26O15
Ontology: Kingdom: Organic compounds;Superclass: Phenylpropanoids and polyketides;Class: Flavonoids;Subclass: Flavonoid glycosides
INCHIKEY:  IHBVMUCQCZEAPW-UHFFFAOYNA-N
SMILES:  OC1C(COC(=O)C=CC2=CC(O)=C(O)C=C2)OC(OC2=C(OC3=CC(O)=CC(O)=C3C2=O)C2=CC(O)=C(O)C=C2)C(O)C1O
RETENTIONTIME:  
CCS:  257.139915
IONMODE:  Negative
INSTRUMENTTYPE:  
INSTRUMENT:  qTof
COLLISIONENERGY:  
Comment:  DB#=CCMSLIB00000081699; origin=GNPS
Num Peaks:  11
151.01167	20.0
161.0318	70.0
179.00455	30.0
271.03455	10.0
283.03391	10.0
300.04071	1000.0
301.04657	890.0
323.0903	40.0
343.06	10.0
463.11011	930.0
625.14764	30.0

NAME:  Cynaroside
PRECURSORMZ:  447.09328501183
PRECURSORTYPE:  [M-H]-
FORMULA:  C21H20O11
Ontology: Kingdom: Organic compounds;Superclass: Phenylpropanoids and polyketides;Class: Flavonoids;Subclass: Flavonoid glycosides
INCHIKEY:  PEFNSGRTCBGNAN-UHFFFAOYNA-N
SMILES:  OCC1OC(OC2=CC(O)=C3C(=O)C=C(OC3=C2)C2=CC(O)=C(O)C=C2)C(O)C(O)C1O
RETENTIONTIME:  
CCS:  199.1743496
IONMODE:  Negative
INSTRUMENTTYPE:  
INSTRUMENT:  qTof
COLLISIONENERGY:  
Comment:  DB#=CCMSLIB00000081701; origin=GNPS
Num Peaks:  4
284.04175	350.0
285.04996	1000.0
327.06238	20.0
447.11163	230.0

NAME:  Isovitexin
PRECURSORMZ:  431.09837039183
PRECURSORTYPE:  [M-H]-
FORMULA:  C21H20O10
Ontology: Kingdom: Organic compounds;Superclass: Phenylpropanoids and polyketides;Class: Flavonoids;Subclass: Flavonoid glycosides
INCHIKEY:  MYXNWGACZJSMBT-UHFFFAOYNA-N
SMILES:  OCC1OC(C(O)C(O)C1O)C1=C(O)C2=C(OC(=CC2=O)C2=CC=C(O)C=C2)C=C1O
RETENTIONTIME:  
CCS:  201.5149845
IONMODE:  Negative
INSTRUMENTTYPE:  
INSTRUMENT:  qTof
COLLISIONENERGY:  
Comment:  DB#=CCMSLIB00000081704; origin=GNPS
Num Peaks:  13
239.0789	10.0
268.048	10.0
269.05707	70.0
281.0556	70.0
283.07358	530.0
293.0589	20.0
295.07126	40.0
311.0701	1000.0
314.05466	40.0
323.06946	140.0
325.08496	10.0
341.08185	350.0
353.08005	30.0

NAME:  4???-O-??-(6???-trans-p-coumaroyl)-glucopyranosyl okanin
PRECURSORMZ:  595.14571450983
PRECURSORTYPE:  [M-H]-
FORMULA:  C30H28O13
Ontology: Kingdom: Organic compounds;Superclass: Phenylpropanoids and polyketides;Class: Flavonoids;Subclass: Flavonoid glycosides
INCHIKEY:  SJGXLSYEYLGFRT-UHFFFAOYNA-N
SMILES:  OC1C(COC(=O)C=CC2=CC=C(O)C=C2)OC(OC2=C(O)C(O)=C(C=C2)C(=O)C=CC2=CC(O)=C(O)C=C2)C(O)C1O
RETENTIONTIME:  
CCS:  279.5661141
IONMODE:  Negative
INSTRUMENTTYPE:  
INSTRUMENT:  qTof
COLLISIONENERGY:  
Comment:  DB#=CCMSLIB00000081707; origin=GNPS
Num Peaks:  19
125.03052	40.0
135.04961	250.0
145.03676	30.0
151.01132	180.0
163.04828	20.0
169.0209	310.0
269.05688	130.0
287.06888	1000.0
297.05063	10.0
307.09305	70.0
313.07108	30.0
315.06073	40.0
333.07275	10.0
431.11935	40.0
441.10223	10.0
449.12991	100.0
459.11493	230.0
577.16077	30.0
595.1723	140.0

NAME:  Lapachol
PRECURSORMZ:  241.08701785883
PRECURSORTYPE:  [M-H]-
FORMULA:  C15H14O3
Ontology: Kingdom: Organic compounds;Superclass: Lipids and lipid;Class: Prenol lipids;Subclass: Quinone and hydroquinone lipids
INCHIKEY:  CIEYTVIYYGTCCI-UHFFFAOYSA-N
SMILES:  CC(C)=CCC1=C(O)C(=O)C2=CC=CC=C2C1=O
RETENTIONTIME:  
CCS:  167.2575103
IONMODE:  Negative
INSTRUMENTTYPE:  
INSTRUMENT:  qTof
COLLISIONENERGY:  
Comment:  DB#=CCMSLIB00000081711; origin=GNPS
Num Peaks:  18
145.03044	30.0
158.03764	20.0
171.04483	10.0
173.02267	10.0
186.03415	1000.0
190.03033	20.0
190.03033	20.0
195.07214	10.0
197.06039	100.0
198.06862	100.0
199.03917	20.0
208.05199	20.0
211.07724	10.0
213.09142	120.0
218.02243	430.0
225.05705	190.0
226.0629	160.0
241.08864	70.0

NAME:  Quinic acid
PRECURSORMZ:  191.05611165383
PRECURSORTYPE:  [M-H]-
FORMULA:  C7H12O6
Ontology: Kingdom: Organic compounds;Superclass: Organic oxygen compounds;Class: Organooxygen compounds;Subclass: Alcohols and polyols
INCHIKEY:  AAWZDTNXLSGCEK-UHFFFAOYNA-N
SMILES:  OC1CC(O)(CC(O)C1O)C(O)=O
RETENTIONTIME:  
CCS:  136.0426542
IONMODE:  Negative
INSTRUMENTTYPE:  
INSTRUMENT:  qTof
COLLISIONENERGY:  
Comment:  DB#=CCMSLIB00000081719; origin=GNPS
Num Peaks:  4
127.03692	390.0
137.02075	110.0
171.02702	120.0
191.05061	1000.0

NAME:  Caramboxin
PRECURSORMZ:  254.06701069083
PRECURSORTYPE:  [M-H]-
FORMULA:  C11H13NO6
Ontology: Kingdom: Organic compounds;Superclass: Organic acids and derivatives;Class: Carboxylic acids and derivatives;Subclass: Amino acids
INCHIKEY:  DYJIDGJHOLTGBO-UHFFFAOYNA-N
SMILES:  COC1=CC(O)=C(C(O)=O)C(CC(N)C(O)=O)=C1
RETENTIONTIME:  
CCS:  163.7750586
IONMODE:  Negative
INSTRUMENTTYPE:  
INSTRUMENT:  qTof
COLLISIONENERGY:  
Comment:  DB#=CCMSLIB00000081721; origin=GNPS
Num Peaks:  18
122.03467	30.0
134.03423	190.0
137.05701	40.0
149.0584	250.0
150.03036	10.0
159.03008	30.0
165.05031	70.0
174.05217	240.0
176.03081	20.0
177.03847	20.0
178.02202	30.0
190.04704	10.0
192.06206	1000.0
193.04462	520.0
193.97577	10.0
210.07236	370.0
236.04976	360.0
254.06044	20.0

NAME:  Sparfloxacin
PRECURSORMZ:  391.15872045783
PRECURSORTYPE:  [M-H]-
FORMULA:  C19H22F2N4O3
Ontology: Kingdom: Organic compounds;Superclass: Organoheterocyclic compounds;Class: Quinolines and derivatives;Subclass: Quinoline carboxylic acids
INCHIKEY:  DZZWHBIBMUVIIW-UHFFFAOYNA-N
SMILES:  CC1CN(CC(C)N1)C1=C(F)C(N)=C2C(=O)C(=CN(C3CC3)C2=C1F)C(O)=O
RETENTIONTIME:  
CCS:  189.6902358
IONMODE:  Negative
INSTRUMENTTYPE:  
INSTRUMENT:  qTof
COLLISIONENERGY:  
Comment:  DB#=CCMSLIB00000081723; origin=GNPS
Num Peaks:  4
307.13245	910.0
327.15735	10.0
347.16043	1000.0
391.15125	500.0

NAME:  Gatifloxacin
PRECURSORMZ:  374.15215791083
PRECURSORTYPE:  [M-H]-
FORMULA:  C19H22FN3O4
Ontology: Kingdom: Organic compounds;Superclass: Organoheterocyclic compounds;Class: Quinolines and derivatives;Subclass: Quinoline carboxylic acids
INCHIKEY:  XUBOMFCQGDBHNK-UHFFFAOYNA-N
SMILES:  COC1=C2N(C=C(C(O)=O)C(=O)C2=CC(F)=C1N1CCNC(C)C1)C1CC1
RETENTIONTIME:  
CCS:  188.1065194
IONMODE:  Negative
INSTRUMENTTYPE:  
INSTRUMENT:  qTof
COLLISIONENERGY:  
Comment:  DB#=CCMSLIB00000081729; origin=GNPS
Num Peaks:  5
290.12595	230.0
300.10788	40.0
315.13306	1000.0
330.15714	710.0
374.14297	50.0

NAME:  Velutin
PRECURSORMZ:  313.07176171883
PRECURSORTYPE:  [M-H]-
FORMULA:  C17H14O6
Ontology: Kingdom: Organic compounds;Superclass: Phenylpropanoids and polyketides;Class: Flavonoids;Subclass: O
INCHIKEY:  ROCUOVBWAWAQFD-UHFFFAOYSA-N
SMILES:  COC1=CC(O)=C2C(=O)C=C(OC2=C1)C1=CC(OC)=C(O)C=C1
RETENTIONTIME:  
CCS:  189.675728
IONMODE:  Negative
INSTRUMENTTYPE:  
INSTRUMENT:  qTof
COLLISIONENERGY:  
Comment:  DB#=CCMSLIB00000081730; origin=GNPS
Num Peaks:  3
255.02419	330.0
283.01904	390.0
298.03973	1000.0

NAME:  Eriodictyol 7,3'-dimethyl ether
PRECURSORMZ:  315.08741178283
PRECURSORTYPE:  [M-H]-
FORMULA:  C17H16O6
Ontology: Kingdom: Organic compounds;Superclass: Phenylpropanoids and polyketides;Class: Flavonoids;Subclass: O
INCHIKEY:  QZJVBGCZOLNWHW-UHFFFAOYNA-N
SMILES:  COC1=CC(O)=C2C(=O)CC(OC2=C1)C1=CC(OC)=C(O)C=C1
RETENTIONTIME:  
CCS:  193.7176392
IONMODE:  Negative
INSTRUMENTTYPE:  
INSTRUMENT:  qTof
COLLISIONENERGY:  
Comment:  DB#=CCMSLIB00000081733; origin=GNPS
Num Peaks:  15
134.03435	1000.0
135.03943	80.0
149.05739	500.0
149.99368	80.0
165.01566	650.0
166.02106	40.0
179.03053	30.0
183.02794	40.0
210.00964	30.0
243.02573	30.0
255.0235	70.0
271.02008	170.0
285.03519	50.0
300.02011	280.0
315.07886	30.0

NAME:  N-(2,5-dioxocyclopentyl)acetamide
PRECURSORMZ:  154.05096670183
PRECURSORTYPE:  [M-H]-
FORMULA:  C7H9NO3
Ontology: Kingdom: Organic compounds;Superclass: Organic oxygen compounds;Class: Organooxygen compounds;Subclass: Carbonyl compounds
INCHIKEY:  QVZXVDWBZHYCGL-UHFFFAOYSA-N
SMILES:  CC(O)=NC1C(=O)CCC1=O
RETENTIONTIME:  
CCS:  -1
IONMODE:  Negative
INSTRUMENTTYPE:  
INSTRUMENT:  qTof
COLLISIONENERGY:  
Comment:  DB#=CCMSLIB00000081735; origin=GNPS
Num Peaks:  6
111.03121	90.0
112.03921	700.0
122.02329	1000.0
136.03798	260.0
138.01794	190.0
154.04857	220.0

NAME:  Quercetin 3,7-dimethyl ether
PRECURSORMZ:  329.06667633883
PRECURSORTYPE:  [M-H]-
FORMULA:  C17H14O7
Ontology: Kingdom: Organic compounds;Superclass: Phenylpropanoids and polyketides;Class: Flavonoids;Subclass: O
INCHIKEY:  LUJAXSNNYBCFEE-UHFFFAOYSA-N
SMILES:  COC1=CC(O)=C2C(=O)C(OC)=C(OC2=C1)C1=CC(O)=C(O)C=C1
RETENTIONTIME:  
CCS:  176.4638133
IONMODE:  Negative
INSTRUMENTTYPE:  
INSTRUMENT:  qTof
COLLISIONENERGY:  
Comment:  DB#=CCMSLIB00000081738; origin=GNPS
Num Peaks:  14
199.03612	40.0
201.01537	10.0
215.03223	30.0
227.02837	60.0
242.01772	90.0
243.02679	950.0
255.02428	50.0
257.03967	310.0
271.02045	1000.0
285.0354	490.0
286.03934	160.0
299.0148	920.0
314.0386	530.0
329.06219	30.0

NAME:  Luteolin 3',4'-dimethyl ether
PRECURSORMZ:  313.07176171883
PRECURSORTYPE:  [M-H]-
FORMULA:  C17H14O6
Ontology: Kingdom: Organic compounds;Superclass: Phenylpropanoids and polyketides;Class: Flavonoids;Subclass: O
INCHIKEY:  AOLOMULCAJQEIG-UHFFFAOYSA-N
SMILES:  COC1=C(OC)C=C(C=C1)C1=CC(=O)C2=C(O)C=C(O)C=C2O1
RETENTIONTIME:  
CCS:  189.975728
IONMODE:  Negative
INSTRUMENTTYPE:  
INSTRUMENT:  qTof
COLLISIONENERGY:  
Comment:  DB#=CCMSLIB00000081740; origin=GNPS
Num Peaks:  5
255.02388	980.0
270.04865	170.0
283.01953	710.0
298.03998	1000.0
313.06314	20.0

NAME:  4-Methylumbelliferone
PRECURSORMZ:  175.04006766583
PRECURSORTYPE:  [M-H]-
FORMULA:  C10H8O3
Ontology: Kingdom: Organic compounds;Superclass: Phenylpropanoids and polyketides;Class: Coumarins and derivatives;Subclass: Hydroxycoumarins
INCHIKEY:  HSHNITRMYYLLCV-UHFFFAOYSA-N
SMILES:  CC1=CC(=O)OC2=C1C=CC(O)=C2
RETENTIONTIME:  
CCS:  134.0248643
IONMODE:  Negative
INSTRUMENTTYPE:  
INSTRUMENT:  qTof
COLLISIONENERGY:  
Comment:  DB#=CCMSLIB00000081743; origin=GNPS
Num Peaks:  11
117.0314	50.0
119.04595	1000.0
120.05142	30.0
130.04047	120.0
131.0482	250.0
132.02058	170.0
133.02675	850.0
134.02972	30.0
146.03844	20.0
147.04515	500.0
175.0419	380.0

NAME:  3,5-Dicaffeoylquininic acid
PRECURSORMZ:  515.11949976083
PRECURSORTYPE:  [M-H]-
FORMULA:  C25H24O12
Ontology: Kingdom: Organic compounds;Superclass: Organic oxygen compounds;Class: Organooxygen compounds;Subclass: Alcohols and polyols
INCHIKEY:  KRZBCHWVBQOTNZ-UHFFFAOYNA-N
SMILES:  OC1C(CC(O)(CC1OC(=O)C=CC1=CC(O)=C(O)C=C1)C(O)=O)OC(=O)C=CC1=CC(O)=C(O)C=C1
RETENTIONTIME:  
CCS:  246.8204516
IONMODE:  Negative
INSTRUMENTTYPE:  
INSTRUMENT:  qTof
COLLISIONENERGY:  
Comment:  DB#=CCMSLIB00000081755; origin=GNPS
Num Peaks:  4
135.04568	61.0
179.03931	347.0
191.06029	367.0
353.09357	1000.0

NAME:  5-O-Caffeoylquinic acid methyl ester
PRECURSORMZ:  367.10345577183
PRECURSORTYPE:  [M-H]-
FORMULA:  C17H20O9
Ontology: ;;;
INCHIKEY:  MZNIJRAPCCELQX-UHFFFAOYNA-N
SMILES:  COC(=O)C1(O)CC(O)C(O)C(C1)OC(=O)C=CC1=CC(O)=C(O)C=C1
RETENTIONTIME:  
CCS:  200.6780133
IONMODE:  Negative
INSTRUMENTTYPE:  
INSTRUMENT:  qTof
COLLISIONENERGY:  
Comment:  DB#=CCMSLIB00000081757; origin=GNPS
Num Peaks:  2
179.05991	1000.0
367.11441	1000.0

NAME:  4,5-Dicaffeoyl quinic acid
PRECURSORMZ:  515.11949976083
PRECURSORTYPE:  [M-H]-
FORMULA:  C25H24O12
Ontology: Kingdom: Organic compounds;Superclass: Organic oxygen compounds;Class: Organooxygen compounds;Subclass: Alcohols and polyols
INCHIKEY:  UFCLZKMFXSILNL-UHFFFAOYNA-N
SMILES:  OC1CC(O)(CC(OC(=O)C=CC2=CC(O)=C(O)C=C2)C1OC(=O)C=CC1=CC(O)=C(O)C=C1)C(O)=O
RETENTIONTIME:  
CCS:  208.9993028
IONMODE:  Negative
INSTRUMENTTYPE:  
INSTRUMENT:  qTof
COLLISIONENERGY:  
Comment:  DB#=CCMSLIB00000081759; origin=GNPS
Num Peaks:  7
135.04562	80.0
173.04915	540.0
179.03932	370.0
203.03897	40.0
353.09369	1000.0
361.04242	20.0
468.25604	40.0

NAME:  4'-Methoxy-7-O-??-D-glucopyranosyl-8,3'-dihydroxyflavanone
PRECURSORMZ:  463.12458514083
PRECURSORTYPE:  [M-H]-
FORMULA:  C22H24O11
Ontology: ;;;
INCHIKEY:  MVIJSQNWYLPBGP-UHFFFAOYNA-N
SMILES:  COC1=C(O)C=C(C=C1)C1CC(=O)C2=C(O1)C(O)=C(OC1OC(CO)C(O)C(O)C1O)C=C2
RETENTIONTIME:  
CCS:  225.5553723
IONMODE:  Negative
INSTRUMENTTYPE:  
INSTRUMENT:  qTof
COLLISIONENERGY:  
Comment:  DB#=CCMSLIB00000081761; origin=GNPS
Num Peaks:  5
268.04099	91.0
283.06171	291.0
301.07327	1000.0
345.74463	73.0
463.13498	164.0

NAME:  7-O-??-(6???-trans-p-coumaroyl)-glucopyranosyl-8,3???,4???-trihydroxyflavanone
PRECURSORMZ:  595.14571450983
PRECURSORTYPE:  [M-H]-
FORMULA:  C30H28O13
Ontology: Kingdom: Organic compounds;Superclass: Phenylpropanoids and polyketides;Class: Flavonoids;Subclass: Flavonoid glycosides
INCHIKEY:  PHQCFARQBSPGHM-UHFFFAOYNA-N
SMILES:  OC1C(COC(=O)C=CC2=CC=C(O)C=C2)OC(OC2=C(O)C3=C(C=C2)C(=O)CC(O3)C2=CC(O)=C(O)C=C2)C(O)C1O
RETENTIONTIME:  
CCS:  268.8011141
IONMODE:  Negative
INSTRUMENTTYPE:  
INSTRUMENT:  qTof
COLLISIONENERGY:  
Comment:  DB#=CCMSLIB00000081763; origin=GNPS
Num Peaks:  8
118.40304	48.0
135.04562	119.0
151.00452	167.0
216.8632	48.0
287.05835	952.0
459.09677	119.0
577.14178	71.0
595.15265	1000.0

NAME:  3-Caffeoylquinic acid
PRECURSORMZ:  353.08780570783
PRECURSORTYPE:  [M-H]-
FORMULA:  C16H18O9
Ontology: Kingdom: Organic compounds;Superclass: Organic oxygen compounds;Class: Organooxygen compounds;Subclass: Alcohols and polyols
INCHIKEY:  CWVRJTMFETXNAD-UHFFFAOYNA-N
SMILES:  OC1CC(O)(CC(OC(=O)C=CC2=CC(O)=C(O)C=C2)C1O)C(O)=O
RETENTIONTIME:  
CCS:  177.8649823
IONMODE:  Negative
INSTRUMENTTYPE:  
INSTRUMENT:  qTof
COLLISIONENERGY:  
Comment:  DB#=CCMSLIB00000081766; origin=GNPS
Num Peaks:  2
179.03316	480.0
191.05383	1000.0

NAME:  3-p-Coumaroylquinic acid
PRECURSORMZ:  337.09289108783
PRECURSORTYPE:  [M-H]-
FORMULA:  C16H18O8
Ontology: Kingdom: Organic compounds;Superclass: Organic oxygen compounds;Class: Organooxygen compounds;Subclass: Alcohols and polyols
INCHIKEY:  BMRSEYFENKXDIS-UHFFFAOYNA-N
SMILES:  OC1CC(O)(CC(OC(=O)C=CC2=CC=C(O)C=C2)C1O)C(O)=O
RETENTIONTIME:  
CCS:  175.7130304
IONMODE:  Negative
INSTRUMENTTYPE:  
INSTRUMENT:  qTof
COLLISIONENERGY:  
Comment:  DB#=CCMSLIB00000081767; origin=GNPS
Num Peaks:  4
119.05041	340.0
163.03925	1000.0
191.05754	70.0
221.22179	40.0

NAME:  4-Caffeoylquinic acid
PRECURSORMZ:  353.08780570783
PRECURSORTYPE:  [M-H]-
FORMULA:  C16H18O9
Ontology: ;;;
INCHIKEY:  GYFFKZTYYAFCTR-UHFFFAOYNA-N
SMILES:  OC1CC(O)(CC(O)C1OC(=O)C=CC1=CC(O)=C(O)C=C1)C(O)=O
RETENTIONTIME:  
CCS:  204.1685122
IONMODE:  Negative
INSTRUMENTTYPE:  
INSTRUMENT:  qTof
COLLISIONENERGY:  
Comment:  DB#=CCMSLIB00000081769; origin=GNPS
Num Peaks:  7
135.04594	1000.0
173.04694	680.0
179.03674	360.0
191.05875	560.0
218.96776	80.0
249.39255	80.0
353.09747	40.0

NAME:  Orientin
PRECURSORMZ:  447.09328501183
PRECURSORTYPE:  [M-H]-
FORMULA:  C21H20O11
Ontology: Kingdom: Organic compounds;Superclass: Phenylpropanoids and polyketides;Class: Flavonoids;Subclass: Flavonoid glycosides
INCHIKEY:  PLAPMLGJVGLZOV-UHFFFAOYNA-N
SMILES:  OCC1OC(C(O)C(O)C1O)C1=C(O)C=C(O)C2=C1OC(=CC2=O)C1=CC(O)=C(O)C=C1
RETENTIONTIME:  
CCS:  204.7545221
IONMODE:  Negative
INSTRUMENTTYPE:  
INSTRUMENT:  qTof
COLLISIONENERGY:  
Comment:  DB#=CCMSLIB00000081771; origin=GNPS
Num Peaks:  5
297.03256	51.0
327.04611	1000.0
357.0553	705.0
429.07019	64.0
447.08444	769.0

NAME:  Vitexin
PRECURSORMZ:  431.09837039183
PRECURSORTYPE:  [M-H]-
FORMULA:  C21H20O10
Ontology: ;;;
INCHIKEY:  SGEWCQFRYRRZDC-UHFFFAOYNA-N
SMILES:  OCC1OC(C(O)C(O)C1O)C1=C(O)C=C(O)C2=C1OC(=CC2=O)C1=CC=C(O)C=C1
RETENTIONTIME:  
CCS:  202.3436012
IONMODE:  Negative
INSTRUMENTTYPE:  
INSTRUMENT:  qTof
COLLISIONENERGY:  
Comment:  DB#=CCMSLIB00000081773; origin=GNPS
Num Peaks:  5
283.05798	240.0
311.05118	1000.0
341.06033	120.0
400.59872	40.0
431.09451	250.0

NAME:  Reynoutrin
PRECURSORMZ:  433.07763494783
PRECURSORTYPE:  [M-H]-
FORMULA:  C20H18O11
Ontology: Kingdom: Organic compounds;Superclass: Phenylpropanoids and polyketides;Class: Flavonoids;Subclass: Flavonoid glycosides
INCHIKEY:  PZZRDJXEMZMZFD-UHFFFAOYNA-N
SMILES:  OC1COC(OC2=C(OC3=CC(O)=CC(O)=C3C2=O)C2=CC(O)=C(O)C=C2)C(O)C1O
RETENTIONTIME:  
CCS:  215.6517048
IONMODE:  Negative
INSTRUMENTTYPE:  
INSTRUMENT:  qTof
COLLISIONENERGY:  
Comment:  DB#=CCMSLIB00000081775; origin=GNPS
Num Peaks:  6
151.00534	110.0
178.99924	80.0
255.03156	90.0
271.02246	160.0
300.02441	1000.0
433.07147	20.0

NAME:  Sulphuretin
PRECURSORMZ:  269.04554696983
PRECURSORTYPE:  [M-H]-
FORMULA:  C15H10O5
Ontology: Kingdom: Organic compounds;Superclass: Phenylpropanoids and polyketides;Class: Aurone flavonoids;
INCHIKEY:  RGNXWPVNPFAADO-UHFFFAOYSA-N
SMILES:  OC1=CC2=C(C=C1)C(=O)C(O2)=CC1=CC(O)=C(O)C=C1
RETENTIONTIME:  
CCS:  161.6866301
IONMODE:  Negative
INSTRUMENTTYPE:  
INSTRUMENT:  qTof
COLLISIONENERGY:  
Comment:  DB#=CCMSLIB00000081776; origin=GNPS
Num Peaks:  13
169.06342	120.0
180.04996	160.0
182.0318	160.0
195.03918	400.0
201.04607	360.0
211.03123	280.0
213.04927	680.0
223.03024	360.0
224.03813	640.0
227.0264	320.0
241.04137	280.0
251.02699	160.0
269.03354	1000.0

NAME:  Butein
PRECURSORMZ:  271.06119703383
PRECURSORTYPE:  [M-H]-
FORMULA:  C15H12O5
Ontology: Kingdom: Organic compounds;Superclass: Phenylpropanoids and polyketides;Class: Linear ;Subclass: Chalcones and dihydrochalcones
INCHIKEY:  AYMYWHCQALZEGT-UHFFFAOYSA-N
SMILES:  OC1=CC(O)=C(C=C1)C(=O)C=CC1=CC(O)=C(O)C=C1
RETENTIONTIME:  
CCS:  161.6604035
IONMODE:  Negative
INSTRUMENTTYPE:  
INSTRUMENT:  qTof
COLLISIONENERGY:  
Comment:  DB#=CCMSLIB00000081777; origin=GNPS
Num Peaks:  7
135.03783	920.0
161.01773	40.0
225.04501	30.0
227.02431	40.0
253.0368	80.0
269.03235	1000.0
271.04803	590.0

NAME:  quinoxaline-2-carboxylic acid
PRECURSORMZ:  173.03565098883
PRECURSORTYPE:  [M-H]-
FORMULA:  C9H6N2O2
Ontology: Kingdom: Organic compounds;Superclass: Organoheterocyclic compounds;Class: Diazanaphthalenes;Subclass: Benzodiazines
INCHIKEY:  UPUZGXILYFKSGE-UHFFFAOYSA-N
SMILES:  OC(=O)C1=NC2=CC=CC=C2N=C1
RETENTIONTIME:  
CCS:  135.4815403
IONMODE:  Negative
INSTRUMENTTYPE:  
INSTRUMENT:  qTof
COLLISIONENERGY:  
Comment:  DB#=CCMSLIB00000224018; origin=GNPS
Num Peaks:  20
127.03801	340.0
128.04248	30.0
129.0538	1000.0
130.05679	70.0
132.77136	20.0
145.04974	580.0
146.0528	40.0
147.06519	580.0
148.06834	40.0
171.03038	30.0
173.04607	350.0
174.04752	30.0
298.03833	30.0
505.16977	20.0
766.62372	70.0
766.84222	20.0
767.39874	20.0
1082.43042	20.0
1260.71143	20.0
1260.96753	20.0

NAME:  3,5-dibromo-2-(3,5-dibromo-2-methoxyphenoxy)phenol
PRECURSORMZ:  526.71341954783
PRECURSORTYPE:  [M-H]-
FORMULA:  C13H8Br4O3
Ontology: Kingdom: Organic compounds;Superclass: Benzenoids;Class: Benzene and substituted derivatives;Subclass: Diphenylethers
INCHIKEY:  KMQWWGLIGSFYAT-UHFFFAOYSA-N
SMILES:  COC1=C(Br)C=C(Br)C=C1OC1=C(O)C=C(Br)C=C1Br
RETENTIONTIME:  
CCS:  159.3548214
IONMODE:  Negative
INSTRUMENTTYPE:  
INSTRUMENT:  qTof
COLLISIONENERGY:  
Comment:  DB#=CCMSLIB00000224045; origin=GNPS
Num Peaks:  24
103.98895	20.0
105.29207	10.0
168.90366	10.0
246.84015	50.0
248.83917	20.0
263.84174	1000.0
263.93945	30.0
263.99252	20.0
264.06561	10.0
264.84879	190.0
264.8833	30.0
264.90836	20.0
265.83975	640.0
265.91406	30.0
265.98688	20.0
266.84689	110.0
266.87961	20.0
267.8396	10.0
324.85089	30.0
326.84573	20.0
432.76459	30.0
434.76651	70.0
526.71387	20.0
528.71191	30.0

NAME:  3,5-dibromo-2-(3,5-dibromo-2-methoxyphenoxy)phenol
PRECURSORMZ:  526.71341954783
PRECURSORTYPE:  [M-H]-
FORMULA:  C13H8Br4O3
Ontology: Kingdom: Organic compounds;Superclass: Benzenoids;Class: Benzene and substituted derivatives;Subclass: Diphenylethers
INCHIKEY:  KMQWWGLIGSFYAT-UHFFFAOYSA-N
SMILES:  COC1=C(Br)C=C(Br)C=C1OC1=C(Br)C=C(Br)C=C1O
RETENTIONTIME:  
CCS:  159.3548214
IONMODE:  Negative
INSTRUMENTTYPE:  
INSTRUMENT:  qTof
COLLISIONENERGY:  
Comment:  DB#=CCMSLIB00000224046; origin=GNPS
Num Peaks:  24
103.98895	20.0
105.29207	10.0
168.90366	10.0
246.84015	50.0
248.83917	20.0
263.84174	1000.0
263.93945	30.0
263.99252	20.0
264.06561	10.0
264.84879	190.0
264.8833	30.0
264.90836	20.0
265.83975	640.0
265.91406	30.0
265.98688	20.0
266.84689	110.0
266.87961	20.0
267.8396	10.0
324.85089	30.0
326.84573	20.0
432.76459	30.0
434.76651	70.0
526.71387	20.0
528.71191	30.0

NAME:  3,5-dibromo-4-chloro-2-(3,5-dibromo-2-methoxyphenoxy)phenol
PRECURSORMZ:  560.67444754783
PRECURSORTYPE:  [M-H]-
FORMULA:  C13H7Br4ClO3
Ontology: Kingdom: Organic compounds;Superclass: Benzenoids;Class: Benzene and substituted derivatives;Subclass: Diphenylethers
INCHIKEY:  TWLKTIVRWZMGCT-UHFFFAOYSA-N
SMILES:  COC1=C(Br)C=C(Br)C=C1OC1=C(O)C=C(Br)C(Cl)=C1Br
RETENTIONTIME:  
CCS:  -1
IONMODE:  Negative
INSTRUMENTTYPE:  
INSTRUMENT:  qTof
COLLISIONENERGY:  
Comment:  DB#=CCMSLIB00000224048; origin=GNPS
Num Peaks:  22
297.80243	1000.0
297.96368	20.0
298.00656	10.0
298.80881	110.0
298.86923	10.0
299.7995	810.0
299.883	40.0
299.95874	20.0
300.80615	100.0
300.85498	10.0
300.87686	10.0
301.7977	20.0
466.72903	80.0
466.77002	10.0
467.73395	20.0
468.72977	110.0
468.80475	10.0
560.66675	10.0
562.66919	40.0
563.67462	10.0
1010.3537	10.0
1427.96509	10.0

NAME:  3,4,5-tribromo-2-(3,5-dibromo-2-methoxyphenoxy)phenol
PRECURSORMZ:  604.62393254783
PRECURSORTYPE:  [M-H]-
FORMULA:  C13H7Br5O3
Ontology: ;;;
INCHIKEY:  LWXUPDPSLGLZAL-UHFFFAOYSA-N
SMILES:  COC1=C(Br)C=C(Br)C=C1OC1=C(O)C=C(Br)C(Br)=C1Br
RETENTIONTIME:  
CCS:  162.9230182
IONMODE:  Negative
INSTRUMENTTYPE:  
INSTRUMENT:  qTof
COLLISIONENERGY:  
Comment:  DB#=CCMSLIB00000224049; origin=GNPS
Num Peaks:  31
179.0208	10.0
341.75165	980.0
341.85098	40.0
341.88971	20.0
341.92572	30.0
341.96671	10.0
341.99274	10.0
342.76016	100.0
342.79648	30.0
343.74918	1000.0
343.88025	30.0
343.91855	30.0
343.96616	10.0
344.21378	10.0
344.75854	100.0
344.81137	10.0
345.74411	30.0
345.77979	10.0
346.74408	10.0
496.68097	10.0
509.65295	10.0
510.6799	130.0
510.76651	10.0
511.67899	20.0
512.67834	210.0
512.74359	30.0
514.6734	10.0
604.62732	20.0
606.61597	90.0
606.67645	20.0
607.61676	10.0

NAME:  3,5-dibromo-2,4-dichloro-6-(3,5-dibromo-2-methoxyphenoxy)phenol
PRECURSORMZ:  594.63547454783
PRECURSORTYPE:  [M-H]-
FORMULA:  C13H6Br4Cl2O3
Ontology: Kingdom: Organic compounds;Superclass: Benzenoids;Class: Benzene and substituted derivatives;Subclass: Diphenylethers
INCHIKEY:  RAHSBPPVFHSPRF-UHFFFAOYSA-N
SMILES:  COC1=C(Br)C=C(Br)C=C1OC1=C(Br)C(Cl)=C(Br)C(Cl)=C1O
RETENTIONTIME:  
CCS:  -1
IONMODE:  Negative
INSTRUMENTTYPE:  
INSTRUMENT:  qTof
COLLISIONENERGY:  
Comment:  DB#=CCMSLIB00000224050; origin=GNPS
Num Peaks:  45
252.84444	20.0
254.84019	20.0
265.84064	20.0
303.76083	10.0
305.76138	20.0
331.7626	470.0
331.8125	40.0
331.84885	30.0
331.87927	10.0
331.93042	10.0
332.76642	50.0
333.76068	1000.0
333.88434	20.0
333.92734	50.0
333.95691	10.0
333.98395	10.0
334.15958	10.0
334.76596	90.0
334.86362	10.0
334.98407	10.0
335.75848	290.0
335.80273	40.0
335.8674	10.0
336.75989	20.0
336.79242	20.0
345.39386	10.0
394.76733	10.0
413.548	10.0
486.69614	10.0
500.68524	50.0
501.69345	10.0
502.68707	270.0
502.76001	30.0
502.7923	20.0
502.8287	10.0
503.6908	60.0
504.68936	160.0
504.76895	20.0
505.6879	30.0
505.72455	10.0
506.68033	10.0
530.71338	20.0
548.63745	10.0
596.62903	20.0
598.62555	60.0

NAME:  2,3,5-tribromo-4-chloro-6-(3,5-dibromo-2-methoxyphenoxy)phenol
PRECURSORMZ:  638.58496054783
PRECURSORTYPE:  [M-H]-
FORMULA:  C13H6Br5ClO3
Ontology: Kingdom: Organic compounds;Superclass: Benzenoids;Class: Benzene and substituted derivatives;Subclass: Diphenylethers
INCHIKEY:  VXHZXOQAKXSCOH-UHFFFAOYSA-N
SMILES:  COC1=C(Br)C=C(Br)C=C1OC1=C(O)C(Br)=C(Br)C(Cl)=C1Br
RETENTIONTIME:  
CCS:  -1
IONMODE:  Negative
INSTRUMENTTYPE:  
INSTRUMENT:  qTof
COLLISIONENERGY:  
Comment:  DB#=CCMSLIB00000224051; origin=GNPS
Num Peaks:  109
112.98431	300.0
113.01168	50.0
113.03648	10.0
113.39658	10.0
120.25361	10.0
241.84184	10.0
263.84473	50.0
265.84039	20.0
272.78964	30.0
296.79556	10.0
300.78052	20.0
300.82117	10.0
375.70938	80.0
375.74991	20.0
376.71027	30.0
377.70999	910.0
377.76193	110.0
377.80347	30.0
377.83713	20.0
377.88687	20.0
378.10449	10.0
378.1907	10.0
378.29834	10.0
378.71017	110.0
378.74442	40.0
378.77911	20.0
379.26254	10.0
379.4679	10.0
379.56711	10.0
379.70667	1000.0
379.80722	40.0
379.87994	30.0
379.93323	20.0
379.96518	20.0
379.99582	10.0
380.06146	10.0
380.16064	10.0
380.20587	10.0
380.24771	10.0
380.32254	10.0
380.44537	10.0
380.56345	10.0
380.71265	150.0
380.74896	30.0
380.81516	20.0
380.84106	10.0
380.90668	10.0
381.11395	10.0
381.19235	10.0
381.54132	10.0
381.7066	190.0
381.7644	30.0
381.87741	10.0
382.70972	30.0
384.77591	10.0
434.77264	20.0
440.72134	10.0
470.72281	20.0
485.11304	20.0
500.74872	10.0
504.63681	10.0
528.70038	10.0
530.69897	30.0
532.64075	10.0
532.69666	10.0
546.52545	10.0
546.64142	130.0
546.69171	30.0
547.62964	30.0
548.63788	440.0
548.72876	30.0
548.79077	20.0
548.85901	10.0
549.6297	70.0
549.72882	10.0
549.93018	10.0
550.0766	10.0
550.63757	130.0
550.7489	20.0
551.63519	10.0
551.69177	10.0
551.9458	10.0
552.2038	10.0
553.86694	20.0
554.96991	10.0
555.24347	10.0
574.08429	20.0
574.76147	20.0
576.44055	30.0
592.55688	10.0
593.58942	20.0
594.57117	20.0
595.55902	20.0
600.57019	30.0
605.59265	10.0
642.57587	150.0
642.62054	40.0
642.68799	20.0
643.01422	20.0
643.04358	10.0
643.53925	10.0
643.57239	20.0
644.56836	100.0
644.64014	30.0
644.68909	10.0
645.55365	30.0
645.6109	10.0
781.99994	30.0
1384.11426	10.0

NAME:  2,3,4,5-tetrabromo-6-(3,5-dibromo-2-methoxyphenoxy)phenol
PRECURSORMZ:  682.53444554783
PRECURSORTYPE:  [M-H]-
FORMULA:  C13H6Br6O3
Ontology: Kingdom: Organic compounds;Superclass: Benzenoids;Class: Benzene and substituted derivatives;Subclass: Diphenylethers
INCHIKEY:  PIKRCPZZFYHEJP-UHFFFAOYSA-N
SMILES:  COC1=C(Br)C=C(Br)C=C1OC1=C(Br)C(Br)=C(Br)C(Br)=C1O
RETENTIONTIME:  
CCS:  164.7998984
IONMODE:  Negative
INSTRUMENTTYPE:  
INSTRUMENT:  qTof
COLLISIONENERGY:  
Comment:  DB#=CCMSLIB00000224052; origin=GNPS
Num Peaks:  68
112.9873	20.0
330.18509	10.0
340.74637	10.0
342.73917	20.0
347.26556	10.0
393.6655	10.0
419.66327	250.0
419.75211	20.0
419.7739	20.0
420.66946	30.0
421.65918	1000.0
421.77399	40.0
421.84869	30.0
421.89304	10.0
421.92136	10.0
422.10114	10.0
422.3313	10.0
422.39142	20.0
422.52283	10.0
422.66583	120.0
422.70432	20.0
422.74194	10.0
422.88611	10.0
423.65521	470.0
423.75372	20.0
423.82111	20.0
423.88049	10.0
424.66098	50.0
424.72528	10.0
425.66089	30.0
482.66675	20.0
574.59448	10.0
584.97925	10.0
588.58612	70.0
588.63702	10.0
589.56653	10.0
590.58661	450.0
590.71057	30.0
590.75183	20.0
590.78522	10.0
590.81415	10.0
590.88367	10.0
590.94232	10.0
591.58344	80.0
591.62726	20.0
592.58319	460.0
592.74353	10.0
592.79651	10.0
593.09399	10.0
593.4585	20.0
593.51788	10.0
593.58594	40.0
594.5744	20.0
594.59979	10.0
594.71613	10.0
684.51825	170.0
684.57025	40.0
684.6145	20.0
685.52478	20.0
685.57031	10.0
686.52356	250.0
686.62262	30.0
686.66418	20.0
687.50842	40.0
687.56445	20.0
688.52289	10.0
710.43512	20.0
923.19244	10.0

NAME:  3,5-dibromo-2-(3,5-dibromo-2-methoxyphenoxy)-6-iodophenol
PRECURSORMZ:  652.61006354783
PRECURSORTYPE:  [M-H]-
FORMULA:  C13H7Br4IO3
Ontology: Kingdom: Organic compounds;Superclass: Benzenoids;Class: Benzene and substituted derivatives;Subclass: Diphenylethers
INCHIKEY:  LRKGYZSAGLZIFQ-UHFFFAOYSA-N
SMILES:  COC1=C(Br)C=C(Br)C=C1OC1=C(Br)C=C(Br)C(I)=C1O
RETENTIONTIME:  
CCS:  -1
IONMODE:  Negative
INSTRUMENTTYPE:  
INSTRUMENT:  qTof
COLLISIONENERGY:  
Comment:  DB#=CCMSLIB00000224053; origin=GNPS
Num Peaks:  33
126.90339	1000.0
126.96305	30.0
126.98578	20.0
127.00903	20.0
127.04006	10.0
226.87878	20.0
262.84317	10.0
263.84348	20.0
264.82968	30.0
389.73706	450.0
389.88376	20.0
389.91272	10.0
390.74472	50.0
390.79352	10.0
391.73276	290.0
391.77188	60.0
391.80258	30.0
392.72656	20.0
510.67725	50.0
511.67178	10.0
512.6756	150.0
512.73798	20.0
526.68243	20.0
558.65985	50.0
558.71399	10.0
560.6673	70.0
560.73956	10.0
652.61383	30.0
654.60327	80.0
654.67999	10.0
655.61389	20.0
724.7915	10.0
1022.24091	10.0

NAME:  3,5-dibromo-4-(3,5-dibromo-2-methoxyphenoxy)benzene-1,2-diol
PRECURSORMZ:  542.70833454783
PRECURSORTYPE:  [M-H]-
FORMULA:  C13H8Br4O4
Ontology: Kingdom: Organic compounds;Superclass: Benzenoids;Class: Benzene and substituted derivatives;Subclass: Diphenylethers
INCHIKEY:  UMOXGPJLBBKEJV-UHFFFAOYSA-N
SMILES:  COC1=C(Br)C=C(Br)C=C1OC1=C(Br)C(O)=C(O)C=C1Br
RETENTIONTIME:  
CCS:  -1
IONMODE:  Negative
INSTRUMENTTYPE:  
INSTRUMENT:  qTof
COLLISIONENERGY:  
Comment:  DB#=CCMSLIB00000224055; origin=GNPS
Num Peaks:  77
152.96419	30.0
155.41943	20.0
197.86327	10.0
198.89919	80.0
198.9187	20.0
199.91504	20.0
200.91319	60.0
200.94409	20.0
202.92543	10.0
230.85957	10.0
248.85657	20.0
250.83881	90.0
252.83218	30.0
256.23996	10.0
263.84494	160.0
263.88184	30.0
263.91675	10.0
265.83514	150.0
265.86807	20.0
265.8894	20.0
278.71664	20.0
278.82968	1000.0
278.91162	50.0
278.93091	30.0
278.9509	30.0
278.98486	30.0
279.01794	20.0
279.0629	10.0
279.09933	20.0
279.18835	10.0
279.31351	20.0
279.42126	10.0
279.84509	100.0
279.88913	30.0
280.03757	20.0
280.46521	10.0
280.827	650.0
280.88589	50.0
280.90405	50.0
280.94351	20.0
280.98389	10.0
281.02267	20.0
281.13422	10.0
281.29868	10.0
281.84375	50.0
282.75955	10.0
282.82095	10.0
282.84677	10.0
313.83392	10.0
340.8443	10.0
340.90524	10.0
342.85056	20.0
356.84747	10.0
368.8421	160.0
368.87753	40.0
368.89899	10.0
368.91949	10.0
369.84753	10.0
370.83676	60.0
370.99146	10.0
415.28366	30.0
420.22922	20.0
430.73914	20.0
431.74982	10.0
432.77478	30.0
448.37808	20.0
448.40982	10.0
448.72888	10.0
448.75052	10.0
449.73514	30.0
511.6575	20.0
1084.53101	10.0
1256.37573	20.0
1313.45837	10.0
1537.49219	10.0
1549.46338	30.0
1551.54285	10.0

NAME:  3-bromo-5-(2,4-dibromo-6-hydroxyphenoxy)benzene-1,2-diol
PRECURSORMZ:  450.78217154783
PRECURSORTYPE:  [M-H]-
FORMULA:  C12H7Br3O4
Ontology: Kingdom: Organic compounds;Superclass: Benzenoids;Class: Benzene and substituted derivatives;Subclass: Diphenylethers
INCHIKEY:  OSEUKBRRZPIOHX-UHFFFAOYSA-N
SMILES:  OC1=CC(OC2=C(Br)C=C(Br)C=C2O)=CC(Br)=C1O
RETENTIONTIME:  
CCS:  -1
IONMODE:  Negative
INSTRUMENTTYPE:  
INSTRUMENT:  qTof
COLLISIONENERGY:  
Comment:  DB#=CCMSLIB00000224413; origin=GNPS
Num Peaks:  13
103.9901	20.0
107.01352	340.0
108.0164	20.0
186.93889	1000.0
187.94244	60.0
188.93694	1000.0
189.94038	60.0
263.84158	110.0
264.84763	60.0
265.83908	250.0
266.84628	110.0
267.83804	130.0
268.84494	60.0

NAME:  5-bromo-3-(2,4-dibromo-6-hydroxyphenoxy)benzene-1,2-diol
PRECURSORMZ:  450.78217154783
PRECURSORTYPE:  [M-H]-
FORMULA:  C12H7Br3O4
Ontology: Kingdom: Organic compounds;Superclass: Benzenoids;Class: Benzene and substituted derivatives;Subclass: Diphenylethers
INCHIKEY:  DKRYYIIVJRUKGL-UHFFFAOYSA-N
SMILES:  OC1=CC(Br)=CC(Br)=C1OC1=CC(Br)=CC(O)=C1O
RETENTIONTIME:  
CCS:  -1
IONMODE:  Negative
INSTRUMENTTYPE:  
INSTRUMENT:  qTof
COLLISIONENERGY:  
Comment:  DB#=CCMSLIB00000224414; origin=GNPS
Num Peaks:  32
103.9904	20.0
107.01316	100.0
172.92227	60.0
174.92209	50.0
184.92346	30.0
185.92952	20.0
186.93872	990.0
187.94102	70.0
188.93669	1000.0
189.94092	60.0
190.94209	10.0
200.918	80.0
202.91579	90.0
248.85429	60.0
250.85231	110.0
252.85138	50.0
262.93451	40.0
263.84137	150.0
263.93069	10.0
264.84937	260.0
264.93027	60.0
265.83923	320.0
265.92883	10.0
266.8468	530.0
267.83881	180.0
268.84454	250.0
269.84641	20.0
290.92807	10.0
292.92795	10.0
370.85275	40.0
372.85291	60.0
374.84802	30.0

NAME:  3-bromo-5-(3,5-dibromo-2-hydroxyphenoxy)benzene-1,2-diol
PRECURSORMZ:  450.78217154783
PRECURSORTYPE:  [M-H]-
FORMULA:  C12H7Br3O4
Ontology: Kingdom: Organic compounds;Superclass: Benzenoids;Class: Benzene and substituted derivatives;Subclass: Diphenylethers
INCHIKEY:  CRSLSKBTGDMSFL-UHFFFAOYSA-N
SMILES:  OC1=CC(OC2=CC(Br)=CC(Br)=C2O)=CC(Br)=C1O
RETENTIONTIME:  
CCS:  -1
IONMODE:  Negative
INSTRUMENTTYPE:  
INSTRUMENT:  qTof
COLLISIONENERGY:  
Comment:  DB#=CCMSLIB00000224415; origin=GNPS
Num Peaks:  16
103.99009	20.0
107.01337	330.0
107.03459	30.0
108.01715	20.0
186.93896	990.0
187.94057	80.0
188.93652	1000.0
189.94225	50.0
263.84167	120.0
264.84909	80.0
264.93164	10.0
265.83905	280.0
266.84674	150.0
267.83798	140.0
268.84399	60.0
372.85577	10.0

NAME:  5-bromo-3-(3,5-dibromo-2-hydroxyphenoxy)benzene-1,2-diol
PRECURSORMZ:  450.78217154783
PRECURSORTYPE:  [M-H]-
FORMULA:  C12H7Br3O4
Ontology: Kingdom: Organic compounds;Superclass: Benzenoids;Class: Benzene and substituted derivatives;Subclass: Diphenylethers
INCHIKEY:  GWDIJRQTFFNFPS-UHFFFAOYSA-N
SMILES:  OC1=C(O)C(OC2=CC(Br)=CC(Br)=C2O)=CC(Br)=C1
RETENTIONTIME:  
CCS:  -1
IONMODE:  Negative
INSTRUMENTTYPE:  
INSTRUMENT:  qTof
COLLISIONENERGY:  
Comment:  DB#=CCMSLIB00000224416; origin=GNPS
Num Peaks:  37
103.98846	20.0
107.01428	60.0
108.01647	10.0
112.98295	30.0
172.92313	60.0
174.92149	60.0
184.9225	40.0
185.92917	20.0
186.9388	1000.0
187.9395	50.0
188.937	1000.0
189.93974	60.0
200.9171	90.0
201.91945	10.0
202.91614	110.0
202.94115	10.0
248.85397	60.0
250.85121	130.0
250.88556	10.0
251.85608	10.0
252.84914	50.0
262.93314	20.0
263.84122	160.0
263.87955	20.0
264.84869	280.0
264.93304	30.0
265.83966	340.0
265.92749	10.0
266.84692	510.0
267.83926	180.0
267.88544	20.0
268.84558	250.0
268.88867	20.0
269.84531	20.0
292.92587	10.0
370.8559	20.0
372.85229	30.0

NAME:  5,7-dihydroxy-3,8-dimethoxy-2-phenyl-4H-chromen-4-one
PRECURSORMZ:  313.07176171883
PRECURSORTYPE:  [M-H]-
FORMULA:  C17H14O6
Ontology: Kingdom: Organic compounds;Superclass: Phenylpropanoids and polyketides;Class: Flavonoids;Subclass: O
INCHIKEY:  OWQLBLNRUZULFV-UHFFFAOYSA-N
SMILES:  COC1=C(O)C=C(O)C2=C1OC(=C(OC)C2=O)C1=CC=CC=C1
RETENTIONTIME:  
CCS:  183.139128
IONMODE:  Negative
INSTRUMENTTYPE:  
INSTRUMENT:  Ion Trap
COLLISIONENERGY:  
Comment:  DB#=CCMSLIB00000224885; origin=GNPS
Num Peaks:  6
282.97101	40.0
284.06299	10.0
297.98599	1000.0
298.97699	240.0
299.979	30.0
313.01501	210.0

NAME:  8-((6-ethyl-4-hydroxy-5-methyl-2-oxo-2H-pyran-3-yl)methyl)-5,7-dihydroxy-2-phenylchroman-4-one
PRECURSORMZ:  421.12927659583
PRECURSORTYPE:  [M-H]-
FORMULA:  C24H22O7
Ontology: Kingdom: Organic compounds;Superclass: Phenylpropanoids and polyketides;Class: Flavonoids;Subclass: Flavans
INCHIKEY:  CUZZLIJKCADKLX-UHFFFAOYNA-N
SMILES:  CCC1=C(C)C(O)=C(CC2=C3OC(CC(=O)C3=C(O)C=C2O)C2=CC=CC=C2)C(=O)O1
RETENTIONTIME:  
CCS:  209.4340659
IONMODE:  Negative
INSTRUMENTTYPE:  
INSTRUMENT:  Ion Trap
COLLISIONENERGY:  
Comment:  DB#=CCMSLIB00000224887; origin=GNPS
Num Peaks:  8
255.022	1000.0
255.983	120.0
257.047	20.0
266.995	80.0
268.08499	10.0
355.19901	30.0
377.09698	30.0
378.09299	10.0

NAME:  8-((6-ethyl-4-hydroxy-5-methyl-2-oxo-2H-pyran-3-yl)methyl)-5,7-dihydroxy-2-phenylchroman-4-one
PRECURSORMZ:  421.12927659583
PRECURSORTYPE:  [M-H]-
FORMULA:  C24H22O7
Ontology: Kingdom: Organic compounds;Superclass: Phenylpropanoids and polyketides;Class: Flavonoids;Subclass: Flavans
INCHIKEY:  CUZZLIJKCADKLX-UHFFFAOYNA-N
SMILES:  CCC1=C(C)C(O)=C(CC2=C3OC(CC(=O)C3=C(O)C=C2O)C2=CC=CC=C2)C(=O)O1
RETENTIONTIME:  
CCS:  209.4340659
IONMODE:  Negative
INSTRUMENTTYPE:  
INSTRUMENT:  Ion Trap
COLLISIONENERGY:  
Comment:  DB#=CCMSLIB00000224889; origin=GNPS
Num Peaks:  4
255.01401	1000.0
255.979	240.0
257.01501	30.0
377.134	10.0

NAME:  2,4,5-trimethoxybenzoic acid
PRECURSORMZ:  211.06119703383
PRECURSORTYPE:  [M-H]-
FORMULA:  C10H12O5
Ontology: Kingdom: Organic compounds;Superclass: Benzenoids;Class: Benzene and substituted derivatives;Subclass: Benzoic acids and derivatives
INCHIKEY:  KVZUCOGWKYOPID-UHFFFAOYSA-N
SMILES:  COC1=CC(OC)=C(OC)C=C1C(O)=O
RETENTIONTIME:  
CCS:  156.3910685
IONMODE:  Negative
INSTRUMENTTYPE:  
INSTRUMENT:  qTof
COLLISIONENERGY:  
Comment:  DB#=CCMSLIB00000424729; origin=GNPS
Num Peaks:  7
121.03151	160.0
135.04712	200.0
137.06128	200.0
167.07269	1000.0
211.06207	530.0
766.57318	200.0
1452.46619	160.0

NAME:  Glicirrizic acid
PRECURSORMZ:  821.39650946383
PRECURSORTYPE:  [M-H]-
FORMULA:  C42H62O16
Ontology: Kingdom: Organic compounds;Superclass: Lipids and lipid;Class: Prenol lipids;Subclass: Terpene glycosides
INCHIKEY:  LPLVUJXQOOQHMX-UHFFFAOYNA-N
SMILES:  CC1(C)C(CCC2(C)C1CCC1(C)C2C(=O)C=C2C3CC(C)(CCC3(C)CCC12C)C(O)=O)OC1OC(C(O)C(O)C1OC1OC(C(O)C(O)C1O)C(O)=O)C(O)=O
RETENTIONTIME:  
CCS:  244.1261022
IONMODE:  Negative
INSTRUMENTTYPE:  
INSTRUMENT:  qTof
COLLISIONENERGY:  
Comment:  DB#=CCMSLIB00000424731; origin=GNPS
Num Peaks:  25
157.00932	20.0
175.02278	90.0
193.03494	200.0
261.05594	10.0
289.05487	50.0
307.0625	10.0
333.03528	20.0
350.92383	10.0
351.05518	1000.0
356.841	10.0
627.35547	10.0
645.36542	20.0
759.3858	20.0
766.57281	20.0
803.35095	10.0
821.39148	770.0
830.02759	80.0
830.9931	100.0
832.23889	20.0
840.41797	10.0
917.67706	10.0
1053.05493	10.0
1227.83667	10.0
1228.98975	20.0
1452.45325	20.0

NAME:  4-hidroxy-3-methoxybenzyl alcohol
PRECURSORMZ:  153.05571772983
PRECURSORTYPE:  [M-H]-
FORMULA:  C8H10O3
Ontology: Kingdom: Organic compounds;Superclass: Benzenoids;Class: Phenols;Subclass: Methoxyphenols
INCHIKEY:  ZENOXNGFMSCLLL-UHFFFAOYSA-N
SMILES:  COC1=C(O)C=CC(CO)=C1
RETENTIONTIME:  
CCS:  130.7560768
IONMODE:  Negative
INSTRUMENTTYPE:  
INSTRUMENT:  qTof
COLLISIONENERGY:  
Comment:  DB#=CCMSLIB00000424734; origin=GNPS
Num Peaks:  7
120.02293	380.0
134.037	80.0
135.04398	210.0
138.03227	770.0
153.05504	1000.0
766.5791	160.0
1452.47852	120.0

NAME:  5,7-dihydroxy-2-(3-hydroxy-4,5-dimethoxyphenyl)-3,6-dimethoxy-4H-chromen-4-one
PRECURSORMZ:  389.08780570783
PRECURSORTYPE:  [M-H]-
FORMULA:  C19H18O9
Ontology: ;;;
INCHIKEY:  WTTGIVJDHDPLCL-UHFFFAOYSA-N
SMILES:  COC1=CC(=CC(O)=C1OC)C1=C(OC)C(=O)C2=C(O1)C=C(O)C(OC)=C2O
RETENTIONTIME:  
CCS:  210.0592634
IONMODE:  Negative
INSTRUMENTTYPE:  
INSTRUMENT:  qTof
COLLISIONENERGY:  
Comment:  DB#=CCMSLIB00000424744; origin=GNPS
Num Peaks:  16
178.99472	10.0
300.02423	10.0
300.98944	10.0
313.02298	10.0
316.01996	120.0
317.02338	10.0
331.04367	60.0
341.02182	10.0
344.01532	110.0
345.02075	10.0
359.03693	1000.0
360.04117	90.0
374.06229	440.0
375.06262	40.0
389.08618	100.0
766.64838	50.0

NAME:  5,7-dihydroxy-3,6-dimethoxy-2-(3,4,5-trimethoxyphenyl)-4H-chromen-4-one
PRECURSORMZ:  403.10345577183
PRECURSORTYPE:  [M-H]-
FORMULA:  C20H20O9
Ontology: Kingdom: Organic compounds;Superclass: Phenylpropanoids and polyketides;Class: Flavonoids;Subclass: O
INCHIKEY:  GGNGEESEARSAMF-UHFFFAOYSA-N
SMILES:  COC1=CC(=CC(OC)=C1OC)C1=C(OC)C(=O)C2=C(O1)C=C(O)C(OC)=C2O
RETENTIONTIME:  
CCS:  -1
IONMODE:  Negative
INSTRUMENTTYPE:  
INSTRUMENT:  qTof
COLLISIONENERGY:  
Comment:  DB#=CCMSLIB00000424745; origin=GNPS
Num Peaks:  10
315.01273	30.0
330.03729	150.0
345.0596	180.0
358.02966	130.0
373.05383	1000.0
374.05844	60.0
388.07751	840.0
389.08112	60.0
403.10126	210.0
404.10724	20.0

NAME:  5-hydroxy-3,7-dimethoxy-2-(4-methoxyphenyl)-4H-chromen-4-one
PRECURSORMZ:  327.08741178283
PRECURSORTYPE:  [M-H]-
FORMULA:  C18H16O6
Ontology: Kingdom: Organic compounds;Superclass: Phenylpropanoids and polyketides;Class: Flavonoids;Subclass: O
INCHIKEY:  WSQWAMGRHJQANC-UHFFFAOYSA-N
SMILES:  COC1=CC=C(C=C1)C1=C(OC)C(=O)C2=C(O)C=C(OC)C=C2O1
RETENTIONTIME:  
CCS:  194.3532931
IONMODE:  Negative
INSTRUMENTTYPE:  
INSTRUMENT:  qTof
COLLISIONENERGY:  
Comment:  DB#=CCMSLIB00000424746; origin=GNPS
Num Peaks:  4
285.03598	350.0
312.06293	350.0
327.08646	1000.0
766.64288	700.0

NAME:  5,7-dihydroxy-2-(4-hydroxyphenyl)-3-methoxy-4H-chromen-4-one
PRECURSORMZ:  299.05611165383
PRECURSORTYPE:  [M-H]-
FORMULA:  C16H12O6
Ontology: Kingdom: Organic compounds;Superclass: Phenylpropanoids and polyketides;Class: Flavonoids;Subclass: O
INCHIKEY:  VJJZJBUCDWKPLC-UHFFFAOYSA-N
SMILES:  COC1=C(OC2=CC(O)=CC(O)=C2C1=O)C1=CC=C(O)C=C1
RETENTIONTIME:  
CCS:  168.0862175
IONMODE:  Negative
INSTRUMENTTYPE:  
INSTRUMENT:  qTof
COLLISIONENERGY:  
Comment:  DB#=CCMSLIB00000424747; origin=GNPS
Num Peaks:  12
227.03947	70.0
228.03862	10.0
255.0294	210.0
256.03442	50.0
284.02997	1000.0
285.0321	100.0
289.32452	10.0
290.13913	10.0
299.05515	140.0
300.05673	10.0
766.63757	20.0
767.73969	20.0

NAME:  5,7-dihydroxy-2-(4-hydroxyphenyl)-3,6-dimethoxy-4H-chromen-4-one
PRECURSORMZ:  329.06667633883
PRECURSORTYPE:  [M-H]-
FORMULA:  C17H14O7
Ontology: Kingdom: Organic compounds;Superclass: Phenylpropanoids and polyketides;Class: Flavonoids;Subclass: O
INCHIKEY:  DDNPCXHBFYJXBJ-UHFFFAOYSA-N
SMILES:  COC1=C(O)C=C2OC(=C(OC)C(=O)C2=C1O)C1=CC=C(O)C=C1
RETENTIONTIME:  
CCS:  192.1031805
IONMODE:  Negative
INSTRUMENTTYPE:  
INSTRUMENT:  qTof
COLLISIONENERGY:  
Comment:  DB#=CCMSLIB00000424748; origin=GNPS
Num Peaks:  7
271.02585	30.0
299.01913	400.0
300.02353	30.0
314.04266	1000.0
315.04599	70.0
329.06564	110.0
330.06741	10.0

NAME:  2-(3,4-dimethoxyphenyl)-5,7-dihydroxy-3,6-dimethoxy-4H-chromen-4-one
PRECURSORMZ:  373.09289108783
PRECURSORTYPE:  [M-H]-
FORMULA:  C19H18O8
Ontology: Kingdom: Organic compounds;Superclass: Phenylpropanoids and polyketides;Class: Flavonoids;Subclass: O
INCHIKEY:  SDTFURCSGWUESP-UHFFFAOYSA-N
SMILES:  COC1=C(OC)C=C(C=C1)C1=C(OC)C(=O)C2=C(O1)C=C(O)C(OC)=C2O
RETENTIONTIME:  
CCS:  206.9443438
IONMODE:  Negative
INSTRUMENTTYPE:  
INSTRUMENT:  qTof
COLLISIONENERGY:  
Comment:  DB#=CCMSLIB00000424750; origin=GNPS
Num Peaks:  5
343.04861	500.0
358.06631	1000.0
373.09213	420.0
395.6058	210.0
766.62213	550.0

NAME:  5,7-dihydroxy-3,6-dimethoxy-2-(4-methoxyphenyl)-4H-chromen-4-one
PRECURSORMZ:  343.08232640283
PRECURSORTYPE:  [M-H]-
FORMULA:  C18H16O7
Ontology: Kingdom: Organic compounds;Superclass: Phenylpropanoids and polyketides;Class: Flavonoids;Subclass: O
INCHIKEY:  DWZAJFZEYZIHPO-UHFFFAOYSA-N
SMILES:  COC1=CC=C(C=C1)C1=C(OC)C(=O)C2=C(O1)C=C(O)C(OC)=C2O
RETENTIONTIME:  
CCS:  181.9254224
IONMODE:  Negative
INSTRUMENTTYPE:  
INSTRUMENT:  qTof
COLLISIONENERGY:  
Comment:  DB#=CCMSLIB00000424751; origin=GNPS
Num Peaks:  8
270.01608	30.0
285.03885	130.0
313.03436	380.0
314.03748	30.0
328.05807	1000.0
329.061	70.0
343.08121	380.0
344.08493	30.0

NAME:  5-hydroxy-3,6,7-trimethoxy-2-(4-methoxyphenyl)-4H-chromen-4-one
PRECURSORMZ:  357.09797646783
PRECURSORTYPE:  [M-H]-
FORMULA:  C19H18O7
Ontology: Kingdom: Organic compounds;Superclass: Phenylpropanoids and polyketides;Class: Flavonoids;Subclass: O
INCHIKEY:  ADNCDMHZHONBRR-UHFFFAOYSA-N
SMILES:  COC1=CC=C(C=C1)C1=C(OC)C(=O)C2=C(O)C(OC)=C(OC)C=C2O1
RETENTIONTIME:  
CCS:  202.6343381
IONMODE:  Negative
INSTRUMENTTYPE:  
INSTRUMENT:  qTof
COLLISIONENERGY:  
Comment:  DB#=CCMSLIB00000424760; origin=GNPS
Num Peaks:  10
327.05389	730.0
332.57693	160.0
342.07278	1000.0
357.09537	890.0
766.36835	230.0
766.55078	580.0
1082.32458	220.0
1126.96509	220.0
1429.2218	170.0
1452.42603	350.0

NAME:  2,4,5-trimethoxybenzoic acid
PRECURSORMZ:  211.06119703383
PRECURSORTYPE:  [M-H]-
FORMULA:  C10H12O5
Ontology: Kingdom: Organic compounds;Superclass: Benzenoids;Class: Benzene and substituted derivatives;Subclass: Benzoic acids and derivatives
INCHIKEY:  KVZUCOGWKYOPID-UHFFFAOYSA-N
SMILES:  COC1=CC(OC)=C(OC)C=C1C(O)=O
RETENTIONTIME:  
CCS:  156.3910685
IONMODE:  Negative
INSTRUMENTTYPE:  
INSTRUMENT:  qTof
COLLISIONENERGY:  
Comment:  DB#=CCMSLIB00000424764; origin=GNPS
Num Peaks:  11
121.0296	10.0
123.04564	10.0
135.04608	40.0
137.06213	30.0
151.03951	20.0
167.07132	1000.0
168.07475	80.0
181.05235	10.0
211.06065	670.0
212.06342	50.0
766.59198	20.0

NAME:  Glycyrrhizic acid
PRECURSORMZ:  821.39650946383
PRECURSORTYPE:  [M-H]-
FORMULA:  C42H62O16
Ontology: Kingdom: Organic compounds;Superclass: Lipids and lipid;Class: Prenol lipids;Subclass: Terpene glycosides
INCHIKEY:  LPLVUJXQOOQHMX-UHFFFAOYNA-N
SMILES:  CC1(C)C(CCC2(C)C1CCC1(C)C2C(=O)C=C2C3CC(C)(CCC3(C)CCC12C)C(O)=O)OC1OC(C(O)C(O)C1OC1OC(C(O)C(O)C1O)C(O)=O)C(O)=O
RETENTIONTIME:  
CCS:  244.1261022
IONMODE:  Negative
INSTRUMENTTYPE:  
INSTRUMENT:  qTof
COLLISIONENERGY:  
Comment:  DB#=CCMSLIB00000424770; origin=GNPS
Num Peaks:  22
113.02491	20.0
131.03497	10.0
157.01428	30.0
175.02385	110.0
193.03487	290.0
194.04018	10.0
235.04585	40.0
261.06027	20.0
263.03867	10.0
289.05627	60.0
307.06509	20.0
333.04663	30.0
351.0567	1000.0
352.05927	60.0
469.32892	20.0
583.36188	20.0
627.35211	30.0
645.36127	40.0
759.39185	30.0
821.39343	320.0
822.39618	80.0
823.39923	10.0

NAME:  4-(hydroxymethyl)-2-methoxyphenol
PRECURSORMZ:  153.05571772983
PRECURSORTYPE:  [M-H]-
FORMULA:  C8H10O3
Ontology: Kingdom: Organic compounds;Superclass: Benzenoids;Class: Phenols;Subclass: Methoxyphenols
INCHIKEY:  ZENOXNGFMSCLLL-UHFFFAOYSA-N
SMILES:  COC1=C(O)C=CC(CO)=C1
RETENTIONTIME:  
CCS:  130.7560768
IONMODE:  Negative
INSTRUMENTTYPE:  
INSTRUMENT:  qTof
COLLISIONENERGY:  
Comment:  DB#=CCMSLIB00000424774; origin=GNPS
Num Peaks:  7
135.04369	80.0
138.02927	280.0
153.05452	1000.0
154.06084	40.0
370.08896	30.0
766.57996	120.0
1082.3645	30.0

NAME:  Ginkgolide B
PRECURSORMZ:  423.12967052083
PRECURSORTYPE:  [M-H]-
FORMULA:  C20H24O10
Ontology: Kingdom: Organic compounds;Superclass: Lipids and lipid;Class: Prenol lipids;Subclass: Terpene lactones
INCHIKEY:  SQOJOAFXDQDRGF-UHFFFAOYNA-N
SMILES:  CC1C(=O)OC2C(O)C34C5CC(C(C)(C)C)C33C(O)C(=O)OC3OC4(C(=O)O5)C12O
RETENTIONTIME:  
CCS:  199.7078339
IONMODE:  Negative
INSTRUMENTTYPE:  
INSTRUMENT:  qTof
COLLISIONENERGY:  
Comment:  DB#=CCMSLIB00000424775; origin=GNPS
Num Peaks:  5
125.02424	90.0
367.14212	1000.0
395.1232	60.0
423.12872	100.0
766.57776	160.0

NAME:  Ginkgolide A
PRECURSORMZ:  407.13475590083
PRECURSORTYPE:  [M-H]-
FORMULA:  C20H24O9
Ontology: Kingdom: Organic compounds;Superclass: Lipids and lipid;Class: Prenol lipids;Subclass: Terpene lactones
INCHIKEY:  FPUXKXIZEIDQKW-UHFFFAOYNA-N
SMILES:  CC1C(=O)OC2CC34C5CC(C(C)(C)C)C33C(O)C(=O)OC3OC4(C(=O)O5)C12O
RETENTIONTIME:  
CCS:  197.5420573
IONMODE:  Negative
INSTRUMENTTYPE:  
INSTRUMENT:  qTof
COLLISIONENERGY:  
Comment:  DB#=CCMSLIB00000424777; origin=GNPS
Num Peaks:  7
351.15103	820.0
379.14145	480.0
407.13382	330.0
597.8692	330.0
766.58203	1000.0
900.48566	290.0
1082.35852	300.0

NAME:  Silibinin
PRECURSORMZ:  481.11402045583
PRECURSORTYPE:  [M-H]-
FORMULA:  C25H22O10
Ontology: Kingdom: Organic compounds;Superclass: Lignans;Class: Flavonolignans;
INCHIKEY:  SEBFKMXJBCUCAI-UHFFFAOYNA-N
SMILES:  COC1=C(O)C=CC(=C1)C1OC2=C(OC1CO)C=CC(=C2)C1OC2=CC(O)=CC(O)=C2C(=O)C1O
RETENTIONTIME:  
CCS:  209.5331451
IONMODE:  Negative
INSTRUMENTTYPE:  
INSTRUMENT:  qTof
COLLISIONENERGY:  
Comment:  DB#=CCMSLIB00000424780; origin=GNPS
Num Peaks:  8
125.02795	230.0
301.04193	180.0
481.11591	1000.0
696.14142	110.0
766.61157	470.0
785.97223	150.0
1316.20959	140.0
1452.53955	210.0

NAME:  Alizarin
PRECURSORMZ:  239.03498228583
PRECURSORTYPE:  [M-H]-
FORMULA:  C14H8O4
Ontology: Kingdom: Organic compounds;Superclass: Benzenoids;Class: Anthracenes;Subclass: Anthraquinones
INCHIKEY:  RGCKGOZRHPZPFP-UHFFFAOYSA-N
SMILES:  OC1=C(O)C2=C(C=C1)C(=O)C1=CC=CC=C1C2=O
RETENTIONTIME:  
CCS:  153.4358249
IONMODE:  Negative
INSTRUMENTTYPE:  
INSTRUMENT:  qTof
COLLISIONENERGY:  
Comment:  DB#=CCMSLIB00000424783; origin=GNPS
Num Peaks:  8
167.05426	170.0
210.03542	320.0
211.0425	270.0
238.0231	170.0
239.03889	1000.0
766.61505	420.0
1042.59143	170.0
1452.54626	260.0

NAME:  Vanillin
PRECURSORMZ:  151.04006766583
PRECURSORTYPE:  [M-H]-
FORMULA:  C8H8O3
Ontology: Kingdom: Organic compounds;Superclass: Benzenoids;Class: Phenols;Subclass: Methoxyphenols
INCHIKEY:  MWOOGOJBHIARFG-UHFFFAOYSA-N
SMILES:  COC1=C(O)C=CC(C=O)=C1
RETENTIONTIME:  
CCS:  128.7804142
IONMODE:  Negative
INSTRUMENTTYPE:  
INSTRUMENT:  qTof
COLLISIONENERGY:  
Comment:  DB#=CCMSLIB00000424793; origin=GNPS
Num Peaks:  7
136.01199	1000.0
151.03877	770.0
766.56232	560.0
1082.33167	160.0
1307.99878	170.0
1452.43372	340.0
1474.22888	170.0

NAME:  3-pentadecylphenol
PRECURSORMZ:  303.26933932683
PRECURSORTYPE:  [M-H]-
FORMULA:  C21H36O
Ontology: Kingdom: Organic compounds;Superclass: Benzenoids;Class: Phenols;
INCHIKEY:  PTFIPECGHSYQNR-UHFFFAOYSA-N
SMILES:  CCCCCCCCCCCCCCCC1=CC(O)=CC=C1
RETENTIONTIME:  
CCS:  212.7476423
IONMODE:  Negative
INSTRUMENTTYPE:  
INSTRUMENT:  qTof
COLLISIONENERGY:  
Comment:  DB#=CCMSLIB00000425017; origin=GNPS
Num Peaks:  7
119.04992	380.0
133.06557	160.0
147.08128	50.0
175.11726	40.0
231.1703	50.0
303.26755	1000.0
304.26984	110.0

NAME:  2-hydroxy-6-pentadecylbenzoic acid
PRECURSORMZ:  347.25916856683
PRECURSORTYPE:  [M-H]-
FORMULA:  C22H36O3
Ontology: Kingdom: Organic compounds;Superclass: Benzenoids;Class: Benzene and substituted derivatives;Subclass: Benzoic acids and derivatives
INCHIKEY:  ADFWQBGTDJIESE-UHFFFAOYSA-N
SMILES:  CCCCCCCCCCCCCCCC1=C(C(O)=O)C(O)=CC=C1
RETENTIONTIME:  
CCS:  194.7844825
IONMODE:  Negative
INSTRUMENTTYPE:  
INSTRUMENT:  qTof
COLLISIONENERGY:  
Comment:  DB#=CCMSLIB00000425018; origin=GNPS
Num Peaks:  4
303.26837	1000.0
304.27313	70.0
347.25723	240.0
348.26126	20.0

NAME:  2-acetoxy-6-pentadecylbenzoic acid
PRECURSORMZ:  389.26973325183
PRECURSORTYPE:  [M-H]-
FORMULA:  C24H38O4
Ontology: Kingdom: Organic compounds;Superclass: Benzenoids;Class: Benzene and substituted derivatives;Subclass: Benzoic acids and derivatives
INCHIKEY:  ZKWZWUUWZMUNAN-UHFFFAOYSA-N
SMILES:  CCCCCCCCCCCCCCCC1=C(C(O)=O)C(OC(C)=O)=CC=C1
RETENTIONTIME:  
CCS:  -1
IONMODE:  Negative
INSTRUMENTTYPE:  
INSTRUMENT:  qTof
COLLISIONENERGY:  
Comment:  DB#=CCMSLIB00000425019; origin=GNPS
Num Peaks:  4
345.27618	10.0
347.25958	1000.0
348.26199	80.0
389.2681	60.0

NAME:  2-(3-pentadecylphenoxy)acetic acid
PRECURSORMZ:  361.27481863183
PRECURSORTYPE:  [M-H]-
FORMULA:  C23H38O3
Ontology: Kingdom: Organic compounds;Superclass: Benzenoids;Class: Benzene and substituted derivatives;Subclass: Phenoxyacetic acid derivatives
INCHIKEY:  UESKGTSLDNVZTD-UHFFFAOYSA-N
SMILES:  CCCCCCCCCCCCCCCC1=CC(OCC(O)=O)=CC=C1
RETENTIONTIME:  
CCS:  231.4302055
IONMODE:  Negative
INSTRUMENTTYPE:  
INSTRUMENT:  qTof
COLLISIONENERGY:  
Comment:  DB#=CCMSLIB00000425020; origin=GNPS
Num Peaks:  7
302.24915	10.0
303.26877	370.0
304.26889	20.0
317.28073	70.0
360.26187	50.0
361.27328	1000.0
362.27728	100.0

NAME:  2-methoxy-6-pentadecylbenzoic acid
PRECURSORMZ:  361.27481863183
PRECURSORTYPE:  [M-H]-
FORMULA:  C23H38O3
Ontology: Kingdom: Organic compounds;Superclass: Benzenoids;Class: Benzene and substituted derivatives;Subclass: Benzoic acids and derivatives
INCHIKEY:  AFDSGPNKWBGVCV-UHFFFAOYSA-N
SMILES:  CCCCCCCCCCCCCCCC1=C(C(O)=O)C(OC)=CC=C1
RETENTIONTIME:  
CCS:  227.4414055
IONMODE:  Negative
INSTRUMENTTYPE:  
INSTRUMENT:  qTof
COLLISIONENERGY:  
Comment:  DB#=CCMSLIB00000425021; origin=GNPS
Num Peaks:  5
315.26984	10.0
317.28391	50.0
349.27341	10.0
361.27393	1000.0
362.27988	80.0

NAME:  2-methyl-2-(3-pentadecylphenoxy)propanoic acid
PRECURSORMZ:  389.30611875983
PRECURSORTYPE:  [M-H]-
FORMULA:  C25H42O3
Ontology: Kingdom: Organic compounds;Superclass: Benzenoids;Class: Benzene and substituted derivatives;Subclass: Phenoxyacetic acid derivatives
INCHIKEY:  SQSAOEAQCNWNBE-UHFFFAOYSA-N
SMILES:  CCCCCCCCCCCCCCCC1=CC(OC(C)(C)C(O)=O)=CC=C1
RETENTIONTIME:  
CCS:  238.0229019
IONMODE:  Negative
INSTRUMENTTYPE:  
INSTRUMENT:  qTof
COLLISIONENERGY:  
Comment:  DB#=CCMSLIB00000425022; origin=GNPS
Num Peaks:  4
302.25519	30.0
303.26999	1000.0
304.27319	60.0
389.30499	110.0

NAME:  3-(8-hydroxyoctyl)phenol
PRECURSORMZ:  221.15470349583
PRECURSORTYPE:  [M-H]-
FORMULA:  C14H22O2
Ontology: ;;;
INCHIKEY:  SLVFVSVYCYGPJP-UHFFFAOYSA-N
SMILES:  OCCCCCCCCC1=CC(O)=CC=C1
RETENTIONTIME:  
CCS:  -1
IONMODE:  Negative
INSTRUMENTTYPE:  
INSTRUMENT:  qTof
COLLISIONENERGY:  
Comment:  DB#=CCMSLIB00000427264; origin=GNPS
Num Peaks:  5
191.13927	40.0
203.14087	30.0
219.13741	340.0
221.15343	1000.0
222.15866	20.0

NAME:  2-hydroxy-6-pentadecyl-N-phenylbenzamide
PRECURSORMZ:  422.30645311183
PRECURSORTYPE:  [M-H]-
FORMULA:  C28H41NO2
Ontology: Kingdom: Organic compounds;Superclass: Benzenoids;Class: Benzene and substituted derivatives;Subclass: Anilides
INCHIKEY:  LHCSWSWUUPWSCQ-UHFFFAOYSA-N
SMILES:  CCCCCCCCCCCCCCCC1=C(C(O)=NC2=CC=CC=C2)C(O)=CC=C1
RETENTIONTIME:  
CCS:  241.9640267
IONMODE:  Negative
INSTRUMENTTYPE:  
INSTRUMENT:  qTof
COLLISIONENERGY:  
Comment:  DB#=CCMSLIB00000427265; origin=GNPS
Num Peaks:  3
303.26767	540.0
422.30539	1000.0
423.30859	110.0

NAME:  2-(8-hydroxyoctyl)-6-methoxybenzoic acid
PRECURSORMZ:  279.16018280083
PRECURSORTYPE:  [M-H]-
FORMULA:  C16H24O4
Ontology: Kingdom: Organic compounds;Superclass: Benzenoids;Class: Benzene and substituted derivatives;Subclass: Benzoic acids and derivatives
INCHIKEY:  VMSAVZHJSSTNMD-UHFFFAOYSA-N
SMILES:  COC1=CC=CC(CCCCCCCCO)=C1C(O)=O
RETENTIONTIME:  
CCS:  -1
IONMODE:  Negative
INSTRUMENTTYPE:  
INSTRUMENT:  qTof
COLLISIONENERGY:  
Comment:  DB#=CCMSLIB00000427266; origin=GNPS
Num Peaks:  7
203.14339	10.0
233.15433	140.0
234.14983	10.0
235.16904	1000.0
236.17241	80.0
279.15933	100.0
280.1619	10.0

NAME:  2-(3-(8-hydroxyoctyl)phenoxy)acetic acid
PRECURSORMZ:  279.16018280083
PRECURSORTYPE:  [M-H]-
FORMULA:  C16H24O4
Ontology: Kingdom: Organic compounds;Superclass: Benzenoids;Class: Benzene and substituted derivatives;Subclass: Phenoxyacetic acid derivatives
INCHIKEY:  VLZBAUBSGZIQDU-UHFFFAOYSA-N
SMILES:  OCCCCCCCCC1=CC(OCC(O)=O)=CC=C1
RETENTIONTIME:  
CCS:  -1
IONMODE:  Negative
INSTRUMENTTYPE:  
INSTRUMENT:  qTof
COLLISIONENERGY:  
Comment:  DB#=CCMSLIB00000427267; origin=GNPS
Num Peaks:  7
219.13696	20.0
221.15317	1000.0
222.15724	70.0
233.15157	20.0
235.16743	110.0
279.15909	80.0
280.16562	10.0

NAME:  3-(8-hydroxyoctyl)phenol
PRECURSORMZ:  221.15470349583
PRECURSORTYPE:  [M-H]-
FORMULA:  C14H22O2
Ontology: Kingdom: Organic compounds;Superclass: Lipids and lipid;Class: Fatty Acyls;Subclass: Fatty alcohols
INCHIKEY:  SLVFVSVYCYGPJP-UHFFFAOYSA-N
SMILES:  OCCCCCCCCC1=CC(O)=CC=C1
RETENTIONTIME:  
CCS:  -1
IONMODE:  Negative
INSTRUMENTTYPE:  
INSTRUMENT:  qTof
COLLISIONENERGY:  
Comment:  DB#=CCMSLIB00000427268; origin=GNPS
Num Peaks:  5
191.13927	40.0
203.14087	30.0
219.13741	340.0
221.15343	1000.0
222.15866	20.0

NAME:  2-hydroxy-6-pentadecyl-N-phenylbenzamide
PRECURSORMZ:  422.30645311183
PRECURSORTYPE:  [M-H]-
FORMULA:  C28H41NO2
Ontology: Kingdom: Organic compounds;Superclass: Benzenoids;Class: Benzene and substituted derivatives;Subclass: Anilides
INCHIKEY:  LHCSWSWUUPWSCQ-UHFFFAOYSA-N
SMILES:  CCCCCCCCCCCCCCCC1=C(C(O)=NC2=CC=CC=C2)C(O)=CC=C1
RETENTIONTIME:  
CCS:  241.9640267
IONMODE:  Negative
INSTRUMENTTYPE:  
INSTRUMENT:  qTof
COLLISIONENERGY:  
Comment:  DB#=CCMSLIB00000427269; origin=GNPS
Num Peaks:  3
303.26767	540.0
422.30539	1000.0
423.30859	110.0

NAME:  2-(8-hydroxyoctyl)-6-methoxybenzoic acid
PRECURSORMZ:  279.16018280083
PRECURSORTYPE:  [M-H]-
FORMULA:  C16H24O4
Ontology: Kingdom: Organic compounds;Superclass: Benzenoids;Class: Benzene and substituted derivatives;Subclass: Benzoic acids and derivatives
INCHIKEY:  VMSAVZHJSSTNMD-UHFFFAOYSA-N
SMILES:  COC1=CC=CC(CCCCCCCCO)=C1C(O)=O
RETENTIONTIME:  
CCS:  -1
IONMODE:  Negative
INSTRUMENTTYPE:  
INSTRUMENT:  qTof
COLLISIONENERGY:  
Comment:  DB#=CCMSLIB00000427270; origin=GNPS
Num Peaks:  7
203.14339	10.0
233.15433	140.0
234.14983	10.0
235.16904	1000.0
236.17241	80.0
279.15933	100.0
280.1619	10.0

NAME:  2-(3-(8-hydroxyoctyl)phenoxy)acetic acid
PRECURSORMZ:  279.16018280083
PRECURSORTYPE:  [M-H]-
FORMULA:  C16H24O4
Ontology: Kingdom: Organic compounds;Superclass: Benzenoids;Class: Benzene and substituted derivatives;Subclass: Phenoxyacetic acid derivatives
INCHIKEY:  VLZBAUBSGZIQDU-UHFFFAOYSA-N
SMILES:  OCCCCCCCCC1=CC(OCC(O)=O)=CC=C1
RETENTIONTIME:  
CCS:  -1
IONMODE:  Negative
INSTRUMENTTYPE:  
INSTRUMENT:  qTof
COLLISIONENERGY:  
Comment:  DB#=CCMSLIB00000427271; origin=GNPS
Num Peaks:  7
219.13696	20.0
221.15317	1000.0
222.15724	70.0
233.15157	20.0
235.16743	110.0
279.15909	80.0
280.16562	10.0

NAME:  2-hydroxy-4-pentadecylbenzoic acid
PRECURSORMZ:  347.25916856683
PRECURSORTYPE:  [M-H]-
FORMULA:  C22H36O3
Ontology: Kingdom: Organic compounds;Superclass: Benzenoids;Class: Benzene and substituted derivatives;Subclass: Benzoic acids and derivatives
INCHIKEY:  ZCPCQTFJJJQCGQ-UHFFFAOYSA-N
SMILES:  CCCCCCCCCCCCCCCC1=CC(O)=C(C=C1)C(O)=O
RETENTIONTIME:  
CCS:  226.8054298
IONMODE:  Negative
INSTRUMENTTYPE:  
INSTRUMENT:  qTof
COLLISIONENERGY:  
Comment:  DB#=CCMSLIB00000427272; origin=GNPS
Num Peaks:  4
302.2583	10.0
303.26859	1000.0
304.26895	100.0
347.25812	130.0

NAME:  8-(3-methoxy-2-(methoxycarbonyl)phenyl)octanoic acid
PRECURSORMZ:  307.15509742083
PRECURSORTYPE:  [M-H]-
FORMULA:  C17H24O5
Ontology: Kingdom: Organic compounds;Superclass: Benzenoids;Class: Benzene and substituted derivatives;Subclass: Benzoic acids and derivatives
INCHIKEY:  RTUJIYBESVJPOD-UHFFFAOYSA-N
SMILES:  COC(=O)C1=C(CCCCCCCC(O)=O)C=CC=C1OC
RETENTIONTIME:  
CCS:  -1
IONMODE:  Negative
INSTRUMENTTYPE:  
INSTRUMENT:  qTof
COLLISIONENERGY:  
Comment:  DB#=CCMSLIB00000427273; origin=GNPS
Num Peaks:  9
231.13815	1000.0
232.1418	60.0
249.14774	120.0
263.16367	350.0
264.16818	20.0
275.12689	150.0
276.12939	10.0
307.15402	960.0
308.15698	70.0

NAME:  2-(3-(8-hydroxyoctyl)phenoxy)-2-methylpropanoic acid
PRECURSORMZ:  307.19148292983
PRECURSORTYPE:  [M-H]-
FORMULA:  C18H28O4
Ontology: Kingdom: Organic compounds;Superclass: Benzenoids;Class: Benzene and substituted derivatives;Subclass: Phenoxyacetic acid derivatives
INCHIKEY:  NYFMYHQFRBQXEY-UHFFFAOYSA-N
SMILES:  CC(C)(OC1=CC=CC(CCCCCCCCO)=C1)C(O)=O
RETENTIONTIME:  
CCS:  -1
IONMODE:  Negative
INSTRUMENTTYPE:  
INSTRUMENT:  qTof
COLLISIONENERGY:  
Comment:  DB#=CCMSLIB00000427274; origin=GNPS
Num Peaks:  4
221.15395	1000.0
222.15918	80.0
307.19003	240.0
308.18988	40.0

NAME:  8-(3-((1-ethoxy-2-methyl-1-oxopropan-2-yl)oxy)phenyl)octanoic acid
PRECURSORMZ:  349.20204761383
PRECURSORTYPE:  [M-H]-
FORMULA:  C20H30O5
Ontology: Kingdom: Organic compounds;Superclass: Benzenoids;Class: Benzene and substituted derivatives;Subclass: Phenoxyacetic acid derivatives
INCHIKEY:  BLLVLMYXVKOFGW-UHFFFAOYSA-N
SMILES:  CCOC(=O)C(C)(C)OC1=CC=CC(CCCCCCCC(O)=O)=C1
RETENTIONTIME:  
CCS:  -1
IONMODE:  Negative
INSTRUMENTTYPE:  
INSTRUMENT:  qTof
COLLISIONENERGY:  
Comment:  DB#=CCMSLIB00000427282; origin=GNPS
Num Peaks:  7
217.12169	100.0
235.13335	1000.0
236.13515	50.0
263.16492	500.0
264.16757	40.0
321.16946	20.0
349.20117	30.0

NAME:  8-(3-((2-carboxypropan-2-yl)oxy)phenyl)octanoic acid
PRECURSORMZ:  321.17074748483
PRECURSORTYPE:  [M-H]-
FORMULA:  C18H26O5
Ontology: Kingdom: Organic compounds;Superclass: Benzenoids;Class: Benzene and substituted derivatives;Subclass: Phenoxyacetic acid derivatives
INCHIKEY:  WCAGMWBIBKPNGA-UHFFFAOYSA-N
SMILES:  CC(C)(OC1=CC=CC(CCCCCCCC(O)=O)=C1)C(O)=O
RETENTIONTIME:  
CCS:  -1
IONMODE:  Negative
INSTRUMENTTYPE:  
INSTRUMENT:  qTof
COLLISIONENERGY:  
Comment:  DB#=CCMSLIB00000427292; origin=GNPS
Num Peaks:  4
235.13277	1000.0
236.13597	70.0
321.16962	570.0
322.17416	50.0

NAME:  Ascorbic acid
PRECURSORMZ:  175.02481152583
PRECURSORTYPE:  [M-H]-
FORMULA:  C6H8O6
Ontology: Kingdom: Organic compounds;Superclass: Organoheterocyclic compounds;Class: Dihydrofurans;Subclass: Furanones
INCHIKEY:  CIWBSHSKHKDKBQ-UHFFFAOYNA-N
SMILES:  OCC(O)C1OC(=O)C(O)=C1O
RETENTIONTIME:  
CCS:  129.8003609
IONMODE:  Negative
INSTRUMENTTYPE:  
INSTRUMENT:  Orbitrap
COLLISIONENERGY:  
Comment:  DB#=CCMSLIB00000479607; origin=GNPS
Num Peaks:  13
57.01456	10.0
59.0126	480.0
71.01331	440.0
73.00496	70.0
83.01421	20.0
85.02807	40.0
87.00948	1000.0
88.01276	10.0
99.01026	20.0
113.01115	40.0
115.00713	430.0
175.03247	500.0
176.03732	10.0

NAME:  Citric acid
PRECURSORMZ:  191.01972614583
PRECURSORTYPE:  [M-H]-
FORMULA:  C6H8O7
Ontology: Kingdom: Organic compounds;Superclass: Organic acids and derivatives;Class: Carboxylic acids and derivatives;Subclass: Tricarboxylic acids and derivatives
INCHIKEY:  KRKNYBCHXYNGOX-UHFFFAOYSA-N
SMILES:  OC(=O)CC(O)(CC(O)=O)C(O)=O
RETENTIONTIME:  
CCS:  132.8436043
IONMODE:  Negative
INSTRUMENTTYPE:  
INSTRUMENT:  Orbitrap
COLLISIONENERGY:  
Comment:  DB#=CCMSLIB00000479610; origin=GNPS
Num Peaks:  8
57.03318	30.0
85.03086	230.0
87.00944	360.0
111.01137	1000.0
112.01482	30.0
129.02429	90.0
173.01831	20.0
191.03299	160.0

NAME:  Elaidic acid
PRECURSORMZ:  281.24860388283
PRECURSORTYPE:  [M-H]-
FORMULA:  C18H34O2
Ontology: Kingdom: Organic compounds;Superclass: Lipids and lipid;Class: Fatty Acyls;Subclass: Fatty acids and conjugates
INCHIKEY:  ZQPPMHVWECSIRJ-UHFFFAOYSA-N
SMILES:  CCCCCCCCC=CCCCCCCCC(O)=O
RETENTIONTIME:  
CCS:  179.4275268
IONMODE:  Negative
INSTRUMENTTYPE:  
INSTRUMENT:  Orbitrap
COLLISIONENERGY:  
Comment:  DB#=CCMSLIB00000479617; origin=GNPS
Num Peaks:  2
281.26953	1000.0
282.27451	100.0

NAME:  Fructose
PRECURSORMZ:  179.05611165383
PRECURSORTYPE:  [M-H]-
FORMULA:  C6H12O6
Ontology: Kingdom: Organic compounds;Superclass: Organic oxygen compounds;Class: Organooxygen compounds;Subclass: Carbohydrates and carbohydrate conjugates
INCHIKEY:  BJHIKXHVCXFQLS-UHFFFAOYNA-N
SMILES:  OCC(O)C(O)C(O)C(=O)CO
RETENTIONTIME:  
CCS:  131.0024774
IONMODE:  Negative
INSTRUMENTTYPE:  
INSTRUMENT:  Orbitrap
COLLISIONENERGY:  
Comment:  DB#=CCMSLIB00000479619; origin=GNPS
Num Peaks:  11
59.01246	1000.0
71.01338	800.0
72.21754	20.0
73.00558	20.0
85.02965	50.0
87.00914	20.0
89.02537	590.0
90.02887	10.0
101.02557	60.0
113.02725	110.0
179.02249	10.0

NAME:  Glucose
PRECURSORMZ:  179.05611165383
PRECURSORTYPE:  [M-H]-
FORMULA:  C6H12O6
Ontology: Kingdom: Organic compounds;Superclass: Organic oxygen compounds;Class: Organooxygen compounds;Subclass: Carbohydrates and carbohydrate conjugates
INCHIKEY:  WQZGKKKJIJFFOK-UHFFFAOYNA-N
SMILES:  OCC1OC(O)C(O)C(O)C1O
RETENTIONTIME:  
CCS:  131.8093195
IONMODE:  Negative
INSTRUMENTTYPE:  
INSTRUMENT:  Orbitrap
COLLISIONENERGY:  
Comment:  DB#=CCMSLIB00000479622; origin=GNPS
Num Peaks:  11
59.01263	1000.0
71.01452	550.0
72.1716	20.0
73.00031	20.0
85.03004	50.0
89.02574	300.0
95.01514	30.0
101.02619	110.0
113.02822	100.0
119.02603	60.0
179.02252	20.0

NAME:  Linoleic acid
PRECURSORMZ:  279.23295381783
PRECURSORTYPE:  [M-H]-
FORMULA:  C18H32O2
Ontology: Kingdom: Organic compounds;Superclass: Lipids and lipid;Class: Fatty Acyls;Subclass: Lineolic acids and derivatives
INCHIKEY:  OYHQOLUKZRVURQ-UHFFFAOYSA-N
SMILES:  CCCCCC=CCC=CCCCCCCCC(O)=O
RETENTIONTIME:  
CCS:  178.4762236
IONMODE:  Negative
INSTRUMENTTYPE:  
INSTRUMENT:  Orbitrap
COLLISIONENERGY:  
Comment:  DB#=CCMSLIB00000479710; origin=GNPS
Num Peaks:  2
279.25797	1000.0
280.26187	100.0

NAME:  Linolenic acid
PRECURSORMZ:  277.21730375383
PRECURSORTYPE:  [M-H]-
FORMULA:  C18H30O2
Ontology: Kingdom: Organic compounds;Superclass: Lipids and lipid;Class: Fatty Acyls;Subclass: Lineolic acids and derivatives
INCHIKEY:  DTOSIQBPPRVQHS-UHFFFAOYSA-N
SMILES:  CCC=CCC=CCC=CCCCCCCCC(O)=O
RETENTIONTIME:  
CCS:  176.8832294
IONMODE:  Negative
INSTRUMENTTYPE:  
INSTRUMENT:  Orbitrap
COLLISIONENERGY:  
Comment:  DB#=CCMSLIB00000479711; origin=GNPS
Num Peaks:  3
59.01403	20.0
277.24097	1000.0
278.24216	100.0

NAME:  Maltose
PRECURSORMZ:  341.10893507583
PRECURSORTYPE:  [M-H]-
FORMULA:  C12H22O11
Ontology: Kingdom: Organic compounds;Superclass: Organic oxygen compounds;Class: Organooxygen compounds;Subclass: Carbohydrates and carbohydrate conjugates
INCHIKEY:  GUBGYTABKSRVRQ-UHFFFAOYNA-N
SMILES:  OCC1OC(OC2C(O)C(O)C(O)OC2CO)C(O)C(O)C1O
RETENTIONTIME:  
CCS:  174.3755353
IONMODE:  Negative
INSTRUMENTTYPE:  
INSTRUMENT:  Orbitrap
COLLISIONENERGY:  
Comment:  DB#=CCMSLIB00000479714; origin=GNPS
Num Peaks:  17
55.73649	10.0
58.00499	10.0
59.01261	1000.0
60.01627	10.0
64.2318	10.0
71.01344	390.0
72.63884	20.0
74.56863	10.0
76.67237	10.0
85.03001	20.0
89.02541	230.0
93.50066	10.0
97.60269	10.0
102.99382	10.0
124.15249	10.0
149.06529	30.0
150.00848	380.0

NAME:  Mannose
PRECURSORMZ:  179.05611165383
PRECURSORTYPE:  [M-H]-
FORMULA:  C6H12O6
Ontology: Kingdom: Organic compounds;Superclass: Organic oxygen compounds;Class: Organooxygen compounds;Subclass: Carbohydrates and carbohydrate conjugates
INCHIKEY:  WQZGKKKJIJFFOK-UHFFFAOYNA-N
SMILES:  OCC1OC(O)C(O)C(O)C1O
RETENTIONTIME:  
CCS:  131.8093195
IONMODE:  Negative
INSTRUMENTTYPE:  
INSTRUMENT:  Orbitrap
COLLISIONENERGY:  
Comment:  DB#=CCMSLIB00000479715; origin=GNPS
Num Peaks:  10
59.01274	1000.0
60.0159	10.0
71.0135	320.0
72.29	10.0
85.02978	30.0
89.02574	250.0
101.02664	230.0
113.02742	60.0
119.0254	150.0
179.04375	80.0

NAME:  Myristic acid
PRECURSORMZ:  227.20165368983
PRECURSORTYPE:  [M-H]-
FORMULA:  C14H28O2
Ontology: Kingdom: Organic compounds;Superclass: Lipids and lipid;Class: Fatty Acyls;Subclass: Fatty acids and conjugates
INCHIKEY:  TUNFSRHWOTWDNC-UHFFFAOYSA-N
SMILES:  CCCCCCCCCCCCCC(O)=O
RETENTIONTIME:  
CCS:  162.9336085
IONMODE:  Negative
INSTRUMENTTYPE:  
INSTRUMENT:  Orbitrap
COLLISIONENERGY:  
Comment:  DB#=CCMSLIB00000479718; origin=GNPS
Num Peaks:  7
71.37104	50.0
100.936	10.0
115.92352	20.0
130.97395	110.0
158.98506	110.0
227.21649	1000.0
228.21896	80.0

NAME:  Palmitic acid
PRECURSORMZ:  255.23295381783
PRECURSORTYPE:  [M-H]-
FORMULA:  C16H32O2
Ontology: Kingdom: Organic compounds;Superclass: Lipids and lipid;Class: Fatty Acyls;Subclass: Fatty acids and conjugates
INCHIKEY:  IPCSVZSSVZVIGE-UHFFFAOYSA-N
SMILES:  CCCCCCCCCCCCCCCC(O)=O
RETENTIONTIME:  
CCS:  171.2891476
IONMODE:  Negative
INSTRUMENTTYPE:  
INSTRUMENT:  Orbitrap
COLLISIONENERGY:  
Comment:  DB#=CCMSLIB00000479724; origin=GNPS
Num Peaks:  6
71.0284	80.0
96.72944	20.0
112.98792	10.0
186.94032	460.0
255.25127	1000.0
256.25116	80.0

NAME:  Palmitoleic acid
PRECURSORMZ:  253.21730375383
PRECURSORTYPE:  [M-H]-
FORMULA:  C16H30O2
Ontology: Kingdom: Organic compounds;Superclass: Lipids and lipid;Class: Fatty Acyls;Subclass: Fatty acids and conjugates
INCHIKEY:  SECPZKHBENQXJG-UHFFFAOYSA-N
SMILES:  CCCCCCC=CCCCCCCCC(O)=O
RETENTIONTIME:  
CCS:  171.5080013
IONMODE:  Negative
INSTRUMENTTYPE:  
INSTRUMENT:  Orbitrap
COLLISIONENERGY:  
Comment:  DB#=CCMSLIB00000479725; origin=GNPS
Num Peaks:  2
253.23645	1000.0
254.24286	80.0

NAME:  Petroselinic acid
PRECURSORMZ:  281.24860388283
PRECURSORTYPE:  [M-H]-
FORMULA:  C18H34O2
Ontology: Kingdom: Organic compounds;Superclass: Lipids and lipid;Class: Fatty Acyls;Subclass: Fatty acids and conjugates
INCHIKEY:  CNVZJPUDSLNTQU-UHFFFAOYSA-N
SMILES:  CCCCCCCCCCCC=CCCCCC(O)=O
RETENTIONTIME:  
CCS:  179.4275268
IONMODE:  Negative
INSTRUMENTTYPE:  
INSTRUMENT:  Orbitrap
COLLISIONENERGY:  
Comment:  DB#=CCMSLIB00000479727; origin=GNPS
Num Peaks:  3
71.04221	10.0
281.26129	1000.0
282.27106	100.0

NAME:  Ribitol
PRECURSORMZ:  151.06119703383
PRECURSORTYPE:  [M-H]-
FORMULA:  C5H12O5
Ontology: Kingdom: Organic compounds;Superclass: Organic oxygen compounds;Class: Organooxygen compounds;Subclass: Carbohydrates and carbohydrate conjugates
INCHIKEY:  HEBKCHPVOIAQTA-UHFFFAOYNA-N
SMILES:  OCC(O)C(O)C(O)CO
RETENTIONTIME:  
CCS:  126.7950934
IONMODE:  Negative
INSTRUMENTTYPE:  
INSTRUMENT:  Orbitrap
COLLISIONENERGY:  
Comment:  DB#=CCMSLIB00000479734; origin=GNPS
Num Peaks:  19
55.01756	30.0
57.03317	20.0
59.01258	570.0
71.01334	940.0
72.06319	20.0
73.02632	100.0
83.01455	80.0
85.03004	90.0
87.00949	20.0
89.02517	680.0
101.02649	1000.0
102.00694	20.0
103.0423	20.0
113.0272	50.0
119.03812	80.0
131.03926	30.0
133.05632	40.0
149.05783	20.0
151.06833	360.0

NAME:  L-GLUTAMINE
PRECURSORMZ:  145.06186573783
PRECURSORTYPE:  [M-H]-
FORMULA:  C5H10N2O3
Ontology: Kingdom: Organic compounds;Superclass: Organic acids and derivatives;Class: Carboxylic acids and derivatives;Subclass: Amino acids
INCHIKEY:  ZDXPYRJPNDTMRX-UHFFFAOYNA-N
SMILES:  NC(CCC(N)=O)C(O)=O
RETENTIONTIME:  
CCS:  126.3474033
IONMODE:  Negative
INSTRUMENTTYPE:  
INSTRUMENT:  Q-Exactive Plus
COLLISIONENERGY:  
Comment:  DB#=CCMSLIB00000578093; origin=GNPS
Num Peaks:  9
74.02322	10.0
84.04394	20.0
101.07074	20.0
109.03925	30.0
125.03438	10.0
127.05016	100.0
128.03413	40.0
145.06076	110.0
146.02373	1000.0

NAME:  HYPOTAURINE
PRECURSORMZ:  108.01247319083
PRECURSORTYPE:  [M-H]-
FORMULA:  C2H7NO2S
Ontology: Kingdom: Organic compounds;Superclass: Organic acids and derivatives;Class: Sulfinic acids and derivatives;Subclass: Sulfinic acids
INCHIKEY:  VVIUBCNYACGLLV-UHFFFAOYNA-N
SMILES:  NCCS(O)=O
RETENTIONTIME:  
CCS:  129.4819487
IONMODE:  Negative
INSTRUMENTTYPE:  
INSTRUMENT:  Q-Exactive Plus
COLLISIONENERGY:  
Comment:  DB#=CCMSLIB00000578094; origin=GNPS
Num Peaks:  10
63.96096	1000.0
64.9688	110.0
65.013	20.0
72.45844	30.0
107.03495	70.0
107.04916	10.0
108.01132	70.0
108.02012	50.0
108.04417	20.0
109.03941	50.0

NAME:  INOSINE 5'-PHOSPHATE
PRECURSORMZ:  347.03982394083
PRECURSORTYPE:  [M-H]-
FORMULA:  C10H13N4O8P
Ontology: Kingdom: Organic compounds;Superclass: Nucleosides;Class: Purine nucleotides;Subclass: Purine ribonucleotides
INCHIKEY:  GRSZFWQUAKGDAV-UHFFFAOYNA-N
SMILES:  OC1C(COP(O)(O)=O)OC(C1O)N1C=NC2=C1NC=NC2=O
RETENTIONTIME:  
CCS:  169.4577825
IONMODE:  Negative
INSTRUMENTTYPE:  
INSTRUMENT:  Q-Exactive Plus
COLLISIONENERGY:  
Comment:  DB#=CCMSLIB00000578095; origin=GNPS
Num Peaks:  8
78.95754	1000.0
96.96816	500.0
135.02998	200.0
138.97894	30.0
150.97899	60.0
192.9901	30.0
211.00075	70.0
347.03995	140.0

NAME:  CITRATE
PRECURSORMZ:  191.01972614583
PRECURSORTYPE:  [M-H]-
FORMULA:  C6H8O7
Ontology: Kingdom: Organic compounds;Superclass: Organic acids and derivatives;Class: Carboxylic acids and derivatives;Subclass: Tricarboxylic acids and derivatives
INCHIKEY:  KRKNYBCHXYNGOX-UHFFFAOYSA-N
SMILES:  OC(=O)CC(O)(CC(O)=O)C(O)=O
RETENTIONTIME:  
CCS:  132.8436043
IONMODE:  Negative
INSTRUMENTTYPE:  
INSTRUMENT:  Q-Exactive Plus
COLLISIONENERGY:  
Comment:  DB#=CCMSLIB00000578096; origin=GNPS
Num Peaks:  8
57.03312	50.0
85.02805	270.0
87.00732	410.0
111.00745	1000.0
112.01077	30.0
129.01813	80.0
173.00845	20.0
191.01903	120.0

NAME:  PURINE
PRECURSORMZ:  119.03631969283
PRECURSORTYPE:  [M-H]-
FORMULA:  C5H4N4
Ontology: Kingdom: Organic compounds;Superclass: Organoheterocyclic compounds;Class: Imidazopyrimidines;Subclass: Purines and purine derivatives
INCHIKEY:  KDCGOANMDULRCW-UHFFFAOYSA-N
SMILES:  N1C=NC2=NC=NC=C12
RETENTIONTIME:  
CCS:  118.9865182
IONMODE:  Negative
INSTRUMENTTYPE:  
INSTRUMENT:  Q-Exactive Plus
COLLISIONENERGY:  
Comment:  DB#=CCMSLIB00000578097; origin=GNPS
Num Peaks:  3
92.0239	20.0
119.03498	1000.0
120.03867	30.0

NAME:  N-ACETYLNEURAMINATE
PRECURSORMZ:  308.09870474383
PRECURSORTYPE:  [M-H]-
FORMULA:  C11H19NO9
Ontology: Kingdom: Organic compounds;Superclass: Organic oxygen compounds;Class: Organooxygen compounds;Subclass: Carbohydrates and carbohydrate conjugates
INCHIKEY:  SQVRNKJHWKZAKO-UHFFFAOYNA-N
SMILES:  CC(=O)NC1C(O)CC(O)(OC1C(O)C(O)CO)C(O)=O
RETENTIONTIME:  
CCS:  165.4680518
IONMODE:  Negative
INSTRUMENTTYPE:  
INSTRUMENT:  Q-Exactive Plus
COLLISIONENERGY:  
Comment:  DB#=CCMSLIB00000578098; origin=GNPS
Num Peaks:  9
59.01239	20.0
87.00731	1000.0
88.01062	10.0
98.05972	130.0
100.03896	20.0
101.02301	10.0
119.03365	20.0
126.05467	20.0
170.045	140.0

NAME:  D-ASPARTATE
PRECURSORMZ:  132.03023125683
PRECURSORTYPE:  [M-H]-
FORMULA:  C4H7NO4
Ontology: Kingdom: Organic compounds;Superclass: Organic acids and derivatives;Class: Carboxylic acids and derivatives;Subclass: Amino acids
INCHIKEY:  CKLJMWTZIZZHCS-UHFFFAOYNA-N
SMILES:  NC(CC(O)=O)C(O)=O
RETENTIONTIME:  
CCS:  122.7851273
IONMODE:  Negative
INSTRUMENTTYPE:  
INSTRUMENT:  Q-Exactive Plus
COLLISIONENERGY:  
Comment:  DB#=CCMSLIB00000578099; origin=GNPS
Num Peaks:  7
71.01235	130.0
72.00757	20.0
88.03895	1000.0
89.0422	20.0
114.01842	70.0
115.00239	270.0
132.02899	440.0

NAME:  URATE
PRECURSORMZ:  167.02106355283
PRECURSORTYPE:  [M-H]-
FORMULA:  C5H4N4O3
Ontology: Kingdom: Organic compounds;Superclass: Organoheterocyclic compounds;Class: Imidazopyrimidines;Subclass: Purines and purine derivatives
INCHIKEY:  LEHOTFFKMJEONL-UHFFFAOYSA-N
SMILES:  O=C1NC2=C(N1)C(=O)NC(=O)N2
RETENTIONTIME:  
CCS:  129.7524843
IONMODE:  Negative
INSTRUMENTTYPE:  
INSTRUMENT:  Q-Exactive Plus
COLLISIONENERGY:  
Comment:  DB#=CCMSLIB00000578100; origin=GNPS
Num Peaks:  17
83.01234	600.0
84.01574	20.0
96.01898	60.0
97.00305	20.0
123.00639	20.0
123.04395	140.0
124.01397	380.0
142.02512	30.0
151.00566	20.0
153.00592	20.0
166.01227	40.0
166.05016	20.0
167.0202	1000.0
167.03345	60.0
167.06985	30.0
167.87712	10.0
168.02385	30.0

NAME:  L-SERINE
PRECURSORMZ:  104.03531663683
PRECURSORTYPE:  [M-H]-
FORMULA:  C3H7NO3
Ontology: Kingdom: Organic compounds;Superclass: Organic acids and derivatives;Class: Carboxylic acids and derivatives;Subclass: Amino acids
INCHIKEY:  MTCFGRXMJLQNBG-UHFFFAOYNA-N
SMILES:  NC(CO)C(O)=O
RETENTIONTIME:  
CCS:  120.3202565
IONMODE:  Negative
INSTRUMENTTYPE:  
INSTRUMENT:  Q-Exactive Plus
COLLISIONENERGY:  
Comment:  DB#=CCMSLIB00000578101; origin=GNPS
Num Peaks:  15
71.61768	20.0
76.96841	30.0
90.03355	20.0
94.97913	50.0
100.92445	160.0
101.92268	80.0
101.92869	10.0
117.92733	1000.0
118.03974	150.0
118.92548	740.0
118.93178	130.0
119.016	120.0
119.03498	380.0
119.0426	10.0
119.93197	20.0

NAME:  TAURINE
PRECURSORMZ:  124.00738781083
PRECURSORTYPE:  [M-H]-
FORMULA:  C2H7NO3S
Ontology: Kingdom: Organic compounds;Superclass: Organic acids and derivatives;Class: Organic sulfonic acids and derivatives;Subclass: Organosulfonic acids and derivatives
INCHIKEY:  XOAAWQZATWQOTB-UHFFFAOYSA-N
SMILES:  NCCS(O)(=O)=O
RETENTIONTIME:  
CCS:  125.9119375
IONMODE:  Negative
INSTRUMENTTYPE:  
INSTRUMENT:  Q-Exactive Plus
COLLISIONENERGY:  
Comment:  DB#=CCMSLIB00000578102; origin=GNPS
Num Peaks:  5
79.95583	440.0
94.97916	30.0
106.9796	10.0
124.00612	1000.0
124.03819	10.0

NAME:  NICOTINATE
PRECURSORMZ:  122.02475195283
PRECURSORTYPE:  [M-H]-
FORMULA:  C6H5NO2
Ontology: Kingdom: Organic compounds;Superclass: Organoheterocyclic compounds;Class: Pyridines and derivatives;Subclass: Pyridinecarboxylic acids and derivatives
INCHIKEY:  PVNIIMVLHYAWGP-UHFFFAOYSA-N
SMILES:  OC(=O)C1=CN=CC=C1
RETENTIONTIME:  
CCS:  121.0448239
IONMODE:  Negative
INSTRUMENTTYPE:  
INSTRUMENT:  Q-Exactive Plus
COLLISIONENERGY:  
Comment:  DB#=CCMSLIB00000578103; origin=GNPS
Num Peaks:  13
60.24707	20.0
66.10433	10.0
67.74363	10.0
78.03352	210.0
78.61753	10.0
84.76374	10.0
85.49015	10.0
88.6813	10.0
117.37543	20.0
121.02822	350.0
122.02355	1000.0
122.03148	90.0
125.83101	20.0

NAME:  INOSINE
PRECURSORMZ:  267.07349304983
PRECURSORTYPE:  [M-H]-
FORMULA:  C10H12N4O5
Ontology: Kingdom: Organic compounds;Superclass: Nucleosides;Class: Purine nucleosides;
INCHIKEY:  UGQMRVRMYYASKQ-UHFFFAOYNA-N
SMILES:  OCC1OC(C(O)C1O)N1C=NC2=C1NC=NC2=O
RETENTIONTIME:  
CCS:  158.4532116
IONMODE:  Negative
INSTRUMENTTYPE:  
INSTRUMENT:  Q-Exactive Plus
COLLISIONENERGY:  
Comment:  DB#=CCMSLIB00000578104; origin=GNPS
Num Peaks:  4
135.03006	1000.0
136.03423	20.0
267.07385	920.0
268.07684	50.0

NAME:  4-AMINOBUTANOATE
PRECURSORMZ:  102.05605208183
PRECURSORTYPE:  [M-H]-
FORMULA:  C4H9NO2
Ontology: ;;;
INCHIKEY:  BTCSSZJGUNDROE-UHFFFAOYSA-N
SMILES:  NCCCC(O)=O
RETENTIONTIME:  
CCS:  124.8041472
IONMODE:  Negative
INSTRUMENTTYPE:  
INSTRUMENT:  Q-Exactive Plus
COLLISIONENERGY:  
Comment:  DB#=CCMSLIB00000578105; origin=GNPS
Num Peaks:  10
57.033	30.0
59.01229	20.0
71.25013	10.0
71.25433	30.0
84.04401	100.0
101.0594	710.0
102.0547	1000.0
102.06252	110.0
103.03868	30.0
103.05791	10.0

NAME:  CYTOSINE
PRECURSORMZ:  110.03598534083
PRECURSORTYPE:  [M-H]-
FORMULA:  C4H5N3O
Ontology: Kingdom: Organic compounds;Superclass: Organoheterocyclic compounds;Class: Diazines;Subclass: Pyrimidines and pyrimidine derivatives
INCHIKEY:  OPTASPLRGRRNAP-UHFFFAOYSA-N
SMILES:  NC1=CC=NC(=O)N1
RETENTIONTIME:  
CCS:  118.0605583
IONMODE:  Negative
INSTRUMENTTYPE:  
INSTRUMENT:  Q-Exactive Plus
COLLISIONENERGY:  
Comment:  DB#=CCMSLIB00000578106; origin=GNPS
Num Peaks:  4
67.02874	980.0
68.03208	20.0
110.03471	1000.0
111.03812	20.0

NAME:  L-ISOLEUCINE
PRECURSORMZ:  130.08735221083
PRECURSORTYPE:  [M-H]-
FORMULA:  C6H13NO2
Ontology: Kingdom: Organic compounds;Superclass: Organic acids and derivatives;Class: Carboxylic acids and derivatives;Subclass: Amino acids
INCHIKEY:  AGPKZVBTJJNPAG-UHFFFAOYNA-N
SMILES:  CCC(C)C(N)C(O)=O
RETENTIONTIME:  
CCS:  129.0581635
IONMODE:  Negative
INSTRUMENTTYPE:  
INSTRUMENT:  Q-Exactive Plus
COLLISIONENERGY:  
Comment:  DB#=CCMSLIB00000578107; origin=GNPS
Num Peaks:  2
130.08615	1000.0
131.08969	40.0

NAME:  ASCORBATE
PRECURSORMZ:  175.02481152583
PRECURSORTYPE:  [M-H]-
FORMULA:  C6H8O6
Ontology: Kingdom: Organic compounds;Superclass: Organoheterocyclic compounds;Class: Dihydrofurans;Subclass: Furanones
INCHIKEY:  TYQCGQRIZGCHNB-UHFFFAOYNA-N
SMILES:  OCC(O)C1OC(O)=C(O)C1=O
RETENTIONTIME:  
CCS:  -1
IONMODE:  Negative
INSTRUMENTTYPE:  
INSTRUMENT:  Q-Exactive Plus
COLLISIONENERGY:  
Comment:  DB#=CCMSLIB00000578108; origin=GNPS
Num Peaks:  6
119.01556	20.0
131.08138	70.0
132.08513	10.0
156.9425	20.0
175.04236	1000.0
176.04427	50.0

NAME:  GLUCONIC ACID
PRECURSORMZ:  195.05102627383
PRECURSORTYPE:  [M-H]-
FORMULA:  C6H12O7
Ontology: Kingdom: Organic compounds;Superclass: Organic acids and derivatives;Class: Hydroxy acids and derivatives;Subclass: Medium
INCHIKEY:  RGHNJXZEOKUKBD-UHFFFAOYNA-N
SMILES:  OCC(O)C(O)C(O)C(O)C(O)=O
RETENTIONTIME:  
CCS:  134.0914505
IONMODE:  Negative
INSTRUMENTTYPE:  
INSTRUMENT:  Q-Exactive Plus
COLLISIONENERGY:  
Comment:  DB#=CCMSLIB00000578109; origin=GNPS
Num Peaks:  23
61.98687	570.0
71.53575	180.0
94.97914	60.0
97.03934	30.0
99.05486	340.0
104.77937	30.0
108.21664	20.0
116.92731	530.0
117.92728	120.0
118.92553	180.0
119.01558	1000.0
134.4519	30.0
142.9917	50.0
175.04208	110.0
178.90266	50.0
231.11842	30.0
240.06905	100.0
257.09604	40.0
274.88171	380.0
275.04678	40.0
275.10657	250.0
275.23825	40.0
288.29196	30.0

NAME:  QUINATE
PRECURSORMZ:  191.05611165383
PRECURSORTYPE:  [M-H]-
FORMULA:  C7H12O6
Ontology: Kingdom: Organic compounds;Superclass: Organic oxygen compounds;Class: Organooxygen compounds;Subclass: Alcohols and polyols
INCHIKEY:  AAWZDTNXLSGCEK-UHFFFAOYNA-N
SMILES:  OC1CC(O)(CC(O)C1O)C(O)=O
RETENTIONTIME:  
CCS:  136.0426542
IONMODE:  Negative
INSTRUMENTTYPE:  
INSTRUMENT:  Q-Exactive Plus
COLLISIONENERGY:  
Comment:  DB#=CCMSLIB00000578110; origin=GNPS
Num Peaks:  22
51.88882	10.0
57.07756	10.0
59.01243	10.0
60.0741	10.0
61.98686	20.0
67.35514	10.0
69.31673	10.0
71.94734	30.0
71.95141	30.0
80.99438	30.0
83.04882	20.0
99.08007	20.0
99.92438	150.0
100.92481	20.0
101.05955	10.0
108.59032	10.0
143.10657	1000.0
143.91496	20.0
144.04408	30.0
144.10995	410.0
144.9911	20.0
163.70724	10.0

NAME:  (S)-DIHYDROOROTATE
PRECURSORMZ:  157.02548022883
PRECURSORTYPE:  [M-H]-
FORMULA:  C5H6N2O4
Ontology: Kingdom: Organic compounds;Superclass: Organic acids and derivatives;Class: Carboxylic acids and derivatives;Subclass: Amino acids
INCHIKEY:  UFIVEPVSAGBUSI-UHFFFAOYNA-N
SMILES:  OC(=O)C1CC(=O)NC(=O)N1
RETENTIONTIME:  
CCS:  126.045648
IONMODE:  Negative
INSTRUMENTTYPE:  
INSTRUMENT:  Q-Exactive Plus
COLLISIONENERGY:  
Comment:  DB#=CCMSLIB00000578111; origin=GNPS
Num Peaks:  16
52.8828	30.0
59.01235	60.0
67.02861	50.0
69.04454	60.0
72.34447	40.0
72.34782	60.0
95.6442	30.0
102.18151	30.0
119.01558	70.0
123.90101	50.0
144.28111	30.0
180.98833	1000.0
181.00285	50.0
244.90736	50.0
245.09624	200.0
245.19139	70.0

NAME:  MALONATE
PRECURSORMZ:  103.00368215683
PRECURSORTYPE:  [M-H]-
FORMULA:  C3H4O4
Ontology: Kingdom: Organic compounds;Superclass: Organic acids and derivatives;Class: Carboxylic acids and derivatives;Subclass: Dicarboxylic acids and derivatives
INCHIKEY:  OFOBLEOULBTSOW-UHFFFAOYSA-N
SMILES:  OC(=O)CC(O)=O
RETENTIONTIME:  
CCS:  120.8824822
IONMODE:  Negative
INSTRUMENTTYPE:  
INSTRUMENT:  Q-Exactive Plus
COLLISIONENERGY:  
Comment:  DB#=CCMSLIB00000578112; origin=GNPS
Num Peaks:  19
56.50479	20.0
60.58989	20.0
73.14304	30.0
80.99435	140.0
83.04878	160.0
95.62885	20.0
99.9243	370.0
100.92477	30.0
101.05937	250.0
105.16447	20.0
107.65803	20.0
143.10661	1000.0
143.91452	40.0
144.04407	40.0
144.10991	500.0
144.99068	70.0
145.0497	110.0
145.08611	30.0
145.11395	20.0

NAME:  GLYCINE
PRECURSORMZ:  74.02475195283
PRECURSORTYPE:  [M-H]-
FORMULA:  C2H5NO2
Ontology: Kingdom: Organic compounds;Superclass: Organic acids and derivatives;Class: Carboxylic acids and derivatives;Subclass: Amino acids
INCHIKEY:  DHMQDGOQFOQNFH-UHFFFAOYSA-N
SMILES:  NCC(O)=O
RETENTIONTIME:  
CCS:  126.8243892
IONMODE:  Negative
INSTRUMENTTYPE:  
INSTRUMENT:  Q-Exactive Plus
COLLISIONENERGY:  
Comment:  DB#=CCMSLIB00000578113; origin=GNPS
Num Peaks:  3
73.02801	340.0
74.02327	1000.0
75.00723	40.0

NAME:  L-METHIONINE
PRECURSORMZ:  148.04377331983
PRECURSORTYPE:  [M-H]-
FORMULA:  C5H11NO2S
Ontology: Kingdom: Organic compounds;Superclass: Organic acids and derivatives;Class: Carboxylic acids and derivatives;Subclass: Amino acids
INCHIKEY:  FFEARJCKVFRZRR-UHFFFAOYNA-N
SMILES:  CSCCC(N)C(O)=O
RETENTIONTIME:  
CCS:  135.0277635
IONMODE:  Negative
INSTRUMENTTYPE:  
INSTRUMENT:  Q-Exactive Plus
COLLISIONENERGY:  
Comment:  DB#=CCMSLIB00000578114; origin=GNPS
Num Peaks:  16
58.86366	40.0
63.36483	30.0
72.06224	130.0
73.11765	40.0
73.71236	40.0
86.05407	40.0
86.71523	30.0
96.73473	50.0
100.03897	210.0
100.62296	40.0
103.2813	40.0
103.95545	40.0
129.84265	40.0
147.02711	1000.0
148.0289	210.0
148.04251	420.0

NAME:  ADENINE
PRECURSORMZ:  134.04721872883
PRECURSORTYPE:  [M-H]-
FORMULA:  C5H5N5
Ontology: Kingdom: Organic compounds;Superclass: Organoheterocyclic compounds;Class: Imidazopyrimidines;Subclass: Purines and purine derivatives
INCHIKEY:  GFFGJBXGBJISGV-UHFFFAOYSA-N
SMILES:  NC1=NC=NC2=C1NC=N2
RETENTIONTIME:  
CCS:  122.1769505
IONMODE:  Negative
INSTRUMENTTYPE:  
INSTRUMENT:  Q-Exactive Plus
COLLISIONENERGY:  
Comment:  DB#=CCMSLIB00000578115; origin=GNPS
Num Peaks:  4
92.02396	30.0
107.03491	150.0
134.04605	1000.0
135.05038	30.0

NAME:  5'-METHYLTHIOADENOSINE
PRECURSORMZ:  296.08228408483
PRECURSORTYPE:  [M-H]-
FORMULA:  C11H15N5O3S
Ontology: Kingdom: Organic compounds;Superclass: Nucleosides;;
INCHIKEY:  WUUGFSXJNOTRMR-UHFFFAOYNA-N
SMILES:  CSCC1OC(C(O)C1O)N1C=NC2=C1N=CN=C2N
RETENTIONTIME:  
CCS:  165.6018605
IONMODE:  Negative
INSTRUMENTTYPE:  
INSTRUMENT:  Q-Exactive Plus
COLLISIONENERGY:  
Comment:  DB#=CCMSLIB00000578116; origin=GNPS
Num Peaks:  3
134.04602	1000.0
135.05038	20.0
296.08252	30.0

NAME:  THYMIDINE
PRECURSORMZ:  241.08299510683
PRECURSORTYPE:  [M-H]-
FORMULA:  C10H14N2O5
Ontology: Kingdom: Organic compounds;Superclass: Nucleosides;Class: Pyrimidine nucleosides;Subclass: Pyrimidine 
INCHIKEY:  IQFYYKKMVGJFEH-UHFFFAOYNA-N
SMILES:  CC1=CN(C2CC(O)C(CO)O2)C(=O)NC1=O
RETENTIONTIME:  
CCS:  154.2132911
IONMODE:  Negative
INSTRUMENTTYPE:  
INSTRUMENT:  Q-Exactive Plus
COLLISIONENERGY:  
Comment:  DB#=CCMSLIB00000578117; origin=GNPS
Num Peaks:  13
71.87405	50.0
82.97202	10.0
108.04442	20.0
125.02439	20.0
125.03434	380.0
126.05522	20.0
150.05542	20.0
151.05016	510.0
225.02747	10.0
238.99658	10.0
241.08286	1000.0
241.21745	50.0
242.08653	60.0

NAME:  GLYCERATE
PRECURSORMZ:  105.01933222083
PRECURSORTYPE:  [M-H]-
FORMULA:  C3H6O4
Ontology: Kingdom: Organic compounds;Superclass: Organic oxygen compounds;Class: Organooxygen compounds;Subclass: Carbohydrates and carbohydrate conjugates
INCHIKEY:  RBNPOMFGQQGHHO-UHFFFAOYNA-N
SMILES:  OCC(O)C(O)=O
RETENTIONTIME:  
CCS:  120.699586
IONMODE:  Negative
INSTRUMENTTYPE:  
INSTRUMENT:  Q-Exactive Plus
COLLISIONENERGY:  
Comment:  DB#=CCMSLIB00000578118; origin=GNPS
Num Peaks:  6
59.01237	140.0
59.99504	30.0
72.9916	340.0
75.00725	420.0
105.01794	1000.0
106.02137	20.0

NAME:  OROTATE
PRECURSORMZ:  155.00983016483
PRECURSORTYPE:  [M-H]-
FORMULA:  C5H4N2O4
Ontology: Kingdom: Organic compounds;Superclass: Organoheterocyclic compounds;Class: Diazines;Subclass: Pyrimidines and pyrimidine derivatives
INCHIKEY:  PXQPEWDEAKTCGB-UHFFFAOYSA-N
SMILES:  OC(=O)C1=CC(=O)NC(=O)N1
RETENTIONTIME:  
CCS:  124.7764202
IONMODE:  Negative
INSTRUMENTTYPE:  
INSTRUMENT:  Q-Exactive Plus
COLLISIONENERGY:  
Comment:  DB#=CCMSLIB00000578119; origin=GNPS
Num Peaks:  3
111.01861	1000.0
112.02197	20.0
155.00874	20.0

NAME:  ETHANOLAMINE PHOSPHATE
PRECURSORMZ:  140.01181828783
PRECURSORTYPE:  [M-H]-
FORMULA:  C2H8NO4P
Ontology: Kingdom: Organic compounds;Superclass: Organic acids and derivatives;Class: Organic phosphoric acids and derivatives;Subclass: Phosphate esters
INCHIKEY:  SUHOOTKUPISOBE-UHFFFAOYSA-N
SMILES:  NCCOP(O)(O)=O
RETENTIONTIME:  
CCS:  127.3610588
IONMODE:  Negative
INSTRUMENTTYPE:  
INSTRUMENT:  Q-Exactive Plus
COLLISIONENERGY:  
Comment:  DB#=CCMSLIB00000578120; origin=GNPS
Num Peaks:  5
59.01238	150.0
78.95757	1000.0
112.00267	10.0
139.99794	40.0
140.01057	60.0

NAME:  XANTHINE
PRECURSORMZ:  151.02614893283
PRECURSORTYPE:  [M-H]-
FORMULA:  C5H4N4O2
Ontology: ;;;
INCHIKEY:  LRFVTYWOQMYALW-UHFFFAOYSA-N
SMILES:  O=C1NC2=C(NC=N2)C(=O)N1
RETENTIONTIME:  
CCS:  125.6820425
IONMODE:  Negative
INSTRUMENTTYPE:  
INSTRUMENT:  Q-Exactive Plus
COLLISIONENERGY:  
Comment:  DB#=CCMSLIB00000578121; origin=GNPS
Num Peaks:  6
108.01894	190.0
126.02959	20.0
136.0154	10.0
150.00084	20.0
151.02509	1000.0
152.02922	20.0

NAME:  L-ALANINE
PRECURSORMZ:  88.04040201683
PRECURSORTYPE:  [M-H]-
FORMULA:  C3H7NO2
Ontology: Kingdom: Organic compounds;Superclass: Organic acids and derivatives;Class: Carboxylic acids and derivatives;Subclass: Amino acids
INCHIKEY:  QNAYBMKLOCPYGJ-UHFFFAOYNA-N
SMILES:  CC(N)C(O)=O
RETENTIONTIME:  
CCS:  123.3560953
IONMODE:  Negative
INSTRUMENTTYPE:  
INSTRUMENT:  Q-Exactive Plus
COLLISIONENERGY:  
Comment:  DB#=CCMSLIB00000578122; origin=GNPS
Num Peaks:  4
87.04378	60.0
88.03898	1000.0
89.02296	120.0
89.04213	10.0

NAME:  URIDINE-5-MONOPHOSPHATE
PRECURSORMZ:  323.02859055283
PRECURSORTYPE:  [M-H]-
FORMULA:  C9H13N2O9P
Ontology: Kingdom: Organic compounds;Superclass: Nucleosides;Class: Pyrimidine nucleotides;Subclass: Pyrimidine ribonucleotides
INCHIKEY:  DJJCXFVJDGTHFX-UHFFFAOYNA-N
SMILES:  OC1C(O)C(OC1COP(O)(O)=O)N1C=CC(=O)NC1=O
RETENTIONTIME:  
CCS:  163.7691261
IONMODE:  Negative
INSTRUMENTTYPE:  
INSTRUMENT:  Q-Exactive Plus
COLLISIONENERGY:  
Comment:  DB#=CCMSLIB00000578124; origin=GNPS
Num Peaks:  10
78.95755	1000.0
96.96818	780.0
111.01862	160.0
138.97897	90.0
150.97911	80.0
164.03444	10.0
192.99002	50.0
211.00085	110.0
280.02301	50.0
323.02872	140.0

NAME:  L-PROLINE
PRECURSORMZ:  114.05605208183
PRECURSORTYPE:  [M-H]-
FORMULA:  C5H9NO2
Ontology: Kingdom: Organic compounds;Superclass: Organic acids and derivatives;Class: Carboxylic acids and derivatives;Subclass: Amino acids
INCHIKEY:  ONIBWKKTOPOVIA-UHFFFAOYNA-N
SMILES:  OC(=O)C1CCCN1
RETENTIONTIME:  
CCS:  120.8737189
IONMODE:  Negative
INSTRUMENTTYPE:  
INSTRUMENT:  Q-Exactive Plus
COLLISIONENERGY:  
Comment:  DB#=CCMSLIB00000578125; origin=GNPS
Num Peaks:  4
66.03335	20.0
114.0547	1000.0
115.05813	30.0
115.07504	30.0

NAME:  URIDINE
PRECURSORMZ:  243.06225966183
PRECURSORTYPE:  [M-H]-
FORMULA:  C9H12N2O6
Ontology: Kingdom: Organic compounds;Superclass: Nucleosides;Class: Pyrimidine nucleosides;
INCHIKEY:  DRTQHJPVMGBUCF-UHFFFAOYNA-N
SMILES:  OCC1OC(C(O)C1O)N1C=CC(=O)NC1=O
RETENTIONTIME:  
CCS:  151.8583657
IONMODE:  Negative
INSTRUMENTTYPE:  
INSTRUMENT:  Q-Exactive Plus
COLLISIONENERGY:  
Comment:  DB#=CCMSLIB00000578126; origin=GNPS
Num Peaks:  16
66.03343	70.0
71.01242	10.0
82.02834	120.0
96.044	10.0
108.04414	20.0
110.02341	1000.0
111.01868	50.0
111.02678	20.0
117.01801	10.0
122.02351	60.0
124.039	20.0
140.03415	110.0
152.03421	180.0
153.02893	50.0
200.05585	170.0
243.06223	60.0

NAME:  FRUCTOSE 1,6-BIPHOSPHATE
PRECURSORMZ:  338.98877343483
PRECURSORTYPE:  [M-H]-
FORMULA:  C6H14O12P2
Ontology: ;;;
INCHIKEY:  XPYBSIWDXQFNMH-UHFFFAOYNA-N
SMILES:  OC(COP(O)(O)=O)C(O)C(O)C(=O)COP(O)(O)=O
RETENTIONTIME:  
CCS:  169.2052665
IONMODE:  Negative
INSTRUMENTTYPE:  
INSTRUMENT:  Q-Exactive Plus
COLLISIONENERGY:  
Comment:  DB#=CCMSLIB00000578127; origin=GNPS
Num Peaks:  13
59.01233	20.0
78.95763	200.0
96.96825	1000.0
138.97868	40.0
150.97934	30.0
158.92451	70.0
168.99004	20.0
176.93524	70.0
223.00107	20.0
241.01158	70.0
276.87857	20.0
320.88654	30.0
338.99106	20.0

NAME:  CARNOSINE
PRECURSORMZ:  225.09931387483
PRECURSORTYPE:  [M-H]-
FORMULA:  C9H14N4O3
Ontology: Kingdom: Organic compounds;Superclass: Organic acids and derivatives;Class: Peptidomimetics;Subclass: Hybrid peptides
INCHIKEY:  CQOVPNPJLQNMDC-UHFFFAOYNA-N
SMILES:  NCCC(=O)NC(CC1=CN=CN1)C(O)=O
RETENTIONTIME:  
CCS:  149.8669213
IONMODE:  Negative
INSTRUMENTTYPE:  
INSTRUMENT:  Q-Exactive Plus
COLLISIONENERGY:  
Comment:  DB#=CCMSLIB00000578128; origin=GNPS
Num Peaks:  18
67.02863	30.0
81.0442	20.0
87.05489	20.0
88.03893	100.0
93.0443	30.0
110.07101	900.0
111.07439	20.0
127.05003	60.0
137.03439	30.0
154.06116	1000.0
155.06487	30.0
161.08223	20.0
163.09789	110.0
164.08195	20.0
181.10858	70.0
207.08763	20.0
225.09898	390.0
226.10237	20.0

NAME:  SUCCINATE
PRECURSORMZ:  117.01933222083
PRECURSORTYPE:  [M-H]-
FORMULA:  C4H6O4
Ontology: ;;;
INCHIKEY:  KDYFGRWQOYBRFD-UHFFFAOYSA-N
SMILES:  OC(=O)CCC(O)=O
RETENTIONTIME:  
CCS:  123.254263
IONMODE:  Negative
INSTRUMENTTYPE:  
INSTRUMENT:  Q-Exactive Plus
COLLISIONENERGY:  
Comment:  DB#=CCMSLIB00000578129; origin=GNPS
Num Peaks:  8
73.02803	1000.0
74.03142	20.0
99.00739	100.0
99.92422	10.0
116.92725	160.0
117.01807	250.0
117.92725	10.0
118.03983	20.0

NAME:  URACIL
PRECURSORMZ:  111.02000092483
PRECURSORTYPE:  [M-H]-
FORMULA:  C4H4N2O2
Ontology: Kingdom: Organic compounds;Superclass: Organoheterocyclic compounds;Class: Diazines;Subclass: Pyrimidines and pyrimidine derivatives
INCHIKEY:  ISAKRJDGNUQOIC-UHFFFAOYSA-N
SMILES:  O=C1NC=CC(=O)N1
RETENTIONTIME:  
CCS:  117.4709453
IONMODE:  Negative
INSTRUMENTTYPE:  
INSTRUMENT:  Q-Exactive Plus
COLLISIONENERGY:  
Comment:  DB#=CCMSLIB00000578131; origin=GNPS
Num Peaks:  3
111.01865	1000.0
112.02193	30.0
112.05008	10.0

NAME:  (S)-MALATE
PRECURSORMZ:  133.01424684083
PRECURSORTYPE:  [M-H]-
FORMULA:  C4H6O5
Ontology: Kingdom: Organic compounds;Superclass: Organic acids and derivatives;Class: Hydroxy acids and derivatives;Subclass: Beta hydroxy acids and derivatives
INCHIKEY:  BJEPYKJPYRNKOW-UHFFFAOYNA-N
SMILES:  OC(CC(O)=O)C(O)=O
RETENTIONTIME:  
CCS:  122.6885198
IONMODE:  Negative
INSTRUMENTTYPE:  
INSTRUMENT:  Q-Exactive Plus
COLLISIONENERGY:  
Comment:  DB#=CCMSLIB00000578132; origin=GNPS
Num Peaks:  7
71.01234	460.0
72.01572	10.0
72.99158	100.0
89.02296	80.0
115.00237	1000.0
116.00584	30.0
133.013	370.0

NAME:  L-ASPARTATE
PRECURSORMZ:  132.03023125683
PRECURSORTYPE:  [M-H]-
FORMULA:  C4H7NO4
Ontology: Kingdom: Organic compounds;Superclass: Organic acids and derivatives;Class: Carboxylic acids and derivatives;Subclass: Amino acids
INCHIKEY:  CKLJMWTZIZZHCS-UHFFFAOYNA-N
SMILES:  NC(CC(O)=O)C(O)=O
RETENTIONTIME:  
CCS:  122.7851273
IONMODE:  Negative
INSTRUMENTTYPE:  
INSTRUMENT:  Q-Exactive Plus
COLLISIONENERGY:  
Comment:  DB#=CCMSLIB00000578133; origin=GNPS
Num Peaks:  7
71.0124	130.0
72.00765	20.0
88.03895	1000.0
89.04237	20.0
114.01831	50.0
115.00237	280.0
132.02901	460.0

NAME:  2'-DEOXYCYTIDINE 5'-MONOPHOSPHATE
PRECURSORMZ:  306.04966034883
PRECURSORTYPE:  [M-H]-
FORMULA:  C9H14N3O7P
Ontology: Kingdom: Organic compounds;Superclass: Nucleosides;Class: Pyrimidine nucleotides;Subclass: Pyrimidine deoxyribonucleotides
INCHIKEY:  NCMVOABPESMRCP-UHFFFAOYNA-N
SMILES:  NC1=NC(=O)N(C=C1)C1CC(O)C(COP(O)(O)=O)O1
RETENTIONTIME:  
CCS:  162.5352906
IONMODE:  Negative
INSTRUMENTTYPE:  
INSTRUMENT:  Q-Exactive Plus
COLLISIONENERGY:  
Comment:  DB#=CCMSLIB00000578134; origin=GNPS
Num Peaks:  8
78.95759	1000.0
96.96819	430.0
110.0346	210.0
119.01565	20.0
176.99495	130.0
195.0058	330.0
263.04395	20.0
306.04996	120.0

NAME:  HYPOXANTHINE
PRECURSORMZ:  135.03123431283
PRECURSORTYPE:  [M-H]-
FORMULA:  C5H4N4O
Ontology: Kingdom: Organic compounds;Superclass: Organoheterocyclic compounds;Class: Imidazopyrimidines;Subclass: Purines and purine derivatives
INCHIKEY:  FDGQSTZJBFJUBT-UHFFFAOYSA-N
SMILES:  O=C1N=CNC2=C1NC=N2
RETENTIONTIME:  
CCS:  121.5287366
IONMODE:  Negative
INSTRUMENTTYPE:  
INSTRUMENT:  Q-Exactive Plus
COLLISIONENERGY:  
Comment:  DB#=CCMSLIB00000578135; origin=GNPS
Num Peaks:  6
65.01302	10.0
92.02399	610.0
93.02721	10.0
135.03009	1000.0
135.96953	10.0
136.03436	30.0

NAME:  CREATINE
PRECURSORMZ:  130.06220008983
PRECURSORTYPE:  [M-H]-
FORMULA:  C4H9N3O2
Ontology: Kingdom: Organic compounds;Superclass: Organic acids and derivatives;Class: Carboxylic acids and derivatives;Subclass: Amino acids
INCHIKEY:  CVSVTCORWBXHQV-UHFFFAOYSA-N
SMILES:  CN(CC(O)=O)C(N)=N
RETENTIONTIME:  
CCS:  125.5637216
IONMODE:  Negative
INSTRUMENTTYPE:  
INSTRUMENT:  Q-Exactive Plus
COLLISIONENERGY:  
Comment:  DB#=CCMSLIB00000578136; origin=GNPS
Num Peaks:  21
61.41488	10.0
61.99678	10.0
72.15849	30.0
72.16206	20.0
84.4026	10.0
85.06445	50.0
88.03895	1000.0
88.17062	10.0
89.04193	20.0
93.15043	10.0
123.41696	10.0
124.10184	10.0
129.09094	310.0
130.04146	10.0
130.08601	20.0
130.09448	80.0
130.99103	20.0
131.03441	10.0
131.06998	10.0
131.99426	10.0
133.89799	10.0

NAME:  3,4-DIHYDROXY-L-PHENYLALANINE
PRECURSORMZ:  196.06153138583
PRECURSORTYPE:  [M-H]-
FORMULA:  C9H11NO4
Ontology: ;
INCHIKEY:  WTDRDQBEARUVNC-UHFFFAOYNA-N
SMILES:  NC(CC1=CC(O)=C(O)C=C1)C(O)=O
RETENTIONTIME:  
CCS:  141.1849616
IONMODE:  Negative
INSTRUMENTTYPE:  
INSTRUMENT:  Q-Exactive Plus
COLLISIONENERGY:  
Comment:  DB#=CCMSLIB00000578137; origin=GNPS
Num Peaks:  24
72.0076	210.0
74.02326	80.0
91.05371	10.0
107.0489	30.0
109.02814	180.0
121.02828	20.0
122.03607	240.0
123.04429	70.0
124.0154	20.0
130.99107	20.0
131.99477	10.0
134.05988	60.0
135.04399	1000.0
136.04736	50.0
137.02324	40.0
150.0549	40.0
152.07072	40.0
154.02612	30.0
178.98338	20.0
179.03416	430.0
180.03763	20.0
195.90547	20.0
196.06088	490.0
197.06418	20.0

NAME:  GUANOSINE
PRECURSORMZ:  282.08439208683
PRECURSORTYPE:  [M-H]-
FORMULA:  C10H13N5O5
Ontology: Kingdom: Organic compounds;Superclass: Nucleosides;Class: Purine nucleosides;
INCHIKEY:  NYHBQMYGNKIUIF-UHFFFAOYNA-N
SMILES:  NC1=NC(=O)C2=C(N1)N(C=N2)C1OC(CO)C(O)C1O
RETENTIONTIME:  
CCS:  161.5378727
IONMODE:  Negative
INSTRUMENTTYPE:  
INSTRUMENT:  Q-Exactive Plus
COLLISIONENERGY:  
Comment:  DB#=CCMSLIB00000578138; origin=GNPS
Num Peaks:  4
133.01436	50.0
150.04106	1000.0
151.04562	20.0
282.08456	110.0

NAME:  5,6-DIHYDROURACIL
PRECURSORMZ:  113.03565098883
PRECURSORTYPE:  [M-H]-
FORMULA:  C4H6N2O2
Ontology: Kingdom: Organic compounds;Superclass: Organoheterocyclic compounds;Class: Diazines;Subclass: Pyrimidines and pyrimidine derivatives
INCHIKEY:  OIVLITBTBDPEFK-UHFFFAOYSA-N
SMILES:  O=C1CCNC(=O)N1
RETENTIONTIME:  
CCS:  119.2671538
IONMODE:  Negative
INSTRUMENTTYPE:  
INSTRUMENT:  Q-Exactive Plus
COLLISIONENERGY:  
Comment:  DB#=CCMSLIB00000578139; origin=GNPS
Num Peaks:  10
68.99426	1000.0
112.0155	70.0
112.02208	550.0
112.05025	370.0
112.9843	60.0
113.02306	210.0
113.03399	10.0
113.05357	30.0
113.06017	10.0
114.01833	10.0

NAME:  L-LYSINE
PRECURSORMZ:  145.09825124683
PRECURSORTYPE:  [M-H]-
FORMULA:  C6H14N2O2
Ontology: Kingdom: Organic compounds;Superclass: Organic acids and derivatives;Class: Carboxylic acids and derivatives;Subclass: Amino acids
INCHIKEY:  KDXKERNSBIXSRK-UHFFFAOYNA-N
SMILES:  NCCCCC(N)C(O)=O
RETENTIONTIME:  
CCS:  128.9714549
IONMODE:  Negative
INSTRUMENTTYPE:  
INSTRUMENT:  Q-Exactive Plus
COLLISIONENERGY:  
Comment:  DB#=CCMSLIB00000578141; origin=GNPS
Num Peaks:  4
97.07558	10.0
145.09715	800.0
146.02365	1000.0
146.1006	40.0

NAME:  L-ASPARAGINE
PRECURSORMZ:  131.04621567383
PRECURSORTYPE:  [M-H]-
FORMULA:  C4H8N2O3
Ontology: Kingdom: Organic compounds;Superclass: Organic acids and derivatives;Class: Carboxylic acids and derivatives;Subclass: Amino acids
INCHIKEY:  DCXYFEDJOCDNAF-UHFFFAOYNA-N
SMILES:  NC(CC(N)=O)C(O)=O
RETENTIONTIME:  
CCS:  122.4414625
IONMODE:  Negative
INSTRUMENTTYPE:  
INSTRUMENT:  Q-Exactive Plus
COLLISIONENERGY:  
Comment:  DB#=CCMSLIB00000578143; origin=GNPS
Num Peaks:  14
58.0284	50.0
70.02835	400.0
71.01239	20.0
71.02359	120.0
72.00762	130.0
72.03979	20.0
95.02367	210.0
111.01875	60.0
113.03433	680.0
114.01837	1000.0
115.02197	20.0
130.99139	40.0
131.04503	320.0
132.0486	10.0

NAME:  L-VALINE
PRECURSORMZ:  116.07170214583
PRECURSORTYPE:  [M-H]-
FORMULA:  C5H11NO2
Ontology: Kingdom: Organic compounds;Superclass: Organic acids and derivatives;Class: Carboxylic acids and derivatives;Subclass: Amino acids
INCHIKEY:  KZSNJWFQEVHDMF-UHFFFAOYNA-N
SMILES:  CC(C)C(N)C(O)=O
RETENTIONTIME:  
CCS:  126.2682803
IONMODE:  Negative
INSTRUMENTTYPE:  
INSTRUMENT:  Q-Exactive Plus
COLLISIONENERGY:  
Comment:  DB#=CCMSLIB00000578144; origin=GNPS
Num Peaks:  4
115.07503	10.0
116.07042	1000.0
116.92724	50.0
117.07381	30.0

NAME:  GUANINE
PRECURSORMZ:  150.04213334883
PRECURSORTYPE:  [M-H]-
FORMULA:  C5H5N5O
Ontology: Kingdom: Organic compounds;Superclass: Organoheterocyclic compounds;Class: Imidazopyrimidines;Subclass: Purines and purine derivatives
INCHIKEY:  UYTPUPDQBNUYGX-UHFFFAOYSA-N
SMILES:  NC1=NC(=O)C2=C(N1)N=CN2
RETENTIONTIME:  
CCS:  126.3124371
IONMODE:  Negative
INSTRUMENTTYPE:  
INSTRUMENT:  Q-Exactive Plus
COLLISIONENERGY:  
Comment:  DB#=CCMSLIB00000578145; origin=GNPS
Num Peaks:  8
107.0362	10.0
110.05987	10.0
121.05209	40.0
122.05992	270.0
135.03143	20.0
150.00096	60.0
150.05507	1000.0
151.05859	40.0

NAME:  HOMOSERINE
PRECURSORMZ:  118.05096670183
PRECURSORTYPE:  [M-H]-
FORMULA:  C4H9NO3
Ontology: Kingdom: Organic compounds;Superclass: Organic acids and derivatives;Class: Carboxylic acids and derivatives;Subclass: Amino acids
INCHIKEY:  UKAUYVFTDYCKQA-UHFFFAOYNA-N
SMILES:  NC(CCO)C(O)=O
RETENTIONTIME:  
CCS:  122.1664861
IONMODE:  Negative
INSTRUMENTTYPE:  
INSTRUMENT:  Q-Exactive Plus
COLLISIONENERGY:  
Comment:  DB#=CCMSLIB00000578146; origin=GNPS
Num Peaks:  15
55.01749	40.0
70.02848	20.0
72.00751	20.0
72.04401	210.0
88.03885	20.0
98.02341	540.0
99.00741	220.0
100.03905	80.0
116.03407	80.0
117.92749	20.0
118.04047	50.0
118.04971	1000.0
118.91695	20.0
119.01565	30.0
119.05301	20.0

NAME:  PYRIDOXINE
PRECURSORMZ:  168.06661676583
PRECURSORTYPE:  [M-H]-
FORMULA:  C8H11NO3
Ontology: Kingdom: Organic compounds;Superclass: Organoheterocyclic compounds;Class: Pyridines and derivatives;Subclass: Pyridoxines
INCHIKEY:  LXNHXLLTXMVWPM-UHFFFAOYSA-N
SMILES:  CC1=NC=C(CO)C(CO)=C1O
RETENTIONTIME:  
CCS:  134.5632292
IONMODE:  Negative
INSTRUMENTTYPE:  
INSTRUMENT:  Q-Exactive Plus
COLLISIONENERGY:  
Comment:  DB#=CCMSLIB00000578147; origin=GNPS
Num Peaks:  13
107.03622	10.0
108.04408	50.0
121.05199	40.0
122.05989	310.0
123.06339	10.0
135.0314	20.0
138.05487	150.0
150.05502	1000.0
151.05847	50.0
166.05005	260.0
167.05357	20.0
168.06572	340.0
169.06929	10.0

NAME:  DAMP
PRECURSORMZ:  330.06089373683
PRECURSORTYPE:  [M-H]-
FORMULA:  C10H14N5O6P
Ontology: Kingdom: Organic compounds;Superclass: Nucleosides;Class: Purine nucleotides;Subclass: Purine deoxyribonucleotides
INCHIKEY:  KHWCHTKSEGGWEX-UHFFFAOYNA-N
SMILES:  NC1=NC=NC2=C1N=CN2C1CC(O)C(COP(O)(O)=O)O1
RETENTIONTIME:  
CCS:  168.2815969
IONMODE:  Negative
INSTRUMENTTYPE:  
INSTRUMENT:  Q-Exactive Plus
COLLISIONENERGY:  
Comment:  DB#=CCMSLIB00000578148; origin=GNPS
Num Peaks:  7
78.95756	1000.0
96.96819	270.0
134.04608	530.0
150.97903	10.0
176.99501	180.0
195.0058	420.0
330.06116	90.0

NAME:  (R,R)-TARTARIC ACID
PRECURSORMZ:  149.00916146083
PRECURSORTYPE:  [M-H]-
FORMULA:  C4H6O6
Ontology: Kingdom: Organic compounds;Superclass: Organic oxygen compounds;Class: Organooxygen compounds;Subclass: Carbohydrates and carbohydrate conjugates
INCHIKEY:  FEWJPZIEWOKRBE-UHFFFAOYNA-N
SMILES:  OC(C(O)C(O)=O)C(O)=O
RETENTIONTIME:  
CCS:  122.508185
IONMODE:  Negative
INSTRUMENTTYPE:  
INSTRUMENT:  Q-Exactive Plus
COLLISIONENERGY:  
Comment:  DB#=CCMSLIB00000578149; origin=GNPS
Num Peaks:  11
59.01236	290.0
72.66679	10.0
72.99161	550.0
75.00703	40.0
87.00729	960.0
103.0023	120.0
105.01795	80.0
130.9973	40.0
149.00809	1000.0
150.00055	20.0
150.01193	30.0

NAME:  FOLIC ACID
PRECURSORMZ:  440.13240490783
PRECURSORTYPE:  [M-H]-
FORMULA:  C19H19N7O6
Ontology: Kingdom: Organic compounds;Superclass: Organoheterocyclic compounds;Class: Pteridines and derivatives;Subclass: Pterins and derivatives
INCHIKEY:  OVBPIULPVIDEAO-UHFFFAOYNA-N
SMILES:  NC1=NC(=O)C2=NC(CNC3=CC=C(C=C3)C(=O)NC(CCC(O)=O)C(O)=O)=CN=C2N1
RETENTIONTIME:  
CCS:  194.849157
IONMODE:  Negative
INSTRUMENTTYPE:  
INSTRUMENT:  Q-Exactive Plus
COLLISIONENERGY:  
Comment:  DB#=CCMSLIB00000578150; origin=GNPS
Num Peaks:  40
58.71967	20.0
61.98685	40.0
65.86018	10.0
77.36694	20.0
82.18929	20.0
91.43485	20.0
99.77956	20.0
119.01574	30.0
128.0341	230.0
132.04308	20.0
135.0551	40.0
136.03877	40.0
146.04515	70.0
162.04138	40.0
174.04161	30.0
175.04903	370.0
176.05672	40.0
203.08255	20.0
207.03954	30.0
220.08406	20.0
221.09184	170.0
265.08221	40.0
267.10001	80.0
268.08374	30.0
293.07983	290.0
311.09009	1000.0
312.09427	90.0
334.14273	70.0
335.12823	40.0
352.15656	30.0
353.13809	170.0
358.87961	30.0
378.13208	170.0
396.14362	660.0
397.14346	110.0
402.31287	20.0
422.1221	80.0
440.13281	440.0
441.13104	30.0
446.46902	20.0

NAME:  ISOCITRIC ACID
PRECURSORMZ:  191.01972614583
PRECURSORTYPE:  [M-H]-
FORMULA:  C6H8O7
Ontology: ;;;
INCHIKEY:  ODBLHEXUDAPZAU-UHFFFAOYNA-N
SMILES:  OC(C(CC(O)=O)C(O)=O)C(O)=O
RETENTIONTIME:  
CCS:  132.7376313
IONMODE:  Negative
INSTRUMENTTYPE:  
INSTRUMENT:  Q-Exactive Plus
COLLISIONENERGY:  
Comment:  DB#=CCMSLIB00000578151; origin=GNPS
Num Peaks:  14
72.9916	150.0
73.02799	110.0
85.02803	370.0
86.03139	10.0
99.00731	20.0
101.02293	30.0
103.0387	10.0
111.00743	1000.0
112.01076	30.0
117.01801	260.0
129.0181	140.0
154.99756	230.0
173.00827	290.0
191.01898	180.0

NAME:  3-AMINOISOBUTANOATE
PRECURSORMZ:  102.05605208183
PRECURSORTYPE:  [M-H]-
FORMULA:  C4H9NO2
Ontology: Kingdom: Organic compounds;Superclass: Organic acids and derivatives;Class: Carboxylic acids and derivatives;Subclass: Amino acids
INCHIKEY:  QCHPKSFMDHPSNR-UHFFFAOYNA-N
SMILES:  CC(CN)C(O)=O
RETENTIONTIME:  
CCS:  124.7120496
IONMODE:  Negative
INSTRUMENTTYPE:  
INSTRUMENT:  Q-Exactive Plus
COLLISIONENERGY:  
Comment:  DB#=CCMSLIB00000578152; origin=GNPS
Num Peaks:  6
73.02805	650.0
74.03143	10.0
85.02831	20.0
101.05939	130.0
102.05468	1000.0
103.05778	20.0

NAME:  CREATININE
PRECURSORMZ:  112.05163540483
PRECURSORTYPE:  [M-H]-
FORMULA:  C4H7N3O
Ontology: Kingdom: Organic compounds;Superclass: Organic acids and derivatives;Class: Carboxylic acids and derivatives;Subclass: Amino acids
INCHIKEY:  DDRJAANPRJIHGJ-UHFFFAOYSA-N
SMILES:  CN1CC(=O)N=C1N
RETENTIONTIME:  
CCS:  119.0066602
IONMODE:  Negative
INSTRUMENTTYPE:  
INSTRUMENT:  Q-Exactive Plus
COLLISIONENERGY:  
Comment:  DB#=CCMSLIB00000578153; origin=GNPS
Num Peaks:  2
112.05029	1000.0
113.05373	20.0

NAME:  D-GLUCOSE-6-PHOSPHATE
PRECURSORMZ:  259.02244254483
PRECURSORTYPE:  [M-H]-
FORMULA:  C6H13O9P
Ontology: Kingdom: Organic compounds;Superclass: Organic oxygen compounds;Class: Organooxygen compounds;Subclass: Carbohydrates and carbohydrate conjugates
INCHIKEY:  NBSCHQHZLSJFNQ-UHFFFAOYNA-N
SMILES:  OC1OC(COP(O)(O)=O)C(O)C(O)C1O
RETENTIONTIME:  
CCS:  147.1625908
IONMODE:  Negative
INSTRUMENTTYPE:  
INSTRUMENT:  Q-Exactive Plus
COLLISIONENERGY:  
Comment:  DB#=CCMSLIB00000578155; origin=GNPS
Num Peaks:  6
78.95757	250.0
96.96817	1000.0
138.97897	70.0
168.98981	20.0
199.00072	20.0
259.02222	10.0

NAME:  LL-2,6-DIAMINOHEPTANEDIOATE
PRECURSORMZ:  189.08808048683
PRECURSORTYPE:  [M-H]-
FORMULA:  C7H14N2O4
Ontology: Kingdom: Organic compounds;Superclass: Organic acids and derivatives;Class: Carboxylic acids and derivatives;Subclass: Amino acids
INCHIKEY:  GMKMEZVLHJARHF-UHFFFAOYNA-N
SMILES:  NC(CCCC(N)C(O)=O)C(O)=O
RETENTIONTIME:  
CCS:  136.6044161
IONMODE:  Negative
INSTRUMENTTYPE:  
INSTRUMENT:  Q-Exactive Plus
COLLISIONENERGY:  
Comment:  DB#=CCMSLIB00000578156; origin=GNPS
Num Peaks:  17
72.00763	70.0
72.04396	10.0
74.02322	20.0
109.07578	10.0
110.05981	20.0
111.04385	120.0
125.07072	20.0
126.05484	80.0
127.08647	80.0
128.07053	650.0
129.07399	20.0
145.09717	50.0
171.07668	230.0
172.06082	40.0
189.02202	50.0
189.08749	1000.0
190.09106	40.0

NAME:  ALPHA-AMINOADIPATE
PRECURSORMZ:  160.06153138583
PRECURSORTYPE:  [M-H]-
FORMULA:  C6H11NO4
Ontology: Kingdom: Organic compounds;Superclass: Organic acids and derivatives;Class: Carboxylic acids and derivatives;Subclass: Amino acids
INCHIKEY:  OYIFNHCXNCRBQI-UHFFFAOYNA-N
SMILES:  NC(CCCC(O)=O)C(O)=O
RETENTIONTIME:  
CCS:  130.9736797
IONMODE:  Negative
INSTRUMENTTYPE:  
INSTRUMENT:  Q-Exactive Plus
COLLISIONENERGY:  
Comment:  DB#=CCMSLIB00000578157; origin=GNPS
Num Peaks:  10
71.13622	20.0
96.0441	130.0
98.05975	220.0
114.05482	30.0
116.07043	960.0
117.07379	30.0
142.0499	870.0
143.05347	30.0
160.06059	1000.0
161.06407	40.0

NAME:  DEOXYCYTIDINE
PRECURSORMZ:  226.08332945883
PRECURSORTYPE:  [M-H]-
FORMULA:  C9H13N3O4
Ontology: Kingdom: Organic compounds;Superclass: Nucleosides;Class: Pyrimidine nucleosides;Subclass: Pyrimidine 
INCHIKEY:  CKTSBUTUHBMZGZ-UHFFFAOYNA-N
SMILES:  NC1=NC(=O)N(C=C1)C1CC(O)C(CO)O1
RETENTIONTIME:  
CCS:  150.26497
IONMODE:  Negative
INSTRUMENTTYPE:  
INSTRUMENT:  Q-Exactive Plus
COLLISIONENERGY:  
Comment:  DB#=CCMSLIB00000578158; origin=GNPS
Num Peaks:  7
66.03342	50.0
93.0444	1000.0
94.04752	20.0
110.03465	20.0
135.05521	120.0
136.05022	20.0
226.08333	20.0

NAME:  D-GLUCOSAMINE 6-PHOSPHATE
PRECURSORMZ:  258.03842696083
PRECURSORTYPE:  [M-H]-
FORMULA:  C6H14NO8P
Ontology: Kingdom: Organic compounds;Superclass: Organic oxygen compounds;Class: Organooxygen compounds;Subclass: Carbohydrates and carbohydrate conjugates
INCHIKEY:  XHMJOUIAFHJHBW-UHFFFAOYNA-N
SMILES:  NC1C(O)OC(COP(O)(O)=O)C(O)C1O
RETENTIONTIME:  
CCS:  147.7582167
IONMODE:  Negative
INSTRUMENTTYPE:  
INSTRUMENT:  Q-Exactive Plus
COLLISIONENERGY:  
Comment:  DB#=CCMSLIB00000578159; origin=GNPS
Num Peaks:  7
78.95761	350.0
96.96825	1000.0
138.9791	60.0
175.0424	10.0
199.00073	60.0
240.02786	50.0
258.03867	40.0

NAME:  (S,S)-TARTARIC ACID
PRECURSORMZ:  149.00916146083
PRECURSORTYPE:  [M-H]-
FORMULA:  C4H6O6
Ontology: Kingdom: Organic compounds;Superclass: Organic oxygen compounds;Class: Organooxygen compounds;Subclass: Carbohydrates and carbohydrate conjugates
INCHIKEY:  FEWJPZIEWOKRBE-UHFFFAOYNA-N
SMILES:  OC(C(O)C(O)=O)C(O)=O
RETENTIONTIME:  
CCS:  122.508185
IONMODE:  Negative
INSTRUMENTTYPE:  
INSTRUMENT:  Q-Exactive Plus
COLLISIONENERGY:  
Comment:  DB#=CCMSLIB00000578160; origin=GNPS
Num Peaks:  12
59.0124	270.0
71.63422	20.0
72.99162	560.0
75.00726	50.0
87.00732	980.0
88.01055	20.0
103.0023	140.0
105.01791	80.0
130.99739	40.0
149.0081	1000.0
150.00209	20.0
150.01035	30.0

NAME:  3-DEHYDROSHIKIMATE
PRECURSORMZ:  171.02989690583
PRECURSORTYPE:  [M-H]-
FORMULA:  C7H8O5
Ontology: Kingdom: Organic compounds;Superclass: Organic oxygen compounds;Class: Organooxygen compounds;Subclass: Carbonyl compounds
INCHIKEY:  SLWWJZMPHJJOPH-UHFFFAOYNA-N
SMILES:  OC1CC(=CC(=O)C1O)C(O)=O
RETENTIONTIME:  
CCS:  131.0720611
IONMODE:  Negative
INSTRUMENTTYPE:  
INSTRUMENT:  Q-Exactive Plus
COLLISIONENERGY:  
Comment:  DB#=CCMSLIB00000578161; origin=GNPS
Num Peaks:  14
59.01237	10.0
65.03819	40.0
67.01745	10.0
69.03308	40.0
71.01236	40.0
81.0331	120.0
99.04379	20.0
108.02032	20.0
109.02818	650.0
110.03153	20.0
111.00741	20.0
127.03886	1000.0
128.04228	40.0
171.02901	160.0

NAME:  THEOPHYLLINE
PRECURSORMZ:  179.05744906183
PRECURSORTYPE:  [M-H]-
FORMULA:  C7H8N4O2
Ontology: Kingdom: Organic compounds;Superclass: Organoheterocyclic compounds;Class: Imidazopyrimidines;Subclass: Purines and purine derivatives
INCHIKEY:  ZFXYFBGIUFBOJW-UHFFFAOYSA-N
SMILES:  CN1C2=C(NC=N2)C(=O)N(C)C1=O
RETENTIONTIME:  
CCS:  135.6412259
IONMODE:  Negative
INSTRUMENTTYPE:  
INSTRUMENT:  Q-Exactive Plus
COLLISIONENERGY:  
Comment:  DB#=CCMSLIB00000578162; origin=GNPS
Num Peaks:  4
122.03471	40.0
164.03305	110.0
179.05672	1000.0
180.06061	40.0

NAME:  LEUCINE
PRECURSORMZ:  130.08735221083
PRECURSORTYPE:  [M-H]-
FORMULA:  C6H13NO2
Ontology: Kingdom: Organic compounds;Superclass: Organic acids and derivatives;Class: Carboxylic acids and derivatives;Subclass: Amino acids
INCHIKEY:  ROHFNLRQFUQHCH-UHFFFAOYNA-N
SMILES:  CC(C)CC(N)C(O)=O
RETENTIONTIME:  
CCS:  130.0300381
IONMODE:  Negative
INSTRUMENTTYPE:  
INSTRUMENT:  Q-Exactive Plus
COLLISIONENERGY:  
Comment:  DB#=CCMSLIB00000578163; origin=GNPS
Num Peaks:  3
84.08041	10.0
130.0862	1000.0
131.08958	40.0

NAME:  3-SULFINO-L-ALANINE
PRECURSORMZ:  152.00230243083
PRECURSORTYPE:  [M-H]-
FORMULA:  C3H7NO4S
Ontology: Kingdom: Organic compounds;Superclass: Organic acids and derivatives;Class: Carboxylic acids and derivatives;Subclass: Amino acids
INCHIKEY:  ADVPTQAUNPRNPO-UHFFFAOYNA-N
SMILES:  NC(CS(O)=O)C(O)=O
RETENTIONTIME:  
CCS:  125.9667696
IONMODE:  Negative
INSTRUMENTTYPE:  
INSTRUMENT:  Q-Exactive Plus
COLLISIONENERGY:  
Comment:  DB#=CCMSLIB00000578166; origin=GNPS
Num Peaks:  4
88.03899	1000.0
89.04214	10.0
109.02821	20.0
152.00127	50.0

NAME:  ALLANTOIN
PRECURSORMZ:  157.03671361683
PRECURSORTYPE:  [M-H]-
FORMULA:  C4H6N4O3
Ontology: Kingdom: Organic compounds;Superclass: Organoheterocyclic compounds;Class: Azoles;Subclass: Imidazoles
INCHIKEY:  POJWUDADGALRAB-UHFFFAOYNA-N
SMILES:  NC(=O)NC1NC(=O)NC1=O
RETENTIONTIME:  
CCS:  127.4549827
IONMODE:  Negative
INSTRUMENTTYPE:  
INSTRUMENT:  Q-Exactive Plus
COLLISIONENERGY:  
Comment:  DB#=CCMSLIB00000578167; origin=GNPS
Num Peaks:  10
59.02358	30.0
71.02359	100.0
72.00756	10.0
97.00297	1000.0
98.00623	20.0
114.02961	890.0
115.03329	20.0
140.00911	50.0
157.03577	130.0
157.12248	280.0

NAME:  GLYCERALDEHYDE
PRECURSORMZ:  89.02441760083
PRECURSORTYPE:  [M-H]-
FORMULA:  C3H6O3
Ontology: Kingdom: Organic compounds;Superclass: Organic oxygen compounds;Class: Organooxygen compounds;Subclass: Carbohydrates and carbohydrate conjugates
INCHIKEY:  MNQZXJOMYWMBOU-UHFFFAOYNA-N
SMILES:  OCC(O)C=O
RETENTIONTIME:  
CCS:  123.2145006
IONMODE:  Negative
INSTRUMENTTYPE:  
INSTRUMENT:  Q-Exactive Plus
COLLISIONENERGY:  
Comment:  DB#=CCMSLIB00000578168; origin=GNPS
Num Peaks:  7
59.01229	30.0
71.01241	40.0
87.00744	20.0
88.04701	10.0
88.94508	40.0
89.02299	1000.0
90.00834	260.0

NAME:  (2-AMINOETHYL)PHOSPHONATE
PRECURSORMZ:  124.01690366783
PRECURSORTYPE:  [M-H]-
FORMULA:  C2H8NO3P
Ontology: Kingdom: Organic compounds;Superclass: Organic acids and derivatives;Class: Organic phosphonic acids and derivatives;Subclass: Organic phosphonic acids
INCHIKEY:  QQVDJLLNRSOCEL-UHFFFAOYSA-N
SMILES:  NCCP(O)(O)=O
RETENTIONTIME:  
CCS:  123.9824609
IONMODE:  Negative
INSTRUMENTTYPE:  
INSTRUMENT:  Q-Exactive Plus
COLLISIONENERGY:  
Comment:  DB#=CCMSLIB00000578169; origin=GNPS
Num Peaks:  16
72.7914	10.0
72.79478	10.0
78.95763	630.0
81.033	10.0
94.02832	10.0
94.98906	50.0
95.97479	20.0
106.98918	70.0
123.00771	20.0
123.03307	20.0
123.05502	90.0
123.96968	10.0
124.01566	1000.0
124.03901	20.0
124.99046	20.0
125.09592	10.0

NAME:  PARAXANTHINE
PRECURSORMZ:  179.05744906183
PRECURSORTYPE:  [M-H]-
FORMULA:  C7H8N4O2
Ontology: Kingdom: Organic compounds;Superclass: Organoheterocyclic compounds;Class: Imidazopyrimidines;Subclass: Purines and purine derivatives
INCHIKEY:  QUNWUDVFRNGTCO-UHFFFAOYSA-N
SMILES:  CN1C=NC2=C1C(=O)N(C)C(=O)N2
RETENTIONTIME:  
CCS:  136.8254768
IONMODE:  Negative
INSTRUMENTTYPE:  
INSTRUMENT:  Q-Exactive Plus
COLLISIONENERGY:  
Comment:  DB#=CCMSLIB00000578170; origin=GNPS
Num Peaks:  7
58.02839	20.0
96.05535	30.0
122.03476	250.0
164.0331	180.0
166.02492	20.0
179.05679	1000.0
180.06052	40.0

NAME:  ADENOSINE 5'-DIPHOSPHATE
PRECURSORMZ:  426.02213924683
PRECURSORTYPE:  [M-H]-
FORMULA:  C10H15N5O10P2
Ontology: Kingdom: Organic compounds;Superclass: Nucleosides;Class: Purine nucleotides;Subclass: Purine ribonucleotides
INCHIKEY:  XTWYTFMLZFPYCI-UHFFFAOYNA-N
SMILES:  NC1=NC=NC2=C1N=CN2C1OC(COP(O)(=O)OP(O)(O)=O)C(O)C1O
RETENTIONTIME:  
CCS:  180.3061453
IONMODE:  Negative
INSTRUMENTTYPE:  
INSTRUMENT:  Q-Exactive Plus
COLLISIONENERGY:  
Comment:  DB#=CCMSLIB00000578171; origin=GNPS
Num Peaks:  11
78.95766	1000.0
96.96829	30.0
134.04613	510.0
158.92453	690.0
174.97943	20.0
192.99055	10.0
272.95761	130.0
328.04587	90.0
346.05618	30.0
408.01202	100.0
426.02347	60.0

NAME:  2-DEOXY-D-GLUCOSE
PRECURSORMZ:  163.06119703383
PRECURSORTYPE:  [M-H]-
FORMULA:  C6H12O5
Ontology: Kingdom: Organic compounds;Superclass: Lipids and lipid;Class: Fatty Acyls;Subclass: Fatty alcohols
INCHIKEY:  VRYALKFFQXWPIH-UHFFFAOYNA-N
SMILES:  OCC(O)C(O)C(O)CC=O
RETENTIONTIME:  
CCS:  136.3691684
IONMODE:  Negative
INSTRUMENTTYPE:  
INSTRUMENT:  Q-Exactive Plus
COLLISIONENERGY:  
Comment:  DB#=CCMSLIB00000578172; origin=GNPS
Num Peaks:  32
55.01741	30.0
56.9944	40.0
57.03314	70.0
59.01241	400.0
71.01241	340.0
72.56291	20.0
73.02805	100.0
83.01246	20.0
85.02806	440.0
89.02304	90.0
91.0387	30.0
93.03326	10.0
97.02807	50.0
101.02306	860.0
102.02635	20.0
103.03889	10.0
113.02313	80.0
118.99127	70.0
119.04885	20.0
122.96615	30.0
131.03432	40.0
135.04402	130.0
140.97681	20.0
145.04965	10.0
161.04492	40.0
162.95255	140.0
163.00235	20.0
163.03986	190.0
163.06038	1000.0
163.11192	510.0
164.06398	30.0
164.11552	20.0

NAME:  N(PAI)-METHYL-L-HISTIDINE
PRECURSORMZ:  168.07785015383
PRECURSORTYPE:  [M-H]-
FORMULA:  C7H11N3O2
Ontology: Kingdom: Organic compounds;Superclass: Organic acids and derivatives;Class: Carboxylic acids and derivatives;Subclass: Amino acids
INCHIKEY:  BRMWTNUJHUMWMS-UHFFFAOYNA-N
SMILES:  CN1C=NC(CC(N)C(O)=O)=C1
RETENTIONTIME:  
CCS:  141.7709283
IONMODE:  Negative
INSTRUMENTTYPE:  
INSTRUMENT:  Q-Exactive Plus
COLLISIONENERGY:  
Comment:  DB#=CCMSLIB00000578173; origin=GNPS
Num Peaks:  8
72.00764	50.0
83.01244	20.0
107.06018	20.0
150.06607	10.0
151.05026	260.0
153.00594	10.0
168.07701	1000.0
169.08061	40.0

NAME:  GALACTITOL
PRECURSORMZ:  181.07176171883
PRECURSORTYPE:  [M-H]-
FORMULA:  C6H14O6
Ontology: Kingdom: Organic compounds;Superclass: Organic oxygen compounds;Class: Organooxygen compounds;Subclass: Carbohydrates and carbohydrate conjugates
INCHIKEY:  FBPFZTCFMRRESA-UHFFFAOYNA-N
SMILES:  OCC(O)C(O)C(O)C(O)CO
RETENTIONTIME:  
CCS:  132.9250301
IONMODE:  Negative
INSTRUMENTTYPE:  
INSTRUMENT:  Q-Exactive Plus
COLLISIONENERGY:  
Comment:  DB#=CCMSLIB00000578174; origin=GNPS
Num Peaks:  22
55.01752	20.0
57.03318	20.0
59.01245	360.0
71.01245	420.0
73.02809	100.0
83.01245	40.0
85.02808	90.0
89.02303	370.0
91.03873	10.0
97.02814	30.0
101.0231	1000.0
102.02644	20.0
113.02312	70.0
115.0388	20.0
119.03372	120.0
121.04924	10.0
131.03386	50.0
149.04436	20.0
161.04472	20.0
163.06029	180.0
181.07109	850.0
182.07437	30.0

NAME:  5-OXO-D-PROLINE
PRECURSORMZ:  128.03531663683
PRECURSORTYPE:  [M-H]-
FORMULA:  C5H7NO3
Ontology: Kingdom: Organic compounds;Superclass: Organic acids and derivatives;Class: Carboxylic acids and derivatives;Subclass: Amino acids
INCHIKEY:  ODHCTXKNWHHXJC-UHFFFAOYNA-N
SMILES:  OC(=O)C1CCC(=O)N1
RETENTIONTIME:  
CCS:  122.2122266
IONMODE:  Negative
INSTRUMENTTYPE:  
INSTRUMENT:  Q-Exactive Plus
COLLISIONENERGY:  
Comment:  DB#=CCMSLIB00000578175; origin=GNPS
Num Peaks:  3
82.0285	10.0
128.03415	1000.0
129.03761	30.0

NAME:  4-PYRIDOXATE
PRECURSORMZ:  182.04588132183
PRECURSORTYPE:  [M-H]-
FORMULA:  C8H9NO4
Ontology: Kingdom: Organic compounds;Superclass: Organoheterocyclic compounds;Class: Pyridines and derivatives;Subclass: Pyridinecarboxylic acids and derivatives
INCHIKEY:  HXACOUQIXZGNBF-UHFFFAOYSA-N
SMILES:  CC1=NC=C(CO)C(C(O)=O)=C1O
RETENTIONTIME:  
CCS:  135.626139
IONMODE:  Negative
INSTRUMENTTYPE:  
INSTRUMENT:  Q-Exactive Plus
COLLISIONENERGY:  
Comment:  DB#=CCMSLIB00000578176; origin=GNPS
Num Peaks:  6
108.04417	200.0
120.04432	10.0
138.05496	1000.0
139.05843	40.0
182.04514	290.0
183.04872	20.0

NAME:  PYRIDINE-2,3-DICARBOXYLATE
PRECURSORMZ:  166.01458119283
PRECURSORTYPE:  [M-H]-
FORMULA:  C7H5NO4
Ontology: Kingdom: Organic compounds;Superclass: Organoheterocyclic compounds;Class: Pyridines and derivatives;Subclass: Pyridinecarboxylic acids and derivatives
INCHIKEY:  GJAWHXHKYYXBSV-UHFFFAOYSA-N
SMILES:  OC(=O)C1=C(N=CC=C1)C(O)=O
RETENTIONTIME:  
CCS:  127.7492283
IONMODE:  Negative
INSTRUMENTTYPE:  
INSTRUMENT:  Q-Exactive Plus
COLLISIONENERGY:  
Comment:  DB#=CCMSLIB00000578177; origin=GNPS
Num Peaks:  5
78.03338	20.0
94.0284	50.0
122.02353	1000.0
123.02695	30.0
166.01372	60.0

NAME:  D-GLUCURONIC ACID
PRECURSORMZ:  193.03537620983
PRECURSORTYPE:  [M-H]-
FORMULA:  C6H10O7
Ontology: Kingdom: Organic compounds;Superclass: Organic oxygen compounds;Class: Organooxygen compounds;Subclass: Carbohydrates and carbohydrate conjugates
INCHIKEY:  AEMOLEFTQBMNLQ-UHFFFAOYNA-N
SMILES:  OC1OC(C(O)C(O)C1O)C(O)=O
RETENTIONTIME:  
CCS:  132.9513007
IONMODE:  Negative
INSTRUMENTTYPE:  
INSTRUMENT:  Q-Exactive Plus
COLLISIONENERGY:  
Comment:  DB#=CCMSLIB00000578178; origin=GNPS
Num Peaks:  26
57.03316	50.0
59.0124	930.0
69.03327	20.0
71.01239	440.0
72.99165	920.0
73.02803	350.0
75.00734	20.0
83.01246	40.0
85.02809	560.0
86.03149	10.0
89.02302	200.0
95.01244	130.0
99.00729	40.0
101.02306	310.0
103.00235	220.0
113.02316	1000.0
114.02641	20.0
115.00211	10.0
129.01843	20.0
131.03384	120.0
133.01302	80.0
157.01364	40.0
163.02391	20.0
175.02376	20.0
175.04202	40.0
193.03464	120.0

NAME:  1-METHYLADENOSINE
PRECURSORMZ:  280.10512753083
PRECURSORTYPE:  [M-H]-
FORMULA:  C11H15N5O4
Ontology: Kingdom: Organic compounds;Superclass: Nucleosides;Class: Purine nucleosides;
INCHIKEY:  GFYLSDSUCHVORB-UHFFFAOYNA-N
SMILES:  CN1C=NC2=C(N=CN2C2OC(CO)C(O)C2O)C1=N
RETENTIONTIME:  
CCS:  164.408872
IONMODE:  Negative
INSTRUMENTTYPE:  
INSTRUMENT:  Q-Exactive Plus
COLLISIONENERGY:  
Comment:  DB#=CCMSLIB00000578179; origin=GNPS
Num Peaks:  3
148.06187	1000.0
149.06619	30.0
280.10544	20.0

NAME:  DEOXYURIDINE
PRECURSORMZ:  227.06734504183
PRECURSORTYPE:  [M-H]-
FORMULA:  C9H12N2O5
Ontology: Kingdom: Organic compounds;Superclass: Nucleosides;Class: Pyrimidine nucleosides;Subclass: Pyrimidine 
INCHIKEY:  MXHRCPNRJAMMIM-UHFFFAOYNA-N
SMILES:  OCC1OC(CC1O)N1C=CC(=O)NC1=O
RETENTIONTIME:  
CCS:  149.6603795
IONMODE:  Negative
INSTRUMENTTYPE:  
INSTRUMENT:  Q-Exactive Plus
COLLISIONENERGY:  
Comment:  DB#=CCMSLIB00000578180; origin=GNPS
Num Peaks:  14
66.03343	60.0
92.04894	10.0
94.02841	630.0
95.03171	10.0
108.04396	10.0
111.00758	20.0
111.01867	60.0
112.03902	40.0
136.03922	120.0
137.03433	30.0
184.06078	1000.0
185.06433	40.0
227.06726	110.0
227.20163	40.0

NAME:  TRANS-4-HYDROXYPROLINE
PRECURSORMZ:  130.05096670183
PRECURSORTYPE:  [M-H]-
FORMULA:  C5H9NO3
Ontology: Kingdom: Organic compounds;Superclass: Organic acids and derivatives;Class: Carboxylic acids and derivatives;Subclass: Amino acids
INCHIKEY:  PMMYEEVYMWASQN-UHFFFAOYNA-N
SMILES:  OC1CNC(C1)C(O)=O
RETENTIONTIME:  
CCS:  123.049502
IONMODE:  Negative
INSTRUMENTTYPE:  
INSTRUMENT:  Q-Exactive Plus
COLLISIONENERGY:  
Comment:  DB#=CCMSLIB00000578181; origin=GNPS
Num Peaks:  13
66.03344	20.0
68.0491	50.0
71.01241	50.0
73.02808	40.0
82.02843	20.0
84.04405	60.0
86.02336	20.0
112.03903	40.0
128.03412	370.0
129.03773	10.0
129.09079	10.0
130.0498	1000.0
131.05344	30.0

NAME:  UROCANATE
PRECURSORMZ:  137.03565098883
PRECURSORTYPE:  [M-H]-
FORMULA:  C6H6N2O2
Ontology: Kingdom: Organic compounds;Superclass: Organoheterocyclic compounds;Class: Azoles;Subclass: Imidazoles
INCHIKEY:  LOIYMIARKYCTBW-UHFFFAOYSA-N
SMILES:  OC(=O)C=CC1=CN=CN1
RETENTIONTIME:  
CCS:  125.2259457
IONMODE:  Negative
INSTRUMENTTYPE:  
INSTRUMENT:  Q-Exactive Plus
COLLISIONENERGY:  
Comment:  DB#=CCMSLIB00000578182; origin=GNPS
Num Peaks:  4
66.03342	10.0
93.04441	1000.0
94.04761	30.0
137.03448	160.0

NAME:  5-OXO-L-PROLINE
PRECURSORMZ:  128.03531663683
PRECURSORTYPE:  [M-H]-
FORMULA:  C5H7NO3
Ontology: Kingdom: Organic compounds;Superclass: Organic acids and derivatives;Class: Carboxylic acids and derivatives;Subclass: Amino acids
INCHIKEY:  ODHCTXKNWHHXJC-UHFFFAOYNA-N
SMILES:  OC(=O)C1CCC(=O)N1
RETENTIONTIME:  
CCS:  122.2122266
IONMODE:  Negative
INSTRUMENTTYPE:  
INSTRUMENT:  Q-Exactive Plus
COLLISIONENERGY:  
Comment:  DB#=CCMSLIB00000578183; origin=GNPS
Num Peaks:  4
70.95747	10.0
82.02836	20.0
128.03415	1000.0
129.03752	30.0

NAME:  4-ACETAMIDOBUTANOATE
PRECURSORMZ:  144.06661676583
PRECURSORTYPE:  [M-H]-
FORMULA:  C6H11NO3
Ontology: Kingdom: Organic compounds;Superclass: Organic acids and derivatives;Class: Carboxylic acids and derivatives;Subclass: Amino acids
INCHIKEY:  UZTFMUBKZQVKLK-UHFFFAOYSA-N
SMILES:  CC(=O)NCCCC(O)=O
RETENTIONTIME:  
CCS:  131.226727
IONMODE:  Negative
INSTRUMENTTYPE:  
INSTRUMENT:  Q-Exactive Plus
COLLISIONENERGY:  
Comment:  DB#=CCMSLIB00000578184; origin=GNPS
Num Peaks:  11
58.02843	270.0
84.04404	40.0
85.02808	20.0
98.05962	30.0
100.07542	740.0
101.07899	20.0
102.05469	1000.0
103.05803	30.0
126.05479	190.0
143.10672	20.0
144.06549	460.0

NAME:  TRANS-CYCLOHEXANE-1,2-DIOL
PRECURSORMZ:  115.07645317383
PRECURSORTYPE:  [M-H]-
FORMULA:  C6H12O2
Ontology: Kingdom: Organic compounds;Superclass: Organic oxygen compounds;Class: Organooxygen compounds;Subclass: Alcohols and polyols
INCHIKEY:  PFURGBBHAOXLIO-UHFFFAOYNA-N
SMILES:  OC1CCCCC1O
RETENTIONTIME:  
CCS:  121.2874643
IONMODE:  Negative
INSTRUMENTTYPE:  
INSTRUMENT:  Q-Exactive Plus
COLLISIONENERGY:  
Comment:  DB#=CCMSLIB00000578185; origin=GNPS
Num Peaks:  18
59.01246	130.0
69.0332	20.0
71.04881	1000.0
72.04398	20.0
72.05222	20.0
73.04036	10.0
97.02822	140.0
97.92999	20.0
98.02343	20.0
114.01826	10.0
114.9252	20.0
114.93281	350.0
115.03058	20.0
115.03879	500.0
115.07518	940.0
116.04203	10.0
116.07042	140.0
116.0785	40.0

NAME:  DOPAMINE
PRECURSORMZ:  152.07170214583
PRECURSORTYPE:  [M-H]-
FORMULA:  C8H11NO2
Ontology: Kingdom: Organic compounds;Superclass: Benzenoids;Class: Phenols;Subclass: Benzenediols
INCHIKEY:  VYFYYTLLBUKUHU-UHFFFAOYSA-N
SMILES:  NCCC1=CC(O)=C(O)C=C1
RETENTIONTIME:  
CCS:  132.601286
IONMODE:  Negative
INSTRUMENTTYPE:  
INSTRUMENT:  Q-Exactive Plus
COLLISIONENERGY:  
Comment:  DB#=CCMSLIB00000578186; origin=GNPS
Num Peaks:  11
108.02029	20.0
109.02817	120.0
122.03608	230.0
123.04482	20.0
136.0154	10.0
137.02344	20.0
151.05873	10.0
152.03613	20.0
152.07069	1000.0
153.0183	80.0
153.07401	40.0

NAME:  O-PHOSPHO-L-SERINE
PRECURSORMZ:  184.00164752783
PRECURSORTYPE:  [M-H]-
FORMULA:  C3H8NO6P
Ontology: Kingdom: Organic compounds;Superclass: Organic acids and derivatives;Class: Carboxylic acids and derivatives;Subclass: Amino acids
INCHIKEY:  BZQFBWGGLXLEPQ-UHFFFAOYNA-N
SMILES:  NC(COP(O)(O)=O)C(O)=O
RETENTIONTIME:  
CCS:  130.590126
IONMODE:  Negative
INSTRUMENTTYPE:  
INSTRUMENT:  Q-Exactive Plus
COLLISIONENERGY:  
Comment:  DB#=CCMSLIB00000578187; origin=GNPS
Num Peaks:  5
78.95758	240.0
96.96824	1000.0
139.02216	10.0
184.00049	20.0
185.15395	60.0

NAME:  1-AMINOCYCLOPROPANE-1-CARBOXYLATE
PRECURSORMZ:  100.04040201683
PRECURSORTYPE:  [M-H]-
FORMULA:  C4H7NO2
Ontology: Kingdom: Organic compounds;Superclass: Organic acids and derivatives;Class: Carboxylic acids and derivatives;Subclass: Amino acids
INCHIKEY:  PAJPWUMXBYXFCZ-UHFFFAOYSA-N
SMILES:  NC1(CC1)C(O)=O
RETENTIONTIME:  
CCS:  117.4746919
IONMODE:  Negative
INSTRUMENTTYPE:  
INSTRUMENT:  Q-Exactive Plus
COLLISIONENERGY:  
Comment:  DB#=CCMSLIB00000578188; origin=GNPS
Num Peaks:  7
57.03325	10.0
99.92445	110.0
100.0029	20.0
100.03906	1000.0
101.02311	10.0
101.04219	20.0
101.05943	210.0

NAME:  5-HYDROXYMETHYLURACIL
PRECURSORMZ:  141.03056560883
PRECURSORTYPE:  [M-H]-
FORMULA:  C5H6N2O3
Ontology: Kingdom: Organic compounds;Superclass: Organoheterocyclic compounds;Class: Diazines;Subclass: Pyrimidines and pyrimidine derivatives
INCHIKEY:  JDBGXEHEIRGOBU-UHFFFAOYSA-N
SMILES:  OCC1=CNC(=O)NC1=O
RETENTIONTIME:  
CCS:  125.8256688
IONMODE:  Negative
INSTRUMENTTYPE:  
INSTRUMENT:  Q-Exactive Plus
COLLISIONENERGY:  
Comment:  DB#=CCMSLIB00000578189; origin=GNPS
Num Peaks:  7
59.01229	10.0
80.01268	30.0
95.02392	20.0
98.02334	60.0
123.01881	110.0
141.02948	1000.0
142.03336	30.0

NAME:  L-CYSTATHIONINE
PRECURSORMZ:  221.06015166083
PRECURSORTYPE:  [M-H]-
FORMULA:  C7H14N2O4S
Ontology: Kingdom: Organic compounds;Superclass: Organic acids and derivatives;Class: Carboxylic acids and derivatives;Subclass: Amino acids
INCHIKEY:  ILRYLPWNYFXEMH-UHFFFAOYNA-N
SMILES:  NC(CCSCC(N)C(O)=O)C(O)=O
RETENTIONTIME:  
CCS:  146.1815705
IONMODE:  Negative
INSTRUMENTTYPE:  
INSTRUMENT:  Q-Exactive Plus
COLLISIONENERGY:  
Comment:  DB#=CCMSLIB00000578190; origin=GNPS
Num Peaks:  10
86.02329	50.0
120.01123	700.0
134.02699	1000.0
135.03081	10.0
174.05838	20.0
202.0537	80.0
203.05583	20.0
220.17789	20.0
221.05992	140.0
221.15373	10.0

NAME:  L-NORVALINE
PRECURSORMZ:  116.07170214583
PRECURSORTYPE:  [M-H]-
FORMULA:  C5H11NO2
Ontology: Kingdom: Organic compounds;Superclass: Organic acids and derivatives;Class: Carboxylic acids and derivatives;Subclass: Amino acids
INCHIKEY:  SNDPXSYFESPGGJ-UHFFFAOYNA-N
SMILES:  CCCC(N)C(O)=O
RETENTIONTIME:  
CCS:  125.2216056
IONMODE:  Negative
INSTRUMENTTYPE:  
INSTRUMENT:  Q-Exactive Plus
COLLISIONENERGY:  
Comment:  DB#=CCMSLIB00000578191; origin=GNPS
Num Peaks:  5
99.92442	100.0
115.07513	20.0
116.07047	1000.0
116.92728	880.0
117.07397	30.0

NAME:  4-HYDROXY-L-PROLINE
PRECURSORMZ:  130.05096670183
PRECURSORTYPE:  [M-H]-
FORMULA:  C5H9NO3
Ontology: Kingdom: Organic compounds;Superclass: Organic acids and derivatives;Class: Carboxylic acids and derivatives;Subclass: Amino acids
INCHIKEY:  PMMYEEVYMWASQN-UHFFFAOYNA-N
SMILES:  OC1CNC(C1)C(O)=O
RETENTIONTIME:  
CCS:  123.049502
IONMODE:  Negative
INSTRUMENTTYPE:  
INSTRUMENT:  Q-Exactive Plus
COLLISIONENERGY:  
Comment:  DB#=CCMSLIB00000578192; origin=GNPS
Num Peaks:  12
66.03347	20.0
68.04911	40.0
71.01243	50.0
73.02808	30.0
82.0285	20.0
84.04406	50.0
86.02345	20.0
112.03918	40.0
128.03418	380.0
129.09116	10.0
130.04984	1000.0
131.05339	30.0

NAME:  HOMOCYSTINE
PRECURSORMZ:  267.04787289883
PRECURSORTYPE:  [M-H]-
FORMULA:  C8H16N2O4S2
Ontology: Kingdom: Organic compounds;Superclass: Organic acids and derivatives;Class: Carboxylic acids and derivatives;Subclass: Amino acids
INCHIKEY:  ZTVZLYBCZNMWCF-UHFFFAOYNA-N
SMILES:  NC(CCSSCCC(N)C(O)=O)C(O)=O
RETENTIONTIME:  
CCS:  155.5012412
IONMODE:  Negative
INSTRUMENTTYPE:  
INSTRUMENT:  Q-Exactive Plus
COLLISIONENERGY:  
Comment:  DB#=CCMSLIB00000578193; origin=GNPS
Num Peaks:  13
59.0124	50.0
70.99462	100.0
72.00763	1000.0
88.02122	270.0
114.98465	650.0
116.92726	40.0
119.01577	30.0
132.01134	680.0
134.02699	490.0
178.98334	30.0
232.06447	110.0
248.09576	10.0
267.03647	50.0

NAME:  N-METHYL-L-GLUTAMATE
PRECURSORMZ:  160.06153138583
PRECURSORTYPE:  [M-H]-
FORMULA:  C6H11NO4
Ontology: Kingdom: Organic compounds;Superclass: Organic acids and derivatives;Class: Carboxylic acids and derivatives;Subclass: Amino acids
INCHIKEY:  XLBVNMSMFQMKEY-UHFFFAOYNA-N
SMILES:  CNC(CCC(O)=O)C(O)=O
RETENTIONTIME:  
CCS:  131.6155627
IONMODE:  Negative
INSTRUMENTTYPE:  
INSTRUMENT:  Q-Exactive Plus
COLLISIONENERGY:  
Comment:  DB#=CCMSLIB00000578194; origin=GNPS
Num Peaks:  9
85.02812	10.0
98.05982	20.0
114.05486	20.0
116.07044	790.0
117.07377	20.0
142.04993	1000.0
143.05336	40.0
160.06058	310.0
161.06447	10.0

NAME:  D-ORNITHINE
PRECURSORMZ:  131.08260118183
PRECURSORTYPE:  [M-H]-
FORMULA:  C5H12N2O2
Ontology: Kingdom: Organic compounds;Superclass: Organic acids and derivatives;Class: Carboxylic acids and derivatives;Subclass: Amino acids
INCHIKEY:  AHLPHDHHMVZTML-UHFFFAOYNA-N
SMILES:  NCCCC(N)C(O)=O
RETENTIONTIME:  
CCS:  124.9658358
IONMODE:  Negative
INSTRUMENTTYPE:  
INSTRUMENT:  Q-Exactive Plus
COLLISIONENERGY:  
Comment:  DB#=CCMSLIB00000578195; origin=GNPS
Num Peaks:  7
76.9686	20.0
83.06004	20.0
94.97916	20.0
113.07065	10.0
131.08147	1000.0
132.01099	30.0
132.08519	30.0

NAME:  3'-CMP
PRECURSORMZ:  322.04457496883
PRECURSORTYPE:  [M-H]-
FORMULA:  C9H14N3O8P
Ontology: Kingdom: Organic compounds;Superclass: Nucleosides;Class: Ribonucleoside ;
INCHIKEY:  UOOOPKANIPLQPU-UHFFFAOYNA-N
SMILES:  NC1=NC(=O)N(C=C1)C1OC(CO)C(OP(O)(O)=O)C1O
RETENTIONTIME:  
CCS:  163.8653628
IONMODE:  Negative
INSTRUMENTTYPE:  
INSTRUMENT:  Q-Exactive Plus
COLLISIONENERGY:  
Comment:  DB#=CCMSLIB00000578198; origin=GNPS
Num Peaks:  7
78.95762	1000.0
96.96825	280.0
110.03468	120.0
152.99472	10.0
211.00104	940.0
212.00429	20.0
322.04477	60.0

NAME:  GALACTARATE
PRECURSORMZ:  209.03029082983
PRECURSORTYPE:  [M-H]-
FORMULA:  C6H10O8
Ontology: Kingdom: Organic compounds;Superclass: Organic oxygen compounds;Class: Organooxygen compounds;Subclass: Carbohydrates and carbohydrate conjugates
INCHIKEY:  DSLZVSRJTYRBFB-UHFFFAOYNA-N
SMILES:  OC(C(O)C(O)C(O)=O)C(O)C(O)=O
RETENTIONTIME:  
CCS:  135.2008683
IONMODE:  Negative
INSTRUMENTTYPE:  
INSTRUMENT:  Q-Exactive Plus
COLLISIONENERGY:  
Comment:  DB#=CCMSLIB00000578199; origin=GNPS
Num Peaks:  17
57.03313	80.0
59.01239	110.0
71.01237	120.0
72.99162	10.0
75.00727	20.0
84.02024	10.0
85.02807	1000.0
86.03146	20.0
87.00732	20.0
89.02298	90.0
103.00236	20.0
129.0181	60.0
133.01308	150.0
147.02882	40.0
191.01909	110.0
209.02982	240.0
210.03316	10.0

NAME:  L-HISTIDINE
PRECURSORMZ:  154.06220008983
PRECURSORTYPE:  [M-H]-
FORMULA:  C6H9N3O2
Ontology: Kingdom: Organic compounds;Superclass: Organic acids and derivatives;Class: Carboxylic acids and derivatives;Subclass: Amino acids
INCHIKEY:  HNDVDQJCIGZPNO-UHFFFAOYNA-N
SMILES:  NC(CC1=CN=CN1)C(O)=O
RETENTIONTIME:  
CCS:  129.4644498
IONMODE:  Negative
INSTRUMENTTYPE:  
INSTRUMENT:  Q-Exactive Plus
COLLISIONENERGY:  
Comment:  DB#=CCMSLIB00000578200; origin=GNPS
Num Peaks:  16
67.02863	20.0
72.00761	50.0
80.03651	20.0
81.04433	40.0
93.0444	250.0
108.0553	50.0
109.0281	40.0
109.03938	20.0
110.07102	110.0
118.0397	10.0
136.05048	70.0
137.0345	300.0
153.01848	20.0
154.06123	1000.0
154.94635	30.0
155.06541	30.0

NAME:  L-PIPECOLIC ACID
PRECURSORMZ:  128.07170214583
PRECURSORTYPE:  [M-H]-
FORMULA:  C6H11NO2
Ontology: Kingdom: Organic compounds;Superclass: Organic acids and derivatives;Class: Carboxylic acids and derivatives;Subclass: Amino acids
INCHIKEY:  HXEACLLIILLPRG-UHFFFAOYNA-N
SMILES:  OC(=O)C1CCCCN1
RETENTIONTIME:  
CCS:  125.3095984
IONMODE:  Negative
INSTRUMENTTYPE:  
INSTRUMENT:  Q-Exactive Plus
COLLISIONENERGY:  
Comment:  DB#=CCMSLIB00000578201; origin=GNPS
Num Peaks:  3
128.07059	1000.0
129.07426	30.0
129.09064	10.0

NAME:  D-GLUCOSE 6-PHOSPHATE
PRECURSORMZ:  259.02244254483
PRECURSORTYPE:  [M-H]-
FORMULA:  C6H13O9P
Ontology: Kingdom: Organic compounds;Superclass: Organic oxygen compounds;Class: Organooxygen compounds;Subclass: Carbohydrates and carbohydrate conjugates
INCHIKEY:  NBSCHQHZLSJFNQ-UHFFFAOYNA-N
SMILES:  OC1OC(COP(O)(O)=O)C(O)C(O)C1O
RETENTIONTIME:  
CCS:  147.1625908
IONMODE:  Negative
INSTRUMENTTYPE:  
INSTRUMENT:  Q-Exactive Plus
COLLISIONENERGY:  
Comment:  DB#=CCMSLIB00000578202; origin=GNPS
Num Peaks:  7
78.9576	260.0
96.96822	1000.0
138.97903	60.0
168.98991	20.0
199.00061	30.0
259.0224	10.0
276.9325	10.0

NAME:  BETA-NICOTINAMIDE ADENINE DINUCLEOTIDE PHOSPHATE
PRECURSORMZ:  742.06817701183
PRECURSORTYPE:  [M-H]-
FORMULA:  C21H28N7O17P3
Ontology: Kingdom: Organic compounds;Superclass: Nucleosides;;
INCHIKEY:  XJLXINKUBYWONI-UHFFFAOYNA-N
SMILES:  NC(=O)C1=C[N+](=CC=C1)C1OC(COP([O-])(=O)OP(O)(=O)OCC2OC(C(OP(O)(O)=O)C2O)N2C=NC3=C2N=CN=C3N)C(O)C1O
RETENTIONTIME:  
CCS:  228.0072308
IONMODE:  Negative
INSTRUMENTTYPE:  
INSTRUMENT:  Q-Exactive Plus
COLLISIONENERGY:  
Comment:  DB#=CCMSLIB00000578203; origin=GNPS
Num Peaks:  31
72.57755	30.0
78.95757	1000.0
96.96822	140.0
134.04597	150.0
150.97882	10.0
158.92442	900.0
174.97934	300.0
176.9352	130.0
192.99042	50.0
214.01332	30.0
238.89168	10.0
254.94652	180.0
272.95737	940.0
273.96112	10.0
290.9682	130.0
310.03497	40.0
328.04541	130.0
334.91446	20.0
346.05606	20.0
352.92596	50.0
370.93475	30.0
390.00137	10.0
408.01208	820.0
409.01447	40.0
426.02274	110.0
484.9657	40.0
487.97903	30.0
505.98883	50.0
522.04132	40.0
540.05359	120.0
620.02264	50.0

NAME:  THYMIDINE-5'-DIPHOSPHO-ALPHA-D-GLUCOSE
PRECURSORMZ:  563.06848030883
PRECURSORTYPE:  [M-H]-
FORMULA:  C16H26N2O16P2
Ontology: Kingdom: Organic compounds;Superclass: Nucleosides;Class: Pyrimidine nucleotides;Subclass: Pyrimidine nucleotide sugars
INCHIKEY:  YSYKRGRSMLTJNL-UHFFFAOYNA-N
SMILES:  CC1=CN(C2CC(O)C(COP(O)(=O)OP(O)(=O)OC3OC(CO)C(O)C(O)C3O)O2)C(=O)NC1=O
RETENTIONTIME:  
CCS:  209.116834
IONMODE:  Negative
INSTRUMENTTYPE:  
INSTRUMENT:  Q-Exactive Plus
COLLISIONENERGY:  
Comment:  DB#=CCMSLIB00000578204; origin=GNPS
Num Peaks:  24
78.95758	1000.0
96.96821	190.0
120.96806	30.0
125.03442	150.0
150.97884	10.0
158.92445	140.0
176.93506	50.0
176.99496	150.0
195.00578	630.0
196.00978	10.0
223.00137	10.0
238.95174	10.0
241.01187	700.0
242.0152	20.0
256.96228	230.0
259.02213	20.0
278.04459	10.0
320.98117	90.0
321.04959	830.0
322.05252	50.0
383.00558	180.0
384.00909	10.0
401.01758	20.0
563.07257	10.0

NAME:  N-ACETYLGLYCINE
PRECURSORMZ:  116.03531663683
PRECURSORTYPE:  [M-H]-
FORMULA:  C4H7NO3
Ontology: Kingdom: Organic compounds;Superclass: Organic acids and derivatives;Class: Carboxylic acids and derivatives;Subclass: Amino acids
INCHIKEY:  OKJIRPAQVSHGFK-UHFFFAOYSA-N
SMILES:  CC(=O)NCC(O)=O
RETENTIONTIME:  
CCS:  120.1771969
IONMODE:  Negative
INSTRUMENTTYPE:  
INSTRUMENT:  Q-Exactive Plus
COLLISIONENERGY:  
Comment:  DB#=CCMSLIB00000578205; origin=GNPS
Num Peaks:  5
72.04404	80.0
74.02331	630.0
99.92439	120.0
116.03409	70.0
116.92731	1000.0

NAME:  N-ACETYL-L-ASPARTIC ACID
PRECURSORMZ:  174.04079594183
PRECURSORTYPE:  [M-H]-
FORMULA:  C6H9NO5
Ontology: Kingdom: Organic compounds;Superclass: Organic acids and derivatives;Class: Carboxylic acids and derivatives;Subclass: Amino acids
INCHIKEY:  OTCCIMWXFLJLIA-UHFFFAOYNA-N
SMILES:  CC(=O)NC(CC(O)=O)C(O)=O
RETENTIONTIME:  
CCS:  132.332046
IONMODE:  Negative
INSTRUMENTTYPE:  
INSTRUMENT:  Q-Exactive Plus
COLLISIONENERGY:  
Comment:  DB#=CCMSLIB00000578206; origin=GNPS
Num Peaks:  15
58.02839	290.0
59.0124	170.0
70.02828	20.0
71.01236	60.0
88.03899	1000.0
89.04222	20.0
96.9917	40.0
112.0391	70.0
114.01836	220.0
115.0024	180.0
130.04979	330.0
132.02904	20.0
156.02916	70.0
174.03998	310.0
175.04262	30.0

NAME:  INOSINE 5'-DIPHOSPHATE
PRECURSORMZ:  427.00615483083
PRECURSORTYPE:  [M-H]-
FORMULA:  C10H14N4O11P2
Ontology: Kingdom: Organic compounds;Superclass: Nucleosides;Class: Purine nucleotides;Subclass: Purine ribonucleotides
INCHIKEY:  JPXZQMKKFWMMGK-UHFFFAOYNA-N
SMILES:  OC1C(COP(O)(=O)OP(O)(O)=O)OC(C1O)N1C=NC2=C1NC=NC2=O
RETENTIONTIME:  
CCS:  179.420353
IONMODE:  Negative
INSTRUMENTTYPE:  
INSTRUMENT:  Q-Exactive Plus
COLLISIONENERGY:  
Comment:  DB#=CCMSLIB00000578207; origin=GNPS
Num Peaks:  15
78.95762	1000.0
96.9683	50.0
114.93273	30.0
135.03014	790.0
136.03355	10.0
158.9245	920.0
174.98001	20.0
176.93445	20.0
192.99007	20.0
272.95761	180.0
290.96762	20.0
329.02988	140.0
347.03931	50.0
408.99649	120.0
427.00693	90.0

NAME:  2'-DEOXYADENOSINE 5'-DIPHOSPHATE
PRECURSORMZ:  410.02722462683
PRECURSORTYPE:  [M-H]-
FORMULA:  C10H15N5O9P2
Ontology: Kingdom: Organic compounds;Superclass: Nucleosides;Class: Purine nucleotides;Subclass: Purine deoxyribonucleotides
INCHIKEY:  DAEAPNUQQAICNR-UHFFFAOYNA-N
SMILES:  NC1=NC=NC2=C1N=CN2C1CC(O)C(COP(O)(=O)OP(O)(O)=O)O1
RETENTIONTIME:  
CCS:  178.3731093
IONMODE:  Negative
INSTRUMENTTYPE:  
INSTRUMENT:  Q-Exactive Plus
COLLISIONENERGY:  
Comment:  DB#=CCMSLIB00000578208; origin=GNPS
Num Peaks:  14
71.4669	10.0
78.95762	1000.0
96.96825	60.0
116.92742	10.0
134.04613	40.0
158.92448	560.0
176.93521	50.0
176.99503	50.0
214.01341	10.0
256.96243	100.0
274.97311	70.0
312.05115	10.0
392.01733	110.0
410.02786	70.0

NAME:  2'-DEOXYGUANOSINE 5'-MONOPHOSPHATE
PRECURSORMZ:  346.05580835683
PRECURSORTYPE:  [M-H]-
FORMULA:  C10H14N5O7P
Ontology: Kingdom: Organic compounds;Superclass: Nucleosides;Class: Purine nucleotides;Subclass: Purine deoxyribonucleotides
INCHIKEY:  LTFMZDNNPPEQNG-UHFFFAOYNA-N
SMILES:  NC1=NC(=O)C2=C(N1)N(C=N2)C1CC(O)C(COP(O)(O)=O)O1
RETENTIONTIME:  
CCS:  170.380721
IONMODE:  Negative
INSTRUMENTTYPE:  
INSTRUMENT:  Q-Exactive Plus
COLLISIONENERGY:  
Comment:  DB#=CCMSLIB00000578209; origin=GNPS
Num Peaks:  8
78.95758	1000.0
96.96823	370.0
134.04605	120.0
138.97905	20.0
150.97914	50.0
192.99011	20.0
211.0009	40.0
346.05615	110.0

NAME:  6-PHOSPHOGLUCONIC ACID
PRECURSORMZ:  275.01735716483
PRECURSORTYPE:  [M-H]-
FORMULA:  C6H13O10P
Ontology: Kingdom: Organic compounds;Superclass: Organic oxygen compounds;Class: Organooxygen compounds;Subclass: Carbohydrates and carbohydrate conjugates
INCHIKEY:  BIRSGZKFKXLSJQ-UHFFFAOYNA-N
SMILES:  OC(COP(O)(O)=O)C(O)C(O)C(O)C(O)=O
RETENTIONTIME:  
CCS:  149.4516652
IONMODE:  Negative
INSTRUMENTTYPE:  
INSTRUMENT:  Q-Exactive Plus
COLLISIONENERGY:  
Comment:  DB#=CCMSLIB00000578211; origin=GNPS
Num Peaks:  26
59.01238	10.0
71.01242	30.0
75.00735	10.0
78.95761	550.0
85.02814	20.0
96.96827	1000.0
98.97256	10.0
99.00742	40.0
99.05497	20.0
100.0108	10.0
116.92725	10.0
117.92743	20.0
119.01574	60.0
129.0182	70.0
130.02151	20.0
159.02905	10.0
177.0397	90.0
178.04301	30.0
195.0504	20.0
257.00726	30.0
258.0108	10.0
275.01791	60.0
275.88068	30.0
276.02103	30.0
276.87729	10.0
276.93167	20.0

NAME:  5-METHYLCYTOSINE HYDROCLORIDE
PRECURSORMZ:  124.05163540483
PRECURSORTYPE:  [M-H]-
FORMULA:  C5H7N3O
Ontology: Kingdom: Organic compounds;Superclass: Organoheterocyclic compounds;Class: Diazines;Subclass: Pyrimidines and pyrimidine derivatives
INCHIKEY:  LRSASMSXMSNRBT-UHFFFAOYSA-N
SMILES:  CC1=C(N)NC(=O)N=C1
RETENTIONTIME:  
CCS:  123.2875022
IONMODE:  Negative
INSTRUMENTTYPE:  
INSTRUMENT:  Q-Exactive Plus
COLLISIONENERGY:  
Comment:  DB#=CCMSLIB00000578214; origin=GNPS
Num Peaks:  5
59.01246	80.0
81.04441	1000.0
82.04771	30.0
124.05045	810.0
125.05425	20.0

NAME:  D-GLYCERIC ACID
PRECURSORMZ:  105.01933222083
PRECURSORTYPE:  [M-H]-
FORMULA:  C3H6O4
Ontology: Kingdom: Organic compounds;Superclass: Organic oxygen compounds;Class: Organooxygen compounds;Subclass: Carbohydrates and carbohydrate conjugates
INCHIKEY:  RBNPOMFGQQGHHO-UHFFFAOYNA-N
SMILES:  OCC(O)C(O)=O
RETENTIONTIME:  
CCS:  120.699586
IONMODE:  Negative
INSTRUMENTTYPE:  
INSTRUMENT:  Q-Exactive Plus
COLLISIONENERGY:  
Comment:  DB#=CCMSLIB00000578215; origin=GNPS
Num Peaks:  5
59.01241	130.0
72.99166	320.0
75.00732	450.0
105.01803	1000.0
106.02145	20.0

NAME:  CYTIDINE 2',3'-CYCLIC MONO-PHOS-PHATE
PRECURSORMZ:  304.03401028383
PRECURSORTYPE:  [M-H]-
FORMULA:  C9H12N3O7P
Ontology: Kingdom: Organic compounds;Superclass: Nucleosides;Class: Pyrimidine nucleotides;Subclass: Cyclic pyrimidine nucleotides
INCHIKEY:  NMPZCCZXCOMSDQ-UHFFFAOYNA-N
SMILES:  NC1=NC(=O)N(C=C1)C1OC(CO)C2OP(O)(=O)OC12
RETENTIONTIME:  
CCS:  160.5735349
IONMODE:  Negative
INSTRUMENTTYPE:  
INSTRUMENT:  Q-Exactive Plus
COLLISIONENERGY:  
Comment:  DB#=CCMSLIB00000578216; origin=GNPS
Num Peaks:  9
67.02875	20.0
71.52141	20.0
110.03467	1000.0
111.03821	20.0
119.01566	60.0
192.99078	10.0
286.15884	40.0
303.23206	10.0
304.1698	30.0

NAME:  NEPSILON,NEPSILON,NEPSILON-TRIMETHYLLYSINE
PRECURSORMZ:  187.14520143983
PRECURSORTYPE:  [M-H]-
FORMULA:  C9H20N2O2
Ontology: Kingdom: Organic compounds;Superclass: Organic acids and derivatives;Class: Carboxylic acids and derivatives;Subclass: Amino acids
INCHIKEY:  MXNRLFUSFKVQSK-UHFFFAOYNA-N
SMILES:  C[N+](C)(C)CCCCC(N)C([O-])=O
RETENTIONTIME:  
CCS:  151.0658426
IONMODE:  Negative
INSTRUMENTTYPE:  
INSTRUMENT:  Q-Exactive Plus
COLLISIONENERGY:  
Comment:  DB#=CCMSLIB00000578217; origin=GNPS
Num Peaks:  20
57.03317	10.0
59.01228	30.0
83.04897	10.0
85.02799	10.0
97.06445	60.0
99.04373	10.0
123.0803	30.0
125.02297	20.0
125.05972	40.0
125.09598	1000.0
126.09953	40.0
143.07021	40.0
143.10646	40.0
169.08629	30.0
186.15755	40.0
187.06143	50.0
187.09692	510.0
187.13342	40.0
188.03703	30.0
188.10049	20.0

NAME:  PHOSPHO(ENOL)PYRUVIC ACID
PRECURSORMZ:  166.97509842683
PRECURSORTYPE:  [M-H]-
FORMULA:  C3H5O6P
Ontology: Kingdom: Organic compounds;Superclass: Organic acids and derivatives;Class: Organic phosphoric acids and derivatives;Subclass: Phosphate esters
INCHIKEY:  DTBNBXWJWCWCIK-UHFFFAOYSA-N
SMILES:  OC(=O)C(=C)OP(O)(O)=O
RETENTIONTIME:  
CCS:  126.7752318
IONMODE:  Negative
INSTRUMENTTYPE:  
INSTRUMENT:  Q-Exactive Plus
COLLISIONENERGY:  
Comment:  DB#=CCMSLIB00000578218; origin=GNPS
Num Peaks:  9
83.0124	160.0
122.05994	1000.0
123.04419	40.0
123.06334	180.0
153.00566	10.0
166.05017	210.0
167.03458	20.0
167.05354	60.0
167.10681	10.0

NAME:  ALPHA-D-GALACTOSE 1-PHOSPHATE
PRECURSORMZ:  259.02244254483
PRECURSORTYPE:  [M-H]-
FORMULA:  C6H13O9P
Ontology: Kingdom: Organic compounds;Superclass: Organic oxygen compounds;Class: Organooxygen compounds;Subclass: Carbohydrates and carbohydrate conjugates
INCHIKEY:  HXXFSFRBOHSIMQ-UHFFFAOYNA-N
SMILES:  OCC1OC(OP(O)(O)=O)C(O)C(O)C1O
RETENTIONTIME:  
CCS:  146.1664715
IONMODE:  Negative
INSTRUMENTTYPE:  
INSTRUMENT:  Q-Exactive Plus
COLLISIONENERGY:  
Comment:  DB#=CCMSLIB00000578219; origin=GNPS
Num Peaks:  7
78.95766	280.0
96.96829	1000.0
138.97905	60.0
168.9899	20.0
199.00073	40.0
259.02264	30.0
276.93152	20.0

NAME:  PHOSPHO(ENOL)PYRUVIC ACID
PRECURSORMZ:  166.97509842683
PRECURSORTYPE:  [M-H]-
FORMULA:  C3H5O6P
Ontology: Kingdom: Organic compounds;Superclass: Organic acids and derivatives;Class: Organic phosphoric acids and derivatives;Subclass: Phosphate esters
INCHIKEY:  DTBNBXWJWCWCIK-UHFFFAOYSA-N
SMILES:  OC(=O)C(=C)OP(O)(O)=O
RETENTIONTIME:  
CCS:  126.7752318
IONMODE:  Negative
INSTRUMENTTYPE:  
INSTRUMENT:  Q-Exactive Plus
COLLISIONENERGY:  
Comment:  DB#=CCMSLIB00000578220; origin=GNPS
Num Peaks:  2
78.95762	1000.0
83.01238	40.0

NAME:  2-AMINOETHYL DIHYDROGEN PHOSPHATE
PRECURSORMZ:  140.01181828783
PRECURSORTYPE:  [M-H]-
FORMULA:  C2H8NO4P
Ontology: Kingdom: Organic compounds;Superclass: Organic acids and derivatives;Class: Organic phosphoric acids and derivatives;Subclass: Phosphate esters
INCHIKEY:  SUHOOTKUPISOBE-UHFFFAOYSA-N
SMILES:  NCCOP(O)(O)=O
RETENTIONTIME:  
CCS:  127.3610588
IONMODE:  Negative
INSTRUMENTTYPE:  
INSTRUMENT:  Q-Exactive Plus
COLLISIONENERGY:  
Comment:  DB#=CCMSLIB00000578222; origin=GNPS
Num Peaks:  5
59.01239	270.0
78.9576	1000.0
139.99814	20.0
140.01079	70.0
141.09114	10.0

NAME:  THYMIDINE 5'-MONOPHOSPHATE
PRECURSORMZ:  321.04932599683
PRECURSORTYPE:  [M-H]-
FORMULA:  C10H15N2O8P
Ontology: Kingdom: Organic compounds;Superclass: Nucleosides;Class: Pyrimidine nucleotides;Subclass: Pyrimidine deoxyribonucleotides
INCHIKEY:  GYOZYWVXFNDGLU-UHFFFAOYNA-N
SMILES:  CC1=CN(C2CC(O)C(COP(O)(O)=O)O2)C(=O)NC1=O
RETENTIONTIME:  
CCS:  166.1191215
IONMODE:  Negative
INSTRUMENTTYPE:  
INSTRUMENT:  Q-Exactive Plus
COLLISIONENERGY:  
Comment:  DB#=CCMSLIB00000578223; origin=GNPS
Num Peaks:  9
78.95758	1000.0
96.96823	270.0
125.03446	580.0
126.03823	10.0
150.97906	20.0
176.99503	210.0
195.00589	630.0
196.00911	10.0
321.04962	110.0

NAME:  ADENOSINE 3',5'-CYCLIC MONOPHOSPHATE
PRECURSORMZ:  328.04524367183
PRECURSORTYPE:  [M-H]-
FORMULA:  C10H12N5O6P
Ontology: Kingdom: Organic compounds;Superclass: Nucleosides;Class: Purine nucleotides;Subclass: Cyclic purine nucleotides
INCHIKEY:  IVOMOUWHDPKRLL-UHFFFAOYNA-N
SMILES:  NC1=NC=NC2=C1N=CN2C1OC2COP(O)(=O)OC2C1O
RETENTIONTIME:  
CCS:  167.0918046
IONMODE:  Negative
INSTRUMENTTYPE:  
INSTRUMENT:  Q-Exactive Plus
COLLISIONENERGY:  
Comment:  DB#=CCMSLIB00000578224; origin=GNPS
Num Peaks:  8
78.95764	210.0
96.96828	20.0
134.04617	1000.0
134.98418	10.0
135.05048	20.0
192.9902	20.0
328.0459	390.0
329.04852	20.0

NAME:  D-FRUCTOSE 6-PHOSPHATE
PRECURSORMZ:  259.02244254483
PRECURSORTYPE:  [M-H]-
FORMULA:  C6H13O9P
Ontology: Kingdom: Organic compounds;Superclass: Organic oxygen compounds;Class: Organooxygen compounds;Subclass: Carbohydrates and carbohydrate conjugates
INCHIKEY:  GSXOAOHZAIYLCY-UHFFFAOYNA-N
SMILES:  OCC(=O)C(O)C(O)C(O)COP(O)(O)=O
RETENTIONTIME:  
CCS:  158.5046446
IONMODE:  Negative
INSTRUMENTTYPE:  
INSTRUMENT:  Q-Exactive Plus
COLLISIONENERGY:  
Comment:  DB#=CCMSLIB00000578226; origin=GNPS
Num Peaks:  8
78.95764	290.0
96.96828	1000.0
101.02312	20.0
138.97906	90.0
168.98958	20.0
258.92206	10.0
259.02307	10.0
276.93192	50.0

NAME:  NALPHA-ACETYL-L-LYSINE
PRECURSORMZ:  187.10881593083
PRECURSORTYPE:  [M-H]-
FORMULA:  C8H16N2O3
Ontology: Kingdom: Organic compounds;Superclass: Organic acids and derivatives;Class: Carboxylic acids and derivatives;Subclass: Amino acids
INCHIKEY:  VEYYWZRYIYDQJM-UHFFFAOYNA-N
SMILES:  CC(=O)NC(CCCCN)C(O)=O
RETENTIONTIME:  
CCS:  140.7315406
IONMODE:  Negative
INSTRUMENTTYPE:  
INSTRUMENT:  Q-Exactive Plus
COLLISIONENERGY:  
Comment:  DB#=CCMSLIB00000578230; origin=GNPS
Num Peaks:  17
59.01233	30.0
72.5858	10.0
85.02814	10.0
97.06467	50.0
125.02332	10.0
125.05975	60.0
125.09598	1000.0
126.09914	50.0
143.07002	30.0
143.10658	50.0
145.09708	10.0
169.08572	20.0
186.15736	30.0
187.06137	50.0
187.0968	590.0
188.03664	30.0
188.10014	30.0

NAME:  URIDINE 5'-DIPHOSPHOGALACTOSE
PRECURSORMZ:  565.04774486483
PRECURSORTYPE:  [M-H]-
FORMULA:  C15H24N2O17P2
Ontology: Kingdom: Organic compounds;Superclass: Nucleosides;Class: Pyrimidine nucleotides;Subclass: Pyrimidine nucleotide sugars
INCHIKEY:  HSCJRCZFDFQWRP-UHFFFAOYNA-N
SMILES:  OCC1OC(OP(O)(=O)OP(O)(=O)OCC2OC(C(O)C2O)N2C=CC(=O)NC2=O)C(O)C(O)C1O
RETENTIONTIME:  
CCS:  207.4354114
IONMODE:  Negative
INSTRUMENTTYPE:  
INSTRUMENT:  Q-Exactive Plus
COLLISIONENERGY:  
Comment:  DB#=CCMSLIB00000578231; origin=GNPS
Num Peaks:  23
78.95758	1000.0
96.96821	560.0
111.01871	110.0
119.01582	10.0
138.97919	70.0
150.9791	60.0
158.92456	240.0
174.97948	20.0
176.9351	30.0
192.99068	40.0
211.00101	190.0
223.00047	20.0
241.01193	90.0
259.02252	10.0
272.95761	240.0
280.0231	110.0
305.01813	50.0
320.97839	130.0
323.02884	980.0
324.03275	70.0
384.98431	200.0
402.99551	70.0
565.04913	10.0

NAME:  PYRIDOXAMINE
PRECURSORMZ:  167.08260118183
PRECURSORTYPE:  [M-H]-
FORMULA:  C8H12N2O2
Ontology: Kingdom: Organic compounds;Superclass: Organoheterocyclic compounds;Class: Pyridines and derivatives;Subclass: Pyridoxamines
INCHIKEY:  NHZMQXZHNVQTQA-UHFFFAOYSA-N
SMILES:  CC1=NC=C(CO)C(CN)=C1O
RETENTIONTIME:  
CCS:  135.1980712
IONMODE:  Negative
INSTRUMENTTYPE:  
INSTRUMENT:  Q-Exactive Plus
COLLISIONENERGY:  
Comment:  DB#=CCMSLIB00000578232; origin=GNPS
Num Peaks:  16
83.01242	130.0
108.04415	50.0
121.05211	40.0
122.05998	120.0
123.04402	30.0
135.0551	20.0
137.07094	170.0
138.05499	80.0
147.05542	40.0
149.07108	30.0
150.05504	100.0
153.00554	20.0
165.06607	10.0
167.03526	20.0
167.08183	1000.0
168.08539	40.0

NAME:  2'-DEOXYURIDINE 5'-MONO-PHOS-PHATE
PRECURSORMZ:  307.03367593283
PRECURSORTYPE:  [M-H]-
FORMULA:  C9H13N2O8P
Ontology: Kingdom: Organic compounds;Superclass: Nucleosides;Class: Pyrimidine nucleotides;Subclass: Pyrimidine deoxyribonucleotides
INCHIKEY:  JSRLJPSBLDHEIO-UHFFFAOYNA-N
SMILES:  OC1CC(OC1COP(O)(O)=O)N1C=CC(=O)NC1=O
RETENTIONTIME:  
CCS:  161.7854322
IONMODE:  Negative
INSTRUMENTTYPE:  
INSTRUMENT:  Q-Exactive Plus
COLLISIONENERGY:  
Comment:  DB#=CCMSLIB00000578233; origin=GNPS
Num Peaks:  11
78.9576	1000.0
96.96822	320.0
111.0187	900.0
112.02218	20.0
119.01565	60.0
150.97902	30.0
176.99503	250.0
195.00587	850.0
196.00888	20.0
306.99802	30.0
307.03424	110.0

NAME:  XANTHOSINE 5'-MONOPHOSPHATE
PRECURSORMZ:  363.03473856083
PRECURSORTYPE:  [M-H]-
FORMULA:  C10H13N4O9P
Ontology: Kingdom: Organic compounds;Superclass: Nucleosides;Class: Purine nucleotides;Subclass: Purine ribonucleotides
INCHIKEY:  DCTLYFZHFGENCW-UHFFFAOYNA-N
SMILES:  OC1C(COP(O)(O)=O)OC(C1O)N1C=NC2=C1NC(=O)NC2=O
RETENTIONTIME:  
CCS:  171.3504818
IONMODE:  Negative
INSTRUMENTTYPE:  
INSTRUMENT:  Q-Exactive Plus
COLLISIONENERGY:  
Comment:  DB#=CCMSLIB00000578234; origin=GNPS
Num Peaks:  16
59.01247	560.0
84.21405	80.0
86.6823	70.0
94.97923	190.0
115.05047	90.0
119.01574	1000.0
173.46584	80.0
202.05382	70.0
243.63359	70.0
267.03622	340.0
285.04773	370.0
321.19656	110.0
345.01151	100.0
346.229	320.0
363.2085	100.0
364.23926	90.0

NAME:  LAUROYLCARNITINE
PRECURSORMZ:  342.26498222283
PRECURSORTYPE:  [M-H]-
FORMULA:  C19H37NO4
Ontology: Kingdom: Organic compounds;Superclass: Lipids and lipid;Class: Fatty Acyls;Subclass: Fatty acid esters
INCHIKEY:  FUJLYHJROOYKRA-UHFFFAOYNA-N
SMILES:  CCCCCCCCCCCC(=O)OC(CC([O-])=O)C[N+](C)(C)C
RETENTIONTIME:  
CCS:  215.2723739
IONMODE:  Negative
INSTRUMENTTYPE:  
INSTRUMENT:  Q-Exactive Plus
COLLISIONENERGY:  
Comment:  DB#=CCMSLIB00000578235; origin=GNPS
Num Peaks:  4
61.98682	30.0
72.76551	10.0
199.16988	1000.0
200.173	30.0

NAME:  N-ACETYL-DL-METHIONINE
PRECURSORMZ:  190.05433800483
PRECURSORTYPE:  [M-H]-
FORMULA:  C7H13NO3S
Ontology: Kingdom: Organic compounds;Superclass: Organic acids and derivatives;Class: Carboxylic acids and derivatives;Subclass: Amino acids
INCHIKEY:  XUYPXLNMDZIRQH-UHFFFAOYNA-N
SMILES:  CSCCC(NC(C)=O)C(O)=O
RETENTIONTIME:  
CCS:  142.095215
IONMODE:  Negative
INSTRUMENTTYPE:  
INSTRUMENT:  Q-Exactive Plus
COLLISIONENERGY:  
Comment:  DB#=CCMSLIB00000578236; origin=GNPS
Num Peaks:  12
70.02831	10.0
84.04401	160.0
98.05978	240.0
100.03905	30.0
112.03902	90.0
142.04991	790.0
143.05296	20.0
146.06334	10.0
148.04274	1000.0
149.04643	30.0
190.05373	390.0
191.05682	20.0

NAME:  5-PHOSPHO-D-RIBOSE 1-DIPHOSPHATE
PRECURSORMZ:  388.94453964083
PRECURSORTYPE:  [M-H]-
FORMULA:  C5H13O14P3
Ontology: Kingdom: Organic compounds;Superclass: Organic oxygen compounds;Class: Organooxygen compounds;Subclass: Carbohydrates and carbohydrate conjugates
INCHIKEY:  PQGCEDQWHSBAJP-UHFFFAOYNA-N
SMILES:  OC1C(O)C(OP(O)(=O)OP(O)(O)=O)OC1COP(O)(O)=O
RETENTIONTIME:  
CCS:  165.1200832
IONMODE:  Negative
INSTRUMENTTYPE:  
INSTRUMENT:  Q-Exactive Plus
COLLISIONENERGY:  
Comment:  DB#=CCMSLIB00000578237; origin=GNPS
Num Peaks:  25
59.01236	50.0
72.77962	10.0
115.91965	20.0
116.92726	1000.0
117.92776	30.0
119.01554	80.0
177.90213	10.0
207.06841	10.0
237.86945	30.0
238.87747	40.0
255.88062	100.0
256.88678	10.0
262.91431	120.0
265.90195	40.0
266.90927	10.0
267.9165	10.0
279.91705	110.0
280.92392	50.0
295.91284	90.0
352.94644	10.0
371.21127	40.0
388.96768	160.0
389.22443	10.0
389.27094	20.0
389.96844	10.0

NAME:  5-AMINOIMIDAZOLE-4-CARBOXAMIDE-1-BETA-D-RIBOFURANOSYL 5'-MONOPHOSPHATE
PRECURSORMZ:  337.05547400483
PRECURSORTYPE:  [M-H]-
FORMULA:  C9H15N4O8P
Ontology: Kingdom: Organic compounds;Superclass: Nucleosides;Class: Imidazole ribonucleosides and ribonucleotides;
INCHIKEY:  NOTGFIUVDGNKRI-UHFFFAOYNA-N
SMILES:  NC(=O)C1=C(N)N(C=N1)C1OC(COP(O)(O)=O)C(O)C1O
RETENTIONTIME:  
CCS:  167.8484093
IONMODE:  Negative
INSTRUMENTTYPE:  
INSTRUMENT:  Q-Exactive Plus
COLLISIONENERGY:  
Comment:  DB#=CCMSLIB00000578238; origin=GNPS
Num Peaks:  9
78.95761	1000.0
96.96826	450.0
125.04572	130.0
150.97916	70.0
211.00105	40.0
274.88135	40.0
294.04999	10.0
318.88831	50.0
337.05609	110.0

NAME:  URIDINE 5'-DIPHOSPHO-N-ACETYLGALACTOSAMINE
PRECURSORMZ:  606.07429396483
PRECURSORTYPE:  [M-H]-
FORMULA:  C17H27N3O17P2
Ontology: Kingdom: Organic compounds;Superclass: Nucleosides;Class: Pyrimidine nucleotides;Subclass: Pyrimidine nucleotide sugars
INCHIKEY:  LFTYTUAZOPRMMI-UHFFFAOYNA-N
SMILES:  CC(=O)NC1C(O)C(O)C(CO)OC1OP(O)(=O)OP(O)(=O)OCC1OC(C(O)C1O)N1C=CC(=O)NC1=O
RETENTIONTIME:  
CCS:  217.3981422
IONMODE:  Negative
INSTRUMENTTYPE:  
INSTRUMENT:  Q-Exactive Plus
COLLISIONENERGY:  
Comment:  DB#=CCMSLIB00000578239; origin=GNPS
Num Peaks:  32
78.9576	1000.0
96.96822	380.0
96.97449	10.0
111.0187	260.0
138.97885	10.0
150.97946	10.0
158.92445	710.0
162.97949	10.0
174.97981	70.0
176.9351	250.0
192.98924	10.0
211.00137	30.0
246.01672	30.0
260.95697	90.0
264.02802	60.0
272.95758	720.0
273.96118	20.0
280.02274	10.0
282.03876	440.0
283.04285	10.0
290.96857	30.0
300.04935	90.0
305.01901	120.0
323.02866	180.0
343.99527	10.0
362.00528	160.0
384.98489	620.0
385.98798	30.0
402.99512	220.0
508.10083	10.0
526.1098	20.0
606.07489	70.0

NAME:  GUANOSINE 3',5'-CYCLIC MONOPHOSPHATE
PRECURSORMZ:  344.04015829183
PRECURSORTYPE:  [M-H]-
FORMULA:  C10H12N5O7P
Ontology: Kingdom: Organic compounds;Superclass: Nucleosides;Class: Purine nucleotides;Subclass: Cyclic purine nucleotides
INCHIKEY:  ZOOGRGPOEVQQDX-UHFFFAOYNA-N
SMILES:  NC1=NC(=O)C2=C(N1)N(C=N2)C1OC2COP(O)(=O)OC2C1O
RETENTIONTIME:  
CCS:  169.0791499
IONMODE:  Negative
INSTRUMENTTYPE:  
INSTRUMENT:  Q-Exactive Plus
COLLISIONENERGY:  
Comment:  DB#=CCMSLIB00000578240; origin=GNPS
Num Peaks:  11
78.9576	390.0
80.97334	10.0
96.96828	50.0
133.01448	70.0
134.98413	10.0
150.04112	1000.0
151.04576	20.0
192.99028	20.0
256.96127	30.0
344.04056	540.0
345.04727	20.0

NAME:  S-(5'-ADENOSYL)-L-HOMOCYSTEINE
PRECURSORMZ:  383.11431248983
PRECURSORTYPE:  [M-H]-
FORMULA:  C14H20N6O5S
Ontology: Kingdom: Organic compounds;Superclass: Nucleosides;;
INCHIKEY:  ZJUKTBDSGOFHSH-UHFFFAOYNA-N
SMILES:  NC(CCSCC1OC(C(O)C1O)N1C=NC2=C1N=CN=C2N)C(O)=O
RETENTIONTIME:  
CCS:  181.939052
IONMODE:  Negative
INSTRUMENTTYPE:  
INSTRUMENT:  Q-Exactive Plus
COLLISIONENERGY:  
Comment:  DB#=CCMSLIB00000578241; origin=GNPS
Num Peaks:  9
71.01247	20.0
74.9896	40.0
86.98962	50.0
129.00041	10.0
134.04614	1000.0
135.05042	10.0
176.0379	20.0
188.03804	20.0
383.1149	20.0

NAME:  L-ORNITHINE
PRECURSORMZ:  131.08260118183
PRECURSORTYPE:  [M-H]-
FORMULA:  C5H12N2O2
Ontology: Kingdom: Organic compounds;Superclass: Organic acids and derivatives;Class: Carboxylic acids and derivatives;Subclass: Amino acids
INCHIKEY:  AHLPHDHHMVZTML-UHFFFAOYNA-N
SMILES:  NCCCC(N)C(O)=O
RETENTIONTIME:  
CCS:  124.9658358
IONMODE:  Negative
INSTRUMENTTYPE:  
INSTRUMENT:  Q-Exactive Plus
COLLISIONENERGY:  
Comment:  DB#=CCMSLIB00000578242; origin=GNPS
Num Peaks:  6
83.06013	10.0
85.06442	10.0
113.07093	10.0
130.99142	10.0
131.08151	1000.0
132.08516	30.0

NAME:  ADENINE
PRECURSORMZ:  134.04721872883
PRECURSORTYPE:  [M-H]-
FORMULA:  C5H5N5
Ontology: Kingdom: Organic compounds;Superclass: Organoheterocyclic compounds;Class: Imidazopyrimidines;Subclass: Purines and purine derivatives
INCHIKEY:  GFFGJBXGBJISGV-UHFFFAOYSA-N
SMILES:  NC1=NC=NC2=C1NC=N2
RETENTIONTIME:  
CCS:  122.1769505
IONMODE:  Negative
INSTRUMENTTYPE:  
INSTRUMENT:  Q-Exactive Plus
COLLISIONENERGY:  
Comment:  DB#=CCMSLIB00000578243; origin=GNPS
Num Peaks:  4
92.02399	30.0
107.03496	140.0
134.04607	1000.0
135.05038	30.0

NAME:  URIDINE 5'-DIPHOSPHO-N-ACETYLGLUCOSAMINE
PRECURSORMZ:  606.07429396483
PRECURSORTYPE:  [M-H]-
FORMULA:  C17H27N3O17P2
Ontology: Kingdom: Organic compounds;Superclass: Nucleosides;Class: Pyrimidine nucleotides;Subclass: Pyrimidine nucleotide sugars
INCHIKEY:  LFTYTUAZOPRMMI-UHFFFAOYNA-N
SMILES:  CC(=O)NC1C(O)C(O)C(CO)OC1OP(O)(=O)OP(O)(=O)OCC1OC(C(O)C1O)N1C=CC(=O)NC1=O
RETENTIONTIME:  
CCS:  217.3981422
IONMODE:  Negative
INSTRUMENTTYPE:  
INSTRUMENT:  Q-Exactive Plus
COLLISIONENERGY:  
Comment:  DB#=CCMSLIB00000578244; origin=GNPS
Num Peaks:  28
59.01243	10.0
71.53898	30.0
78.95761	1000.0
96.96824	270.0
111.01872	170.0
116.92736	10.0
158.92444	680.0
162.97966	10.0
174.97951	60.0
176.93507	300.0
192.98997	10.0
211.0005	20.0
240.02843	10.0
246.01797	10.0
260.95724	90.0
264.0282	50.0
272.95752	690.0
282.03854	530.0
283.04227	10.0
300.04895	100.0
305.01718	100.0
323.02856	120.0
343.99527	30.0
362.00534	140.0
384.98474	600.0
385.9881	20.0
402.99524	150.0
606.07526	70.0

NAME:  URIDINE 5'-DIPHOSPHOGLUCURONIC ACID
PRECURSORMZ:  579.02700941983
PRECURSORTYPE:  [M-H]-
FORMULA:  C15H22N2O18P2
Ontology: Kingdom: Organic compounds;Superclass: Nucleosides;Class: Pyrimidine nucleotides;Subclass: Pyrimidine nucleotide sugars
INCHIKEY:  HDYANYHVCAPMJV-UHFFFAOYNA-N
SMILES:  OC1C(COP(O)(=O)OP(O)(=O)OC2OC(C(O)C(O)C2O)C(O)=O)OC(C1O)N1C=CC(=O)NC1=O
RETENTIONTIME:  
CCS:  208.4689059
IONMODE:  Negative
INSTRUMENTTYPE:  
INSTRUMENT:  Q-Exactive Plus
COLLISIONENERGY:  
Comment:  DB#=CCMSLIB00000578246; origin=GNPS
Num Peaks:  24
78.9576	890.0
96.96823	370.0
111.01869	680.0
116.92735	20.0
138.97934	30.0
150.97917	20.0
158.92447	1000.0
174.97978	30.0
176.93539	30.0
178.97433	10.0
192.99022	100.0
211.00069	60.0
236.98036	30.0
254.99121	300.0
272.95761	260.0
280.0239	40.0
290.96814	90.0
305.0184	220.0
323.02893	330.0
384.9848	320.0
385.98886	10.0
402.99539	710.0
403.99902	40.0
579.02502	10.0

NAME:  CYTIDINE 5'-DIPHOSPHATE
PRECURSORMZ:  402.01090585883
PRECURSORTYPE:  [M-H]-
FORMULA:  C9H15N3O11P2
Ontology: Kingdom: Organic compounds;Superclass: Nucleosides;Class: Pyrimidine nucleotides;Subclass: Pyrimidine ribonucleotides
INCHIKEY:  ZWIADYZPOWUWEW-UHFFFAOYNA-N
SMILES:  NC1=NC(=O)N(C=C1)C1OC(COP(O)(=O)OP(O)(O)=O)C(O)C1O
RETENTIONTIME:  
CCS:  175.4100076
IONMODE:  Negative
INSTRUMENTTYPE:  
INSTRUMENT:  Q-Exactive Plus
COLLISIONENERGY:  
Comment:  DB#=CCMSLIB00000578247; origin=GNPS
Num Peaks:  13
78.9576	1000.0
96.96828	30.0
110.03465	160.0
116.92712	30.0
158.92445	520.0
174.97949	20.0
176.93539	20.0
192.99083	10.0
272.95737	80.0
304.0347	50.0
322.04562	10.0
384.00076	100.0
402.0116	90.0

NAME:  HISTAMINE
PRECURSORMZ:  110.07237084983
PRECURSORTYPE:  [M-H]-
FORMULA:  C5H9N3
Ontology: Kingdom: Organic compounds;Superclass: Organic nitrogen compounds;Class: Organonitrogen compounds;Subclass: Amines
INCHIKEY:  NTYJJOPFIAHURM-UHFFFAOYSA-N
SMILES:  NCCC1=CN=CN1
RETENTIONTIME:  
CCS:  121.8095791
IONMODE:  Negative
INSTRUMENTTYPE:  
INSTRUMENT:  Q-Exactive Plus
COLLISIONENERGY:  
Comment:  DB#=CCMSLIB00000578248; origin=GNPS
Num Peaks:  11
65.997	80.0
80.03654	260.0
81.04439	220.0
109.03923	10.0
110.02348	30.0
110.07108	1000.0
110.99886	200.0
111.00713	30.0
111.01856	50.0
111.07435	30.0
112.02657	20.0

NAME:  DEOXYRIBOSE
PRECURSORMZ:  133.05063234983
PRECURSORTYPE:  [M-H]-
FORMULA:  C5H10O4
Ontology: Kingdom: Organic compounds;Superclass: Organic oxygen compounds;Class: Organooxygen compounds;Subclass: Carbonyl compounds
INCHIKEY:  ASJSAQIRZKANQN-UHFFFAOYNA-N
SMILES:  OCC(O)C(O)CC=O
RETENTIONTIME:  
CCS:  127.1813067
IONMODE:  Negative
INSTRUMENTTYPE:  
INSTRUMENT:  Q-Exactive Plus
COLLISIONENERGY:  
Comment:  DB#=CCMSLIB00000578249; origin=GNPS
Num Peaks:  15
71.01242	460.0
72.99165	100.0
75.00722	20.0
76.96851	60.0
89.02309	80.0
94.97919	70.0
115.00241	1000.0
115.91946	70.0
116.00551	30.0
132.89871	30.0
132.9953	300.0
133.01294	370.0
134.02405	80.0
134.04587	40.0
151.00603	40.0

NAME:  S-HEXYL-GLUTATHIONE
PRECURSORMZ:  390.17043038783
PRECURSORTYPE:  [M-H]-
FORMULA:  C16H29N3O6S
Ontology: Kingdom: Organic compounds;Superclass: Organic acids and derivatives;Class: Carboxylic acids and derivatives;Subclass: Amino acids
INCHIKEY:  HXJDWCWJDCOHDG-UHFFFAOYNA-N
SMILES:  CCCCCCSCC(NC(=O)CCC(N)C(O)=O)C(=O)NCC(O)=O
RETENTIONTIME:  
CCS:  188.2546131
IONMODE:  Negative
INSTRUMENTTYPE:  
INSTRUMENT:  Q-Exactive Plus
COLLISIONENERGY:  
Comment:  DB#=CCMSLIB00000578251; origin=GNPS
Num Peaks:  42
58.02841	50.0
74.02335	210.0
82.02831	20.0
86.02336	90.0
86.05969	10.0
87.05509	20.0
97.03949	10.0
99.05503	150.0
101.07065	30.0
102.05465	10.0
107.06012	10.0
112.03915	10.0
117.0731	90.0
125.03448	30.0
126.04272	10.0
127.05018	40.0
128.03416	610.0
135.05522	40.0
141.06589	40.0
143.04518	1000.0
144.04939	10.0
145.06075	50.0
146.04485	110.0
153.06598	90.0
155.08177	10.0
166.09772	50.0
167.04535	60.0
167.08174	80.0
170.03233	30.0
171.04036	30.0
179.04544	240.0
181.06123	40.0
184.10872	20.0
185.05605	30.0
192.07724	30.0
197.05629	30.0
210.08803	250.0
228.09856	10.0
254.07826	140.0
261.1282	30.0
272.08923	80.0
390.17099	30.0

NAME:  GUANOSINE 5'-MONOPHOSPHATE
PRECURSORMZ:  362.05072297683
PRECURSORTYPE:  [M-H]-
FORMULA:  C10H14N5O8P
Ontology: Kingdom: Organic compounds;Superclass: Nucleosides;Class: Purine nucleotides;Subclass: Purine ribonucleotides
INCHIKEY:  RQFCJASXJCIDSX-UHFFFAOYNA-N
SMILES:  NC1=NC(=O)C2=C(N1)N(C=N2)C1OC(COP(O)(O)=O)C(O)C1O
RETENTIONTIME:  
CCS:  172.3660334
IONMODE:  Negative
INSTRUMENTTYPE:  
INSTRUMENT:  Q-Exactive Plus
COLLISIONENERGY:  
Comment:  DB#=CCMSLIB00000578252; origin=GNPS
Num Peaks:  6
78.95762	1000.0
96.96822	100.0
119.01585	20.0
150.04109	40.0
211.00108	110.0
362.05151	70.0

NAME:  N-ACETYL-L-ALANINE
PRECURSORMZ:  130.05096670183
PRECURSORTYPE:  [M-H]-
FORMULA:  C5H9NO3
Ontology: Kingdom: Organic compounds;Superclass: Organic acids and derivatives;Class: Carboxylic acids and derivatives;Subclass: Amino acids
INCHIKEY:  KTHDTJVBEPMMGL-UHFFFAOYNA-N
SMILES:  CC(NC(C)=O)C(O)=O
RETENTIONTIME:  
CCS:  125.6409
IONMODE:  Negative
INSTRUMENTTYPE:  
INSTRUMENT:  Q-Exactive Plus
COLLISIONENERGY:  
Comment:  DB#=CCMSLIB00000578253; origin=GNPS
Num Peaks:  3
88.03901	1000.0
89.04243	20.0
130.0498	100.0

NAME:  RIBOFLAVIN
PRECURSORMZ:  375.13100792783
PRECURSORTYPE:  [M-H]-
FORMULA:  C17H20N4O6
Ontology: Kingdom: Organic compounds;Superclass: Organoheterocyclic compounds;Class: Pteridines and derivatives;Subclass: Alloxazines and isoalloxazines
INCHIKEY:  AUNGANRZJHBGPY-UHFFFAOYNA-N
SMILES:  CC1=CC2=C(C=C1C)N(CC(O)C(O)C(O)CO)C1=NC(=O)NC(=O)C1=N2
RETENTIONTIME:  
CCS:  184.524568
IONMODE:  Negative
INSTRUMENTTYPE:  
INSTRUMENT:  Q-Exactive Plus
COLLISIONENERGY:  
Comment:  DB#=CCMSLIB00000578254; origin=GNPS
Num Peaks:  8
59.01238	10.0
184.08727	10.0
212.08257	220.0
240.06476	10.0
241.07306	100.0
243.08875	30.0
255.08907	1000.0
256.09229	50.0

NAME:  CMP
PRECURSORMZ:  322.04457496883
PRECURSORTYPE:  [M-H]-
FORMULA:  C9H14N3O8P
Ontology: Kingdom: Organic compounds;Superclass: Nucleosides;Class: Pyrimidine nucleotides;Subclass: Pyrimidine ribonucleotides
INCHIKEY:  IERHLVCPSMICTF-UHFFFAOYNA-N
SMILES:  NC1=NC(=O)N(C=C1)C1OC(COP(O)(O)=O)C(O)C1O
RETENTIONTIME:  
CCS:  164.5825902
IONMODE:  Negative
INSTRUMENTTYPE:  
INSTRUMENT:  Q-Exactive Plus
COLLISIONENERGY:  
Comment:  DB#=CCMSLIB00000578255; origin=GNPS
Num Peaks:  9
78.9576	1000.0
96.96823	560.0
110.03462	30.0
138.97902	80.0
150.97911	40.0
192.98999	20.0
211.00085	40.0
279.03934	10.0
322.0448	110.0

NAME:  GUANOSINE 5'-DIPHOSPHO-D-MANNOSE
PRECURSORMZ:  604.06987728883
PRECURSORTYPE:  [M-H]-
FORMULA:  C16H25N5O16P2
Ontology: Kingdom: Organic compounds;Superclass: Nucleosides;Class: Purine nucleotides;Subclass: Purine nucleotide sugars
INCHIKEY:  MVMSCBBUIHUTGJ-UHFFFAOYNA-N
SMILES:  NC1=NC(=O)C2=C(N1)N(C=N2)C1OC(COP(O)(=O)OP(O)(=O)OC2OC(CO)C(O)C(O)C2O)C(O)C1O
RETENTIONTIME:  
CCS:  213.8043166
IONMODE:  Negative
INSTRUMENTTYPE:  
INSTRUMENT:  Q-Exactive Plus
COLLISIONENERGY:  
Comment:  DB#=CCMSLIB00000578256; origin=GNPS
Num Peaks:  22
59.01228	10.0
71.87999	20.0
78.9576	1000.0
96.96821	170.0
150.04108	310.0
158.92445	550.0
174.9792	30.0
176.93494	90.0
204.99042	30.0
211.00089	70.0
241.01222	50.0
259.02209	20.0
260.95743	30.0
272.95731	220.0
320.97873	240.0
344.04041	330.0
345.04404	10.0
362.05124	180.0
424.00711	560.0
425.01059	30.0
442.01773	240.0
604.07159	90.0

NAME:  GLUTATHIONE
PRECURSORMZ:  306.07653000083
PRECURSORTYPE:  [M-H]-
FORMULA:  C10H17N3O6S
Ontology: Kingdom: Organic compounds;Superclass: Organic acids and derivatives;Class: Carboxylic acids and derivatives;Subclass: Amino acids
INCHIKEY:  RWSXRVCMGQZWBV-UHFFFAOYNA-N
SMILES:  NC(CCC(=O)NC(CS)C(=O)NCC(O)=O)C(O)=O
RETENTIONTIME:  
CCS:  165.7213611
IONMODE:  Negative
INSTRUMENTTYPE:  
INSTRUMENT:  Q-Exactive Plus
COLLISIONENERGY:  
Comment:  DB#=CCMSLIB00000578258; origin=GNPS
Num Peaks:  48
58.02835	50.0
74.02328	200.0
82.02845	10.0
86.02325	90.0
86.05978	10.0
87.05497	30.0
90.00037	30.0
97.03957	10.0
99.05501	160.0
101.07063	30.0
107.06027	10.0
112.03874	10.0
116.01659	10.0
119.01568	30.0
120.01132	10.0
123.05518	10.0
125.03448	20.0
127.05002	30.0
128.03412	550.0
129.03748	10.0
131.04507	10.0
135.05522	20.0
141.06583	50.0
143.04515	1000.0
144.04909	20.0
145.06076	40.0
146.04486	90.0
153.06592	80.0
155.08162	20.0
160.00642	210.0
166.0976	50.0
167.04535	80.0
167.08171	30.0
170.0322	10.0
171.07657	10.0
177.03308	60.0
179.04544	170.0
181.06094	40.0
184.1084	20.0
185.0564	40.0
192.07748	20.0
197.05632	20.0
198.08821	20.0
210.08798	190.0
242.07814	40.0
254.07829	80.0
272.08923	60.0
306.07712	40.0

NAME:  GLUCOSAMINATE
PRECURSORMZ:  194.06701069083
PRECURSORTYPE:  [M-H]-
FORMULA:  C6H13NO6
Ontology: Kingdom: Organic compounds;Superclass: Organic acids and derivatives;Class: Carboxylic acids and derivatives;Subclass: Amino acids
INCHIKEY:  UFYKDFXCZBTLOO-UHFFFAOYNA-N
SMILES:  NC(C(O)C(O)C(O)CO)C(O)=O
RETENTIONTIME:  
CCS:  134.2657764
IONMODE:  Negative
INSTRUMENTTYPE:  
INSTRUMENT:  Q-Exactive Plus
COLLISIONENERGY:  
Comment:  DB#=CCMSLIB00000578259; origin=GNPS
Num Peaks:  19
59.01239	140.0
68.01276	10.0
70.02824	20.0
71.01228	20.0
72.00757	10.0
74.02328	640.0
84.04411	10.0
86.02328	140.0
89.02297	20.0
98.02333	100.0
101.02309	20.0
116.92706	20.0
128.03412	60.0
158.04489	40.0
175.04227	20.0
176.05647	10.0
176.89445	360.0
194.06636	180.0
194.90532	1000.0

NAME:  N-ACETYL-DL-GLUTAMIC ACID
PRECURSORMZ:  188.05644600583
PRECURSORTYPE:  [M-H]-
FORMULA:  C7H11NO5
Ontology: Kingdom: Organic compounds;Superclass: Organic acids and derivatives;Class: Carboxylic acids and derivatives;Subclass: Amino acids
INCHIKEY:  RFMMMVDNIPUKGG-UHFFFAOYNA-N
SMILES:  CC(=O)NC(CCC(O)=O)C(O)=O
RETENTIONTIME:  
CCS:  137.2412138
IONMODE:  Negative
INSTRUMENTTYPE:  
INSTRUMENT:  Q-Exactive Plus
COLLISIONENERGY:  
Comment:  DB#=CCMSLIB00000578260; origin=GNPS
Num Peaks:  17
58.02845	80.0
59.01247	390.0
84.04397	20.0
100.03899	30.0
100.07544	220.0
102.05473	820.0
103.05812	20.0
126.05483	80.0
128.03418	1000.0
129.03764	30.0
144.06555	390.0
145.06911	10.0
146.04483	120.0
170.04509	250.0
171.04872	10.0
188.05582	310.0
189.05952	10.0

NAME:  6-HYDROXYNICOTINATE
PRECURSORMZ:  138.01966657283
PRECURSORTYPE:  [M-H]-
FORMULA:  C6H5NO3
Ontology: Kingdom: Organic compounds;Superclass: Organoheterocyclic compounds;Class: Pyridines and derivatives;Subclass: Pyridinecarboxylic acids and derivatives
INCHIKEY:  BLHCMGRVFXRYRN-UHFFFAOYSA-N
SMILES:  OC(=O)C1=CNC(=O)C=C1
RETENTIONTIME:  
CCS:  124.2606964
IONMODE:  Negative
INSTRUMENTTYPE:  
INSTRUMENT:  Q-Exactive Plus
COLLISIONENERGY:  
Comment:  DB#=CCMSLIB00000578262; origin=GNPS
Num Peaks:  3
94.02846	1000.0
95.03169	40.0
138.01852	100.0

NAME:  INOSINE 5'-MONOPHOSPHATE
PRECURSORMZ:  347.03982394083
PRECURSORTYPE:  [M-H]-
FORMULA:  C10H13N4O8P
Ontology: Kingdom: Organic compounds;Superclass: Nucleosides;Class: Purine nucleotides;Subclass: Purine ribonucleotides
INCHIKEY:  GRSZFWQUAKGDAV-UHFFFAOYNA-N
SMILES:  OC1C(COP(O)(O)=O)OC(C1O)N1C=NC2=C1NC=NC2=O
RETENTIONTIME:  
CCS:  169.4577825
IONMODE:  Negative
INSTRUMENTTYPE:  
INSTRUMENT:  Q-Exactive Plus
COLLISIONENERGY:  
Comment:  DB#=CCMSLIB00000578263; origin=GNPS
Num Peaks:  8
78.95763	1000.0
96.96828	490.0
135.03011	180.0
138.97905	30.0
150.97913	60.0
192.99004	30.0
211.00095	60.0
347.04056	110.0

NAME:  D-PANTOTHENIC ACID
PRECURSORMZ:  218.10339619883
PRECURSORTYPE:  [M-H]-
FORMULA:  C9H17NO5
Ontology: Kingdom: Organic compounds;Superclass: Organic acids and derivatives;Class: Carboxylic acids and derivatives;Subclass: Amino acids
INCHIKEY:  GHOKWGTUZJEAQD-UHFFFAOYNA-N
SMILES:  CC(C)(CO)C(O)C(=O)NCCC(O)=O
RETENTIONTIME:  
CCS:  149.1912323
IONMODE:  Negative
INSTRUMENTTYPE:  
INSTRUMENT:  Q-Exactive Plus
COLLISIONENERGY:  
Comment:  DB#=CCMSLIB00000578264; origin=GNPS
Num Peaks:  9
71.01244	130.0
71.04881	60.0
88.03902	1000.0
89.04227	20.0
99.04385	10.0
116.07054	20.0
146.08125	620.0
147.08484	20.0
218.10313	170.0

NAME:  2-AMINO-2-METHYLPROPANOATE
PRECURSORMZ:  102.05605208183
PRECURSORTYPE:  [M-H]-
FORMULA:  C4H9NO2
Ontology: Kingdom: Organic compounds;Superclass: Organic acids and derivatives;Class: Carboxylic acids and derivatives;Subclass: Amino acids
INCHIKEY:  FUOOLUPWFVMBKG-UHFFFAOYSA-N
SMILES:  CC(C)(N)C(O)=O
RETENTIONTIME:  
CCS:  123.8894299
IONMODE:  Negative
INSTRUMENTTYPE:  
INSTRUMENT:  Q-Exactive Plus
COLLISIONENERGY:  
Comment:  DB#=CCMSLIB00000578265; origin=GNPS
Num Peaks:  3
101.05956	20.0
102.05476	1000.0
103.05807	20.0

NAME:  S-CARBOXYMETHYL-L-CYSTEINE
PRECURSORMZ:  178.01795249583
PRECURSORTYPE:  [M-H]-
FORMULA:  C5H9NO4S
Ontology: Kingdom: Organic compounds;Superclass: Organic acids and derivatives;Class: Carboxylic acids and derivatives;Subclass: Amino acids
INCHIKEY:  GBFLZEXEOZUWRN-UHFFFAOYNA-N
SMILES:  NC(CSCC(O)=O)C(O)=O
RETENTIONTIME:  
CCS:  135.3866124
IONMODE:  Negative
INSTRUMENTTYPE:  
INSTRUMENT:  Q-Exactive Plus
COLLISIONENERGY:  
Comment:  DB#=CCMSLIB00000578267; origin=GNPS
Num Peaks:  4
86.02328	20.0
90.98449	1000.0
91.98827	10.0
178.01706	10.0

NAME:  L-HISTIDINOL
PRECURSORMZ:  140.08293553383
PRECURSORTYPE:  [M-H]-
FORMULA:  C6H11N3O
Ontology: Kingdom: Organic compounds;Superclass: Organic nitrogen compounds;Class: Organonitrogen compounds;Subclass: Amines
INCHIKEY:  ZQISRDCJNBUVMM-UHFFFAOYNA-N
SMILES:  NC(CO)CC1=CN=CN1
RETENTIONTIME:  
CCS:  128.5456256
IONMODE:  Negative
INSTRUMENTTYPE:  
INSTRUMENT:  Q-Exactive Plus
COLLISIONENERGY:  
Comment:  DB#=CCMSLIB00000578269; origin=GNPS
Num Peaks:  13
59.0124	100.0
67.02871	50.0
71.73811	10.0
80.0365	50.0
81.04435	240.0
93.04431	10.0
105.04445	120.0
122.07118	10.0
123.05514	150.0
138.06616	390.0
139.06993	20.0
140.08185	1000.0
141.08539	40.0

NAME:  THYMIDINE 5'-MONOPHOSPHATE
PRECURSORMZ:  321.04932599683
PRECURSORTYPE:  [M-H]-
FORMULA:  C10H15N2O8P
Ontology: Kingdom: Organic compounds;Superclass: Nucleosides;Class: Pyrimidine nucleotides;Subclass: Pyrimidine deoxyribonucleotides
INCHIKEY:  GYOZYWVXFNDGLU-UHFFFAOYNA-N
SMILES:  CC1=CN(C2CC(O)C(COP(O)(O)=O)O2)C(=O)NC1=O
RETENTIONTIME:  
CCS:  166.1191215
IONMODE:  Negative
INSTRUMENTTYPE:  
INSTRUMENT:  Q-Exactive Plus
COLLISIONENERGY:  
Comment:  DB#=CCMSLIB00000578270; origin=GNPS
Num Peaks:  8
78.95757	1000.0
96.96819	260.0
125.03442	570.0
150.97908	20.0
176.99503	200.0
195.00587	600.0
196.00911	10.0
321.04953	110.0

NAME:  NORLEUCINE
PRECURSORMZ:  130.08735221083
PRECURSORTYPE:  [M-H]-
FORMULA:  C6H13NO2
Ontology: Kingdom: Organic compounds;Superclass: Organic acids and derivatives;Class: Carboxylic acids and derivatives;Subclass: Amino acids
INCHIKEY:  LRQKBLKVPFOOQJ-UHFFFAOYNA-N
SMILES:  CCCCC(N)C(O)=O
RETENTIONTIME:  
CCS:  128.3546718
IONMODE:  Negative
INSTRUMENTTYPE:  
INSTRUMENT:  Q-Exactive Plus
COLLISIONENERGY:  
Comment:  DB#=CCMSLIB00000578271; origin=GNPS
Num Peaks:  2
130.08624	1000.0
131.08984	40.0

NAME:  ADENOSINE
PRECURSORMZ:  266.08947746683
PRECURSORTYPE:  [M-H]-
FORMULA:  C10H13N5O4
Ontology: Kingdom: Organic compounds;Superclass: Nucleosides;Class: Purine nucleosides;
INCHIKEY:  OIRDTQYFTABQOQ-UHFFFAOYNA-N
SMILES:  NC1=NC=NC2=C1N=CN2C1OC(CO)C(O)C1O
RETENTIONTIME:  
CCS:  159.1971274
IONMODE:  Negative
INSTRUMENTTYPE:  
INSTRUMENT:  Q-Exactive Plus
COLLISIONENERGY:  
Comment:  DB#=CCMSLIB00000578272; origin=GNPS
Num Peaks:  3
134.04602	1000.0
135.05022	20.0
266.08987	60.0

NAME:  D-SACCHARIC ACID
PRECURSORMZ:  209.03029082983
PRECURSORTYPE:  [M-H]-
FORMULA:  C6H10O8
Ontology: Kingdom: Organic compounds;Superclass: Organic oxygen compounds;Class: Organooxygen compounds;Subclass: Carbohydrates and carbohydrate conjugates
INCHIKEY:  DSLZVSRJTYRBFB-UHFFFAOYNA-N
SMILES:  OC(C(O)C(O)C(O)=O)C(O)C(O)=O
RETENTIONTIME:  
CCS:  135.2008683
IONMODE:  Negative
INSTRUMENTTYPE:  
INSTRUMENT:  Q-Exactive Plus
COLLISIONENERGY:  
Comment:  DB#=CCMSLIB00000578273; origin=GNPS
Num Peaks:  25
57.03312	80.0
59.01237	100.0
68.99672	10.0
71.01234	110.0
72.99156	30.0
75.00729	30.0
83.01233	20.0
84.02026	20.0
85.02806	1000.0
86.03135	30.0
87.0073	20.0
89.02299	70.0
101.02312	10.0
103.00228	20.0
111.00744	60.0
115.00242	20.0
119.01568	10.0
121.01247	10.0
129.01811	90.0
133.01303	120.0
147.02885	40.0
173.00807	20.0
191.01907	220.0
208.14201	20.0
209.02982	170.0

NAME:  3-HYDROXYBUTANOIC ACID
PRECURSORMZ:  103.04006766583
PRECURSORTYPE:  [M-H]-
FORMULA:  C4H8O3
Ontology: Kingdom: Organic compounds;Superclass: Organic acids and derivatives;Class: Hydroxy acids and derivatives;Subclass: Beta hydroxy acids and derivatives
INCHIKEY:  WHBMMWSBFZVSSR-UHFFFAOYNA-N
SMILES:  CC(O)CC(O)=O
RETENTIONTIME:  
CCS:  124.257148
IONMODE:  Negative
INSTRUMENTTYPE:  
INSTRUMENT:  Q-Exactive Plus
COLLISIONENERGY:  
Comment:  DB#=CCMSLIB00000578274; origin=GNPS
Num Peaks:  4
57.03309	20.0
59.01241	1000.0
60.01569	20.0
103.03871	190.0

NAME:  4-IMIDAZOLEACETIC ACID
PRECURSORMZ:  125.03565098883
PRECURSORTYPE:  [M-H]-
FORMULA:  C5H6N2O2
Ontology: ;;;
INCHIKEY:  PRJKNHOMHKJCEJ-UHFFFAOYSA-N
SMILES:  OC(=O)CC1=CN=CN1
RETENTIONTIME:  
CCS:  122.0983555
IONMODE:  Negative
INSTRUMENTTYPE:  
INSTRUMENT:  Q-Exactive Plus
COLLISIONENERGY:  
Comment:  DB#=CCMSLIB00000578275; origin=GNPS
Num Peaks:  8
71.62815	20.0
71.63178	30.0
81.04434	1000.0
82.04776	20.0
125.03432	20.0
125.05978	10.0
125.09602	40.0
125.89844	20.0

NAME:  CYTIDINE 5'-TRIPHOSPHATE
PRECURSORMZ:  481.97723674883
PRECURSORTYPE:  [M-H]-
FORMULA:  C9H16N3O14P3
Ontology: Kingdom: Organic compounds;Superclass: Nucleosides;Class: Pyrimidine nucleotides;Subclass: Pyrimidine ribonucleotides
INCHIKEY:  PCDQPRRSZKQHHS-UHFFFAOYNA-N
SMILES:  NC1=NC(=O)N(C=C1)C1OC(COP(O)(=O)OP(O)(=O)OP(O)(O)=O)C(O)C1O
RETENTIONTIME:  
CCS:  185.8820477
IONMODE:  Negative
INSTRUMENTTYPE:  
INSTRUMENT:  Orbitrap
COLLISIONENERGY:  
Comment:  DB#=CCMSLIB00000578277; origin=GNPS
Num Peaks:  14
78.9576	210.0
96.96811	20.0
110.03471	30.0
116.92749	20.0
158.92445	1000.0
174.97929	20.0
176.93507	80.0
238.89166	60.0
272.95752	70.0
304.03494	20.0
384.00092	170.0
385.00192	10.0
402.01132	110.0
481.97766	20.0

NAME:  3',5'-CYCLIC AMP
PRECURSORMZ:  328.04524367183
PRECURSORTYPE:  [M-H]-
FORMULA:  C10H12N5O6P
Ontology: Kingdom: Organic compounds;Superclass: Nucleosides;Class: Purine nucleotides;Subclass: Cyclic purine nucleotides
INCHIKEY:  IVOMOUWHDPKRLL-UHFFFAOYNA-N
SMILES:  NC1=NC=NC2=C1N=CN2C1OC2COP(O)(=O)OC2C1O
RETENTIONTIME:  
CCS:  167.0918046
IONMODE:  Negative
INSTRUMENTTYPE:  
INSTRUMENT:  Q-Exactive Plus
COLLISIONENERGY:  
Comment:  DB#=CCMSLIB00000578278; origin=GNPS
Num Peaks:  9
78.95757	220.0
96.96821	20.0
116.92711	10.0
134.04605	1000.0
134.98392	10.0
135.05049	20.0
192.98997	20.0
328.04562	410.0
329.04803	20.0

NAME:  L-METHIONINE SULFOXIMINE
PRECURSORMZ:  179.04958697583
PRECURSORTYPE:  [M-H]-
FORMULA:  C5H12N2O3S
Ontology: Kingdom: Organic compounds;Superclass: Organic acids and derivatives;Class: Carboxylic acids and derivatives;Subclass: Amino acids
INCHIKEY:  SXTAYKAGBXMACB-UHFFFAOYNA-N
SMILES:  CS(=N)(=O)CCC(N)C(O)=O
RETENTIONTIME:  
CCS:  135.1457319
IONMODE:  Negative
INSTRUMENTTYPE:  
INSTRUMENT:  Q-Exactive Plus
COLLISIONENERGY:  
Comment:  DB#=CCMSLIB00000578279; origin=GNPS
Num Peaks:  4
61.96914	150.0
78.00044	1000.0
178.84326	10.0
179.04849	30.0

NAME:  CIS-4-HYDROXY-D-PROLINE
PRECURSORMZ:  130.05096670183
PRECURSORTYPE:  [M-H]-
FORMULA:  C5H9NO3
Ontology: Kingdom: Organic compounds;Superclass: Organic acids and derivatives;Class: Carboxylic acids and derivatives;Subclass: Amino acids
INCHIKEY:  PMMYEEVYMWASQN-UHFFFAOYNA-N
SMILES:  OC1CNC(C1)C(O)=O
RETENTIONTIME:  
CCS:  123.049502
IONMODE:  Negative
INSTRUMENTTYPE:  
INSTRUMENT:  Q-Exactive Plus
COLLISIONENERGY:  
Comment:  DB#=CCMSLIB00000578280; origin=GNPS
Num Peaks:  9
66.03347	20.0
68.04912	20.0
71.01246	10.0
73.02808	20.0
82.02846	10.0
84.04409	50.0
112.03911	60.0
130.04984	1000.0
131.05322	30.0

NAME:  4-AMINOBUTANOATE
PRECURSORMZ:  102.05605208183
PRECURSORTYPE:  [M-H]-
FORMULA:  C4H9NO2
Ontology: Kingdom: Organic compounds;Superclass: Organic acids and derivatives;Class: Carboxylic acids and derivatives;Subclass: Amino acids
INCHIKEY:  BTCSSZJGUNDROE-UHFFFAOYSA-N
SMILES:  NCCCC(O)=O
RETENTIONTIME:  
CCS:  124.8041472
IONMODE:  Negative
INSTRUMENTTYPE:  
INSTRUMENT:  Q-Exactive Plus
COLLISIONENERGY:  
Comment:  DB#=CCMSLIB00000578281; origin=GNPS
Num Peaks:  10
57.03309	20.0
59.01223	20.0
84.04404	110.0
101.02316	10.0
101.05944	320.0
101.92287	50.0
102.05472	1000.0
102.06205	50.0
103.03869	20.0
103.05771	20.0

NAME:  FORMYL-L-METHIONYL PEPTIDE
PRECURSORMZ:  176.03868793983
PRECURSORTYPE:  [M-H]-
FORMULA:  C6H11NO3S
Ontology: Kingdom: Organic compounds;Superclass: Organic acids and derivatives;Class: Carboxylic acids and derivatives;Subclass: Amino acids
INCHIKEY:  PYUSHNKNPOHWEZ-UHFFFAOYNA-N
SMILES:  CSCCC(NC=O)C(O)=O
RETENTIONTIME:  
CCS:  138.3984365
IONMODE:  Negative
INSTRUMENTTYPE:  
INSTRUMENT:  Q-Exactive Plus
COLLISIONENERGY:  
Comment:  DB#=CCMSLIB00000578282; origin=GNPS
Num Peaks:  12
57.03309	10.0
70.02828	30.0
82.0284	10.0
84.04401	360.0
98.02337	1000.0
99.02672	20.0
128.03412	840.0
129.0378	10.0
132.04767	50.0
175.04224	30.0
176.03781	540.0
177.04092	20.0

NAME:  5-HYDROXY-L-TRYPTOPHAN
PRECURSORMZ:  219.07751580183
PRECURSORTYPE:  [M-H]-
FORMULA:  C11H12N2O3
Ontology: Kingdom: Organic compounds;Superclass: Organoheterocyclic compounds;Class: Indoles and derivatives;Subclass: Tryptamines and derivatives
INCHIKEY:  LDCYZAJDBXYCGN-UHFFFAOYNA-N
SMILES:  NC(CC1=CNC2=C1C=C(O)C=C2)C(O)=O
RETENTIONTIME:  
CCS:  149.1947201
IONMODE:  Negative
INSTRUMENTTYPE:  
INSTRUMENT:  Q-Exactive Plus
COLLISIONENERGY:  
Comment:  DB#=CCMSLIB00000578283; origin=GNPS
Num Peaks:  14
72.00761	120.0
74.02328	470.0
132.04433	660.0
133.04779	20.0
144.04442	1000.0
145.04773	50.0
146.05997	10.0
158.06012	170.0
175.08676	100.0
202.05171	50.0
219.07722	480.0
219.17502	280.0
220.08066	30.0
220.1785	20.0

NAME:  D-ALANINE
PRECURSORMZ:  88.04040201683
PRECURSORTYPE:  [M-H]-
FORMULA:  C3H7NO2
Ontology: Kingdom: Organic compounds;Superclass: Organic acids and derivatives;Class: Carboxylic acids and derivatives;Subclass: Amino acids
INCHIKEY:  QNAYBMKLOCPYGJ-UHFFFAOYNA-N
SMILES:  CC(N)C(O)=O
RETENTIONTIME:  
CCS:  123.3560953
IONMODE:  Negative
INSTRUMENTTYPE:  
INSTRUMENT:  Q-Exactive Plus
COLLISIONENERGY:  
Comment:  DB#=CCMSLIB00000578284; origin=GNPS
Num Peaks:  4
87.04376	60.0
88.03904	1000.0
89.02304	90.0
89.0424	20.0

NAME:  THEOBROMINE
PRECURSORMZ:  179.05744906183
PRECURSORTYPE:  [M-H]-
FORMULA:  C7H8N4O2
Ontology: Kingdom: Organic compounds;Superclass: Organoheterocyclic compounds;Class: Imidazopyrimidines;Subclass: Purines and purine derivatives
INCHIKEY:  YAPQBXQYLJRXSA-UHFFFAOYSA-N
SMILES:  CN1C=NC2=C1C(=O)NC(=O)N2C
RETENTIONTIME:  
CCS:  136.8254768
IONMODE:  Negative
INSTRUMENTTYPE:  
INSTRUMENT:  Q-Exactive Plus
COLLISIONENERGY:  
Comment:  DB#=CCMSLIB00000578285; origin=GNPS
Num Peaks:  29
57.03304	20.0
70.0284	50.0
84.04402	380.0
85.04738	60.0
86.04823	10.0
92.99429	60.0
98.02333	1000.0
99.02668	150.0
99.92468	10.0
100.02763	100.0
128.03406	710.0
129.03761	130.0
130.0386	120.0
131.04147	10.0
134.0434	50.0
137.02275	20.0
178.03244	370.0
178.08553	10.0
178.84348	120.0
178.89961	50.0
178.91147	30.0
178.98238	20.0
179.03606	110.0
179.07022	90.0
179.10728	10.0
179.84364	10.0
179.90009	30.0
180.06587	40.0
196.90277	60.0

NAME:  L-HISTIDINE
PRECURSORMZ:  154.06220008983
PRECURSORTYPE:  [M-H]-
FORMULA:  C6H9N3O2
Ontology: Kingdom: Organic compounds;Superclass: Organic acids and derivatives;Class: Carboxylic acids and derivatives;Subclass: Amino acids
INCHIKEY:  HNDVDQJCIGZPNO-UHFFFAOYNA-N
SMILES:  NC(CC1=CN=CN1)C(O)=O
RETENTIONTIME:  
CCS:  129.4644498
IONMODE:  Negative
INSTRUMENTTYPE:  
INSTRUMENT:  Q-Exactive Plus
COLLISIONENERGY:  
Comment:  DB#=CCMSLIB00000578286; origin=GNPS
Num Peaks:  18
67.0286	20.0
72.00763	50.0
80.03648	20.0
81.04433	40.0
93.04442	240.0
108.0203	20.0
108.05538	40.0
109.02817	80.0
109.03942	30.0
110.03173	20.0
110.07107	110.0
118.03976	10.0
136.05051	70.0
137.03453	280.0
153.01834	40.0
154.06128	1000.0
154.94633	50.0
155.0652	30.0

NAME:  CITRAMALATE
PRECURSORMZ:  147.02989690583
PRECURSORTYPE:  [M-H]-
FORMULA:  C5H8O5
Ontology: Kingdom: Organic compounds;Superclass: Lipids and lipid;Class: Fatty Acyls;Subclass: Fatty acids and conjugates
INCHIKEY:  XFTRTWQBIOMVPK-UHFFFAOYNA-N
SMILES:  CC(O)(CC(O)=O)C(O)=O
RETENTIONTIME:  
CCS:  126.5102502
IONMODE:  Negative
INSTRUMENTTYPE:  
INSTRUMENT:  Q-Exactive Plus
COLLISIONENERGY:  
Comment:  DB#=CCMSLIB00000578287; origin=GNPS
Num Peaks:  12
57.03316	150.0
59.0124	40.0
85.02809	630.0
86.03152	10.0
87.00735	1000.0
88.01073	20.0
101.02307	20.0
103.03875	120.0
129.01813	180.0
146.02371	30.0
147.02885	650.0
148.03201	20.0

NAME:  DL-5-HYDROXYLYSINE
PRECURSORMZ:  161.09316586683
PRECURSORTYPE:  [M-H]-
FORMULA:  C6H14N2O3
Ontology: Kingdom: Organic compounds;Superclass: Organic acids and derivatives;Class: Carboxylic acids and derivatives;Subclass: Amino acids
INCHIKEY:  YSMODUONRAFBET-UHFFFAOYNA-N
SMILES:  NCC(O)CCC(N)C(O)=O
RETENTIONTIME:  
CCS:  130.4429096
IONMODE:  Negative
INSTRUMENTTYPE:  
INSTRUMENT:  Q-Exactive Plus
COLLISIONENERGY:  
Comment:  DB#=CCMSLIB00000578288; origin=GNPS
Num Peaks:  9
115.91946	1000.0
116.91947	50.0
116.92728	80.0
117.92734	20.0
118.9249	10.0
142.92377	20.0
160.93451	20.0
161.91273	280.0
162.9128	20.0

NAME:  OPHTHALMIC ACID
PRECURSORMZ:  288.12010889183
PRECURSORTYPE:  [M-H]-
FORMULA:  C11H19N3O6
Ontology: Kingdom: Organic compounds;Superclass: Organic acids and derivatives;Class: Peptidomimetics;Subclass: Peptoid
INCHIKEY:  SPLUHYDIQKURQW-UHFFFAOYNA-N
SMILES:  CCC(N)C(=O)N(CC(O)=O)C(=O)CCC(N)C(O)=O
RETENTIONTIME:  
CCS:  -1
IONMODE:  Negative
INSTRUMENTTYPE:  
INSTRUMENT:  Q-Exactive Plus
COLLISIONENERGY:  
Comment:  DB#=CCMSLIB00000578289; origin=GNPS
Num Peaks:  45
72.00771	30.0
74.02328	670.0
82.02839	70.0
84.04406	10.0
86.02335	20.0
98.05992	20.0
100.03902	250.0
100.07547	10.0
101.07076	10.0
102.0547	180.0
107.02373	10.0
112.03905	170.0
113.07073	20.0
115.08636	270.0
123.05522	30.0
125.07076	100.0
127.0499	50.0
128.03412	620.0
129.03781	10.0
139.08681	30.0
141.06583	350.0
145.06078	100.0
146.04482	130.0
151.0867	170.0
152.07071	40.0
159.07657	760.0
160.07982	20.0
165.10258	20.0
167.04533	210.0
169.09737	240.0
185.05605	70.0
195.07692	1000.0
196.08046	50.0
208.1087	160.0
209.09366	30.0
213.08768	160.0
226.11946	610.0
227.12239	20.0
244.13045	10.0
252.09904	20.0
270.10992	510.0
271.11386	20.0
288.12045	340.0
288.95132	10.0
289.12277	20.0

NAME:  2-HYDROXYBUTYRIC ACID
PRECURSORMZ:  103.04006766583
PRECURSORTYPE:  [M-H]-
FORMULA:  C4H8O3
Ontology: Kingdom: Organic compounds;Superclass: Organic acids and derivatives;Class: Hydroxy acids and derivatives;Subclass: Alpha hydroxy acids and derivatives
INCHIKEY:  AFENDNXGAFYKQO-UHFFFAOYNA-N
SMILES:  CCC(O)C(O)=O
RETENTIONTIME:  
CCS:  123.5577873
IONMODE:  Negative
INSTRUMENTTYPE:  
INSTRUMENT:  Q-Exactive Plus
COLLISIONENERGY:  
Comment:  DB#=CCMSLIB00000578291; origin=GNPS
Num Peaks:  9
57.03314	850.0
58.03659	20.0
71.98921	10.0
74.02333	30.0
85.0281	30.0
101.02325	30.0
103.03871	1000.0
103.04997	60.0
104.04203	30.0

NAME:  STACHYOSE
PRECURSORMZ:  665.21458191983
PRECURSORTYPE:  [M-H]-
FORMULA:  C24H42O21
Ontology: Kingdom: Organic compounds;Superclass: Organic oxygen compounds;Class: Organooxygen compounds;Subclass: Carbohydrates and carbohydrate conjugates
INCHIKEY:  UQZIYBXSHAGNOE-UHFFFAOYNA-N
SMILES:  OCC1OC(CO)(OC2OC(COC3OC(COC4OC(CO)C(O)C(O)C4O)C(O)C(O)C3O)C(O)C(O)C2O)C(O)C1O
RETENTIONTIME:  
CCS:  226.6763869
IONMODE:  Negative
INSTRUMENTTYPE:  
INSTRUMENT:  Q-Exactive Plus
COLLISIONENERGY:  
Comment:  DB#=CCMSLIB00000578292; origin=GNPS
Num Peaks:  32
59.01242	370.0
71.01238	350.0
73.02807	50.0
85.02795	30.0
87.00732	160.0
89.02298	550.0
95.01249	20.0
97.02785	20.0
99.00741	10.0
101.02301	490.0
113.02308	200.0
116.92723	30.0
119.03368	130.0
125.02316	70.0
131.03375	60.0
141.01787	10.0
143.03377	220.0
149.04434	30.0
161.04459	140.0
179.0553	500.0
180.05833	10.0
203.05574	80.0
221.06633	200.0
235.08235	10.0
263.07687	10.0
323.09827	20.0
341.10907	50.0
365.10883	10.0
383.1199	1000.0
384.12296	60.0
425.12939	20.0
485.151	40.0

NAME:  2'-DEOXYCYTIDINE 5'-DIPHOSPHATE
PRECURSORMZ:  386.01599123883
PRECURSORTYPE:  [M-H]-
FORMULA:  C9H15N3O10P2
Ontology: Kingdom: Organic compounds;Superclass: Organic oxygen compounds;Class: Organic oxoanionic compounds;Subclass: Organic pyrophosphates
INCHIKEY:  FTDHDKPUHBLBTL-UHFFFAOYNA-N
SMILES:  NC1=NC(=O)N(C=C1)C1CC(O)C(COP(O)(=O)OP(O)(O)=O)O1
RETENTIONTIME:  
CCS:  173.3973974
IONMODE:  Negative
INSTRUMENTTYPE:  
INSTRUMENT:  Q-Exactive Plus
COLLISIONENERGY:  
Comment:  DB#=CCMSLIB00000578293; origin=GNPS
Num Peaks:  11
71.83411	10.0
78.95756	1000.0
96.96822	70.0
158.92436	540.0
176.93501	40.0
176.99475	30.0
256.96222	130.0
274.97299	60.0
288.03918	10.0
368.00571	110.0
386.01605	90.0

NAME:  D-RIBOSE 5-PHOSPHATE
PRECURSORMZ:  229.01187785983
PRECURSORTYPE:  [M-H]-
FORMULA:  C5H11O8P
Ontology: Kingdom: Organic compounds;Superclass: Organic oxygen compounds;Class: Organooxygen compounds;Subclass: Carbohydrates and carbohydrate conjugates
INCHIKEY:  PPQRONHOSHZGFQ-UHFFFAOYNA-N
SMILES:  OC(COP(O)(O)=O)C(O)C(O)C=O
RETENTIONTIME:  
CCS:  140.3608267
IONMODE:  Negative
INSTRUMENTTYPE:  
INSTRUMENT:  Q-Exactive Plus
COLLISIONENERGY:  
Comment:  DB#=CCMSLIB00000578294; origin=GNPS
Num Peaks:  11
55.01736	30.0
99.00734	1000.0
100.01096	10.0
125.09601	20.0
184.9987	40.0
186.03023	30.0
212.00961	140.0
228.20496	80.0
229.18097	20.0
229.20638	10.0
230.02072	20.0

NAME:  3-HYDROXYKYNURENINE
PRECURSORMZ:  223.07243042183
PRECURSORTYPE:  [M-H]-
FORMULA:  C10H12N2O4
Ontology: Kingdom: Organic compounds;Superclass: Organic oxygen compounds;Class: Organooxygen compounds;Subclass: Carbonyl compounds
INCHIKEY:  VCKPUUFAIGNJHC-UHFFFAOYNA-N
SMILES:  NC(CC(=O)C1=C(N)C(O)=CC=C1)C(O)=O
RETENTIONTIME:  
CCS:  147.3516451
IONMODE:  Negative
INSTRUMENTTYPE:  
INSTRUMENT:  Q-Exactive Plus
COLLISIONENERGY:  
Comment:  DB#=CCMSLIB00000578295; origin=GNPS
Num Peaks:  22
59.01238	70.0
72.0076	100.0
108.04418	70.0
115.91944	10.0
116.92719	120.0
120.0442	50.0
134.05991	120.0
141.01619	20.0
144.04445	170.0
147.03146	240.0
160.0394	60.0
162.0551	1000.0
163.05859	40.0
188.03461	170.0
194.90475	20.0
205.05875	20.0
206.04535	200.0
223.02814	280.0
223.07579	20.0
223.13345	40.0
224.02858	20.0
224.16518	20.0

NAME:  N-ACETYL-DL-SERINE
PRECURSORMZ:  146.04588132183
PRECURSORTYPE:  [M-H]-
FORMULA:  C5H9NO4
Ontology: Kingdom: Organic compounds;Superclass: Organic acids and derivatives;Class: Carboxylic acids and derivatives;Subclass: Amino acids
INCHIKEY:  JJIHLJJYMXLCOY-UHFFFAOYNA-N
SMILES:  CC(=O)NC(CO)C(O)=O
RETENTIONTIME:  
CCS:  129.2874365
IONMODE:  Negative
INSTRUMENTTYPE:  
INSTRUMENT:  Q-Exactive Plus
COLLISIONENERGY:  
Comment:  DB#=CCMSLIB00000578297; origin=GNPS
Num Peaks:  12
57.03303	30.0
60.99154	20.0
70.02835	160.0
72.04402	90.0
74.02328	1000.0
84.04401	410.0
85.04741	20.0
98.02334	240.0
104.03394	120.0
116.03397	350.0
146.02383	190.0
146.04462	230.0

NAME:  URIDINE 5'-DIPHOSPHATE
PRECURSORMZ:  402.99492144283
PRECURSORTYPE:  [M-H]-
FORMULA:  C9H14N2O12P2
Ontology: Kingdom: Organic compounds;Superclass: Nucleosides;Class: Pyrimidine nucleotides;Subclass: Pyrimidine ribonucleotides
INCHIKEY:  XCCTYIAWTASOJW-UHFFFAOYNA-N
SMILES:  OC1C(O)C(OC1COP(O)(=O)OP(O)(O)=O)N1C=CC(=O)NC1=O
RETENTIONTIME:  
CCS:  174.4795701
IONMODE:  Negative
INSTRUMENTTYPE:  
INSTRUMENT:  Q-Exactive Plus
COLLISIONENERGY:  
Comment:  DB#=CCMSLIB00000578298; origin=GNPS
Num Peaks:  15
78.95759	970.0
96.96818	80.0
111.01865	560.0
116.92725	20.0
158.92439	1000.0
174.97932	30.0
176.93504	30.0
192.98991	40.0
211.00067	10.0
272.95731	240.0
290.96796	40.0
305.01849	80.0
323.02869	50.0
384.98456	130.0
402.99484	110.0

NAME:  3-METHYGLUTARIC ACID
PRECURSORMZ:  145.05063234983
PRECURSORTYPE:  [M-H]-
FORMULA:  C6H10O4
Ontology: Kingdom: Organic compounds;Superclass: Lipids and lipid;Class: Fatty Acyls;Subclass: Fatty acids and conjugates
INCHIKEY:  XJMMNTGIMDZPMU-UHFFFAOYSA-N
SMILES:  CC(CC(O)=O)CC(O)=O
RETENTIONTIME:  
CCS:  132.1082148
IONMODE:  Negative
INSTRUMENTTYPE:  
INSTRUMENT:  Q-Exactive Plus
COLLISIONENERGY:  
Comment:  DB#=CCMSLIB00000578299; origin=GNPS
Num Peaks:  7
83.04875	40.0
101.05941	1000.0
102.06267	30.0
127.03881	40.0
145.04951	260.0
146.02371	30.0
146.05302	10.0

NAME:  SORBATE
PRECURSORMZ:  111.04515304583
PRECURSORTYPE:  [M-H]-
FORMULA:  C6H8O2
Ontology: Kingdom: Organic compounds;Superclass: Lipids and lipid;Class: Fatty Acyls;Subclass: Fatty acids and conjugates
INCHIKEY:  WSWCOQWTEOXDQX-UHFFFAOYSA-N
SMILES:  CC=CC=CC(O)=O
RETENTIONTIME:  
CCS:  126.0135947
IONMODE:  Negative
INSTRUMENTTYPE:  
INSTRUMENT:  Q-Exactive Plus
COLLISIONENERGY:  
Comment:  DB#=CCMSLIB00000578300; origin=GNPS
Num Peaks:  16
56.80689	10.0
56.83287	10.0
65.9971	140.0
67.01723	10.0
67.05385	240.0
68.58772	10.0
73.08175	10.0
83.04861	20.0
86.95517	10.0
91.50565	10.0
110.99869	330.0
111.00622	20.0
111.01869	170.0
111.04382	1000.0
112.03972	10.0
112.04753	20.0

NAME:  4-HYDROXYBENZOATE
PRECURSORMZ:  137.02441760083
PRECURSORTYPE:  [M-H]-
FORMULA:  C7H6O3
Ontology: Kingdom: Organic compounds;Superclass: Benzenoids;Class: Benzene and substituted derivatives;Subclass: Benzoic acids and derivatives
INCHIKEY:  FJKROLUGYXJWQN-UHFFFAOYSA-N
SMILES:  OC(=O)C1=CC=C(O)C=C1
RETENTIONTIME:  
CCS:  124.4563324
IONMODE:  Negative
INSTRUMENTTYPE:  
INSTRUMENT:  Q-Exactive Plus
COLLISIONENERGY:  
Comment:  DB#=CCMSLIB00000578301; origin=GNPS
Num Peaks:  3
93.03316	1000.0
94.03643	30.0
137.02325	180.0

NAME:  TYRAMINE
PRECURSORMZ:  136.07678752583
PRECURSORTYPE:  [M-H]-
FORMULA:  C8H11NO
Ontology: Kingdom: Organic compounds;Superclass: Benzenoids;Class: Benzene and substituted derivatives;Subclass: Phenethylamines
INCHIKEY:  DZGWFCGJZKJUFP-UHFFFAOYSA-N
SMILES:  NCCC1=CC=C(O)C=C1
RETENTIONTIME:  
CCS:  130.139197
IONMODE:  Negative
INSTRUMENTTYPE:  
INSTRUMENT:  Q-Exactive Plus
COLLISIONENERGY:  
Comment:  DB#=CCMSLIB00000578302; origin=GNPS
Num Peaks:  20
72.10859	10.0
93.03316	60.0
94.97923	20.0
106.04102	380.0
108.02032	130.0
109.02818	20.0
109.94077	20.0
135.04349	40.0
135.89369	40.0
135.94388	20.0
135.96968	10.0
136.01569	40.0
136.03885	30.0
136.04765	20.0
136.07558	1000.0
136.8904	130.0
137.02313	50.0
137.03444	80.0
137.07922	50.0
138.03101	10.0

NAME:  CORTISOL
PRECURSORMZ:  361.20204761383
PRECURSORTYPE:  [M-H]-
FORMULA:  C21H30O5
Ontology: Kingdom: Organic compounds;Superclass: Lipids and lipid;Class: Steroids and steroid derivatives;Subclass: Hydroxysteroids
INCHIKEY:  JYGXADMDTFJGBT-UHFFFAOYNA-N
SMILES:  CC12CC(O)C3C(CCC4=CC(=O)CCC34C)C1CCC2(O)C(=O)CO
RETENTIONTIME:  
CCS:  192.2139568
IONMODE:  Negative
INSTRUMENTTYPE:  
INSTRUMENT:  Q-Exactive Plus
COLLISIONENERGY:  
Comment:  DB#=CCMSLIB00000578303; origin=GNPS
Num Peaks:  28
59.01239	70.0
119.01578	20.0
123.04387	20.0
123.08031	10.0
125.05955	300.0
137.0596	40.0
164.11502	10.0
189.09142	220.0
190.09442	10.0
196.07065	40.0
197.07507	40.0
282.12634	360.0
283.13022	20.0
297.14987	1000.0
298.15332	60.0
301.18121	70.0
313.1814	60.0
315.16058	280.0
316.16406	20.0
325.17993	10.0
329.17621	250.0
330.1795	20.0
331.19183	890.0
332.19522	60.0
343.19104	100.0
360.19055	390.0
361.19254	150.0
363.18149	30.0

NAME:  XANTHURENIC ACID
PRECURSORMZ:  204.03023125683
PRECURSORTYPE:  [M-H]-
FORMULA:  C10H7NO4
Ontology: Kingdom: Organic compounds;Superclass: Organoheterocyclic compounds;Class: Quinolines and derivatives;Subclass: Quinoline carboxylic acids
INCHIKEY:  FBZONXHGGPHHIY-UHFFFAOYSA-N
SMILES:  OC(=O)C1=CC(=O)C2=C(N1)C(O)=CC=C2
RETENTIONTIME:  
CCS:  140.5616599
IONMODE:  Negative
INSTRUMENTTYPE:  
INSTRUMENT:  Q-Exactive Plus
COLLISIONENERGY:  
Comment:  DB#=CCMSLIB00000578305; origin=GNPS
Num Peaks:  4
116.04924	20.0
160.03943	1000.0
161.04288	50.0
204.02965	110.0

NAME:  MELATONIN
PRECURSORMZ:  231.11390131083
PRECURSORTYPE:  [M-H]-
FORMULA:  C13H16N2O2
Ontology: Kingdom: Organic compounds;Superclass: Organoheterocyclic compounds;Class: Indoles and derivatives;Subclass: Indoles
INCHIKEY:  DRLFMBDRBRZALE-UHFFFAOYSA-N
SMILES:  COC1=CC2=C(NC=C2CCNC(C)=O)C=C1
RETENTIONTIME:  
CCS:  157.8868527
IONMODE:  Negative
INSTRUMENTTYPE:  
INSTRUMENT:  Q-Exactive Plus
COLLISIONENERGY:  
Comment:  DB#=CCMSLIB00000578306; origin=GNPS
Num Peaks:  8
58.0284	60.0
144.04436	230.0
145.05267	20.0
177.04225	10.0
216.09021	1000.0
217.09341	60.0
231.11375	230.0
232.1176	20.0

NAME:  MALEIC ACID
PRECURSORMZ:  115.00368215683
PRECURSORTYPE:  [M-H]-
FORMULA:  C4H4O4
Ontology: Kingdom: Organic compounds;Superclass: Organic acids and derivatives;Class: Carboxylic acids and derivatives;Subclass: Dicarboxylic acids and derivatives
INCHIKEY:  VZCYOOQTPOCHFL-UHFFFAOYSA-N
SMILES:  OC(=O)C=CC(O)=O
RETENTIONTIME:  
CCS:  121.1574639
IONMODE:  Negative
INSTRUMENTTYPE:  
INSTRUMENT:  Q-Exactive Plus
COLLISIONENERGY:  
Comment:  DB#=CCMSLIB00000578307; origin=GNPS
Num Peaks:  3
71.0124	1000.0
72.01574	20.0
115.00243	100.0

NAME:  4-HYDROXY-2-QUINOLINECARBOXYLIC ACID
PRECURSORMZ:  188.03531663683
PRECURSORTYPE:  [M-H]-
FORMULA:  C10H7NO3
Ontology: Kingdom: Organic compounds;Superclass: Organoheterocyclic compounds;Class: Quinolines and derivatives;Subclass: Quinoline carboxylic acids
INCHIKEY:  HCZHHEIFKROPDY-UHFFFAOYSA-N
SMILES:  OC(=O)C1=CC(=O)C2=CC=CC=C2N1
RETENTIONTIME:  
CCS:  137.578899
IONMODE:  Negative
INSTRUMENTTYPE:  
INSTRUMENT:  Q-Exactive Plus
COLLISIONENERGY:  
Comment:  DB#=CCMSLIB00000578308; origin=GNPS
Num Peaks:  3
144.0444	1000.0
145.0479	50.0
188.03461	40.0

NAME:  OXALOACETATE
PRECURSORMZ:  130.99859677683
PRECURSORTYPE:  [M-H]-
FORMULA:  C4H4O5
Ontology: Kingdom: Organic compounds;Superclass: Organic acids and derivatives;Class: Keto acids and derivatives;Subclass: Short
INCHIKEY:  KHPXUQMNIQBQEV-UHFFFAOYSA-N
SMILES:  OC(=O)CC(=O)C(O)=O
RETENTIONTIME:  
CCS:  121.6398816
IONMODE:  Negative
INSTRUMENTTYPE:  
INSTRUMENT:  Q-Exactive Plus
COLLISIONENERGY:  
Comment:  DB#=CCMSLIB00000578311; origin=GNPS
Num Peaks:  15
76.96868	20.0
85.06453	20.0
100.93229	240.0
101.93249	20.0
113.92498	40.0
115.91946	1000.0
116.91971	90.0
116.9272	20.0
130.06516	30.0
130.08597	20.0
130.09451	30.0
130.94301	20.0
130.99123	60.0
131.06984	20.0
132.01131	40.0

NAME:  2,3-DIHYDROXYBENZOATE
PRECURSORMZ:  153.01933222083
PRECURSORTYPE:  [M-H]-
FORMULA:  C7H6O4
Ontology: Kingdom: Organic compounds;Superclass: Benzenoids;Class: Benzene and substituted derivatives;Subclass: Benzoic acids and derivatives
INCHIKEY:  GLDQAMYCGOIJDV-UHFFFAOYSA-N
SMILES:  OC(=O)C1=C(O)C(O)=CC=C1
RETENTIONTIME:  
CCS:  125.7220801
IONMODE:  Negative
INSTRUMENTTYPE:  
INSTRUMENT:  Q-Exactive Plus
COLLISIONENERGY:  
Comment:  DB#=CCMSLIB00000578312; origin=GNPS
Num Peaks:  5
108.02019	10.0
109.02819	1000.0
110.03158	30.0
153.01837	990.0
154.02164	30.0

NAME:  INDOLE-3-ETHANOL
PRECURSORMZ:  160.07678752583
PRECURSORTYPE:  [M-H]-
FORMULA:  C10H11NO
Ontology: Kingdom: Organic compounds;Superclass: Organoheterocyclic compounds;Class: Indoles and derivatives;Subclass: Indoles
INCHIKEY:  MBBOMCVGYCRMEA-UHFFFAOYSA-N
SMILES:  OCCC1=CNC2=CC=CC=C12
RETENTIONTIME:  
CCS:  135.9579911
IONMODE:  Negative
INSTRUMENTTYPE:  
INSTRUMENT:  Q-Exactive Plus
COLLISIONENERGY:  
Comment:  DB#=CCMSLIB00000578313; origin=GNPS
Num Peaks:  14
100.92452	10.0
115.94798	20.0
116.04926	60.0
116.92728	60.0
117.92733	60.0
128.04918	10.0
130.06506	300.0
131.06859	10.0
142.06514	70.0
142.92409	10.0
159.93835	20.0
160.0759	1000.0
160.93408	10.0
161.0793	60.0

NAME:  FERULATE
PRECURSORMZ:  193.05063234983
PRECURSORTYPE:  [M-H]-
FORMULA:  C10H10O4
Ontology: Kingdom: Organic compounds;Superclass: Phenylpropanoids and polyketides;Class: Cinnamic acids and derivatives;Subclass: Hydroxycinnamic acids and derivatives
INCHIKEY:  KSEBMYQBYZTDHS-UHFFFAOYSA-N
SMILES:  COC1=C(O)C=CC(C=CC(O)=O)=C1
RETENTIONTIME:  
CCS:  140.2856104
IONMODE:  Negative
INSTRUMENTTYPE:  
INSTRUMENT:  Q-Exactive Plus
COLLISIONENERGY:  
Comment:  DB#=CCMSLIB00000578314; origin=GNPS
Num Peaks:  15
117.03322	30.0
121.0283	20.0
134.03618	1000.0
135.03943	40.0
137.02325	90.0
139.03888	30.0
149.05972	250.0
150.06317	10.0
174.89992	30.0
175.04237	130.0
178.02637	690.0
179.02968	30.0
192.91063	80.0
193.05	260.0
194.05324	10.0

NAME:  GLYCOCHOLATE
PRECURSORMZ:  464.30176165683
PRECURSORTYPE:  [M-H]-
FORMULA:  C26H43NO6
Ontology: Kingdom: Organic compounds;Superclass: Lipids and lipid;Class: Steroids and steroid derivatives;Subclass: Bile acids
INCHIKEY:  RFDAIACWWDREDC-UHFFFAOYNA-N
SMILES:  CC(CCC(=O)NCC(O)=O)C1CCC2C3C(O)CC4CC(O)CCC4(C)C3CC(O)C12C
RETENTIONTIME:  
CCS:  208.1047896
IONMODE:  Negative
INSTRUMENTTYPE:  
INSTRUMENT:  Q-Exactive Plus
COLLISIONENERGY:  
Comment:  DB#=CCMSLIB00000578315; origin=GNPS
Num Peaks:  4
74.0233	380.0
402.30182	30.0
464.30212	1000.0
465.30548	110.0

NAME:  CATECHOL
PRECURSORMZ:  109.02950298083
PRECURSORTYPE:  [M-H]-
FORMULA:  C6H6O2
Ontology: Kingdom: Organic compounds;Superclass: Benzenoids;Class: Phenols;Subclass: Benzenediols
INCHIKEY:  YCIMNLLNPGFGHC-UHFFFAOYSA-N
SMILES:  OC1=CC=CC=C1O
RETENTIONTIME:  
CCS:  117.450125
IONMODE:  Negative
INSTRUMENTTYPE:  
INSTRUMENT:  Q-Exactive Plus
COLLISIONENERGY:  
Comment:  DB#=CCMSLIB00000578318; origin=GNPS
Num Peaks:  4
81.03316	10.0
108.02039	60.0
109.02821	1000.0
110.03152	30.0

NAME:  3,4-DIHYDROXYBENZOATE
PRECURSORMZ:  153.01933222083
PRECURSORTYPE:  [M-H]-
FORMULA:  C7H6O4
Ontology: Kingdom: Organic compounds;Superclass: Benzenoids;Class: Benzene and substituted derivatives;Subclass: Benzoic acids and derivatives
INCHIKEY:  YQUVCSBJEUQKSH-UHFFFAOYSA-N
SMILES:  OC(=O)C1=CC(O)=C(O)C=C1
RETENTIONTIME:  
CCS:  127.0633983
IONMODE:  Negative
INSTRUMENTTYPE:  
INSTRUMENT:  Q-Exactive Plus
COLLISIONENERGY:  
Comment:  DB#=CCMSLIB00000578319; origin=GNPS
Num Peaks:  5
108.02023	20.0
109.02815	1000.0
110.03152	30.0
153.0183	370.0
154.02159	10.0

NAME:  10-HYDROXYDECANOATE
PRECURSORMZ:  187.13396805183
PRECURSORTYPE:  [M-H]-
FORMULA:  C10H20O3
Ontology: Kingdom: Organic compounds;Superclass: Organic acids and derivatives;Class: Hydroxy acids and derivatives;Subclass: Medium
INCHIKEY:  YJCJVMMDTBEITC-UHFFFAOYSA-N
SMILES:  OCCCCCCCCCC(O)=O
RETENTIONTIME:  
CCS:  146.644879
IONMODE:  Negative
INSTRUMENTTYPE:  
INSTRUMENT:  Q-Exactive Plus
COLLISIONENERGY:  
Comment:  DB#=CCMSLIB00000578321; origin=GNPS
Num Peaks:  4
141.12741	40.0
169.12248	20.0
187.13333	1000.0
188.13672	50.0

NAME:  3,4-DIHYDROXYPHENYLACETATE
PRECURSORMZ:  167.03498228583
PRECURSORTYPE:  [M-H]-
FORMULA:  C8H8O4
Ontology: Kingdom: Organic compounds;Superclass: Benzenoids;Class: Phenols;Subclass: Benzenediols
INCHIKEY:  CFFZDZCDUFSOFZ-UHFFFAOYSA-N
SMILES:  OC(=O)CC1=CC(O)=C(O)C=C1
RETENTIONTIME:  
CCS:  132.4441112
IONMODE:  Negative
INSTRUMENTTYPE:  
INSTRUMENT:  Q-Exactive Plus
COLLISIONENERGY:  
Comment:  DB#=CCMSLIB00000578322; origin=GNPS
Num Peaks:  9
83.01237	40.0
108.02026	60.0
111.00739	30.0
123.00749	10.0
123.04378	10.0
124.01537	20.0
152.01044	190.0
167.03406	1000.0
168.03763	40.0

NAME:  N6-(DELTA2-ISOPENTENYL)-ADENINE
PRECURSORMZ:  202.10981898683
PRECURSORTYPE:  [M-H]-
FORMULA:  C10H13N5
Ontology: Kingdom: Organic compounds;Superclass: Organoheterocyclic compounds;Class: Imidazopyrimidines;Subclass: Purines and purine derivatives
INCHIKEY:  HYVABZIGRDEKCD-UHFFFAOYSA-N
SMILES:  CC(C)=CCNC1=NC=NC2=C1NC=N2
RETENTIONTIME:  
CCS:  148.2486578
IONMODE:  Negative
INSTRUMENTTYPE:  
INSTRUMENT:  Q-Exactive Plus
COLLISIONENERGY:  
Comment:  DB#=CCMSLIB00000578323; origin=GNPS
Num Peaks:  6
133.03822	380.0
134.04605	1000.0
135.05043	20.0
146.04602	20.0
202.10931	700.0
203.11272	30.0

NAME:  3-HYDROXYANTHRANILATE
PRECURSORMZ:  152.03531663683
PRECURSORTYPE:  [M-H]-
FORMULA:  C7H7NO3
Ontology: Kingdom: Organic compounds;Superclass: Benzenoids;Class: Benzene and substituted derivatives;Subclass: Benzoic acids and derivatives
INCHIKEY:  WJXSWCUQABXPFS-UHFFFAOYSA-N
SMILES:  NC1=C(C=CC=C1O)C(O)=O
RETENTIONTIME:  
CCS:  126.8421936
IONMODE:  Negative
INSTRUMENTTYPE:  
INSTRUMENT:  Q-Exactive Plus
COLLISIONENERGY:  
Comment:  DB#=CCMSLIB00000578325; origin=GNPS
Num Peaks:  8
91.0175	20.0
107.03631	60.0
108.04416	1000.0
109.02811	40.0
109.04748	30.0
136.01538	10.0
152.0343	250.0
153.01825	20.0

NAME:  HIPPURATE
PRECURSORMZ:  178.05096670183
PRECURSORTYPE:  [M-H]-
FORMULA:  C9H9NO3
Ontology: Kingdom: Organic compounds;Superclass: Benzenoids;Class: Benzene and substituted derivatives;Subclass: Benzoic acids and derivatives
INCHIKEY:  QIAFMBKCNZACKA-UHFFFAOYSA-N
SMILES:  OC(=O)CNC(=O)C1=CC=CC=C1
RETENTIONTIME:  
CCS:  137.7861442
IONMODE:  Negative
INSTRUMENTTYPE:  
INSTRUMENT:  Q-Exactive Plus
COLLISIONENERGY:  
Comment:  DB#=CCMSLIB00000578327; origin=GNPS
Num Peaks:  6
56.0127	20.0
132.0443	30.0
134.06	1000.0
135.06345	40.0
178.05023	640.0
179.05377	30.0

NAME:  ETHYLMALONIC ACID
PRECURSORMZ:  131.03498228583
PRECURSORTYPE:  [M-H]-
FORMULA:  C5H8O4
Ontology: Kingdom: Organic compounds;Superclass: Lipids and lipid;Class: Fatty Acyls;Subclass: Fatty acids and conjugates
INCHIKEY:  UKFXDFUAPNAMPJ-UHFFFAOYSA-N
SMILES:  CCC(C(O)=O)C(O)=O
RETENTIONTIME:  
CCS:  125.7912518
IONMODE:  Negative
INSTRUMENTTYPE:  
INSTRUMENT:  Q-Exactive Plus
COLLISIONENERGY:  
Comment:  DB#=CCMSLIB00000578328; origin=GNPS
Num Peaks:  4
73.03419	10.0
87.04377	1000.0
88.04736	40.0
131.03351	10.0

NAME:  FUMARATE
PRECURSORMZ:  115.00368215683
PRECURSORTYPE:  [M-H]-
FORMULA:  C4H4O4
Ontology: Kingdom: Organic compounds;Superclass: Organic acids and derivatives;Class: Carboxylic acids and derivatives;Subclass: Dicarboxylic acids and derivatives
INCHIKEY:  VZCYOOQTPOCHFL-UHFFFAOYSA-N
SMILES:  OC(=O)C=CC(O)=O
RETENTIONTIME:  
CCS:  121.1574639
IONMODE:  Negative
INSTRUMENTTYPE:  
INSTRUMENT:  Q-Exactive Plus
COLLISIONENERGY:  
Comment:  DB#=CCMSLIB00000578330; origin=GNPS
Num Peaks:  10
71.01237	880.0
71.0487	60.0
72.0157	10.0
72.72935	20.0
97.92989	100.0
114.93275	1000.0
115.00237	140.0
115.03879	40.0
115.07506	100.0
115.91921	20.0

NAME:  3-METHOXYTYRAMINE
PRECURSORMZ:  166.08735221083
PRECURSORTYPE:  [M-H]-
FORMULA:  C9H13NO2
Ontology: Kingdom: Organic compounds;Superclass: Benzenoids;Class: Phenols;Subclass: Methoxyphenols
INCHIKEY:  DIVQKHQLANKJQO-UHFFFAOYSA-N
SMILES:  COC1=C(O)C=CC(CCN)=C1
RETENTIONTIME:  
CCS:  136.9965264
IONMODE:  Negative
INSTRUMENTTYPE:  
INSTRUMENT:  Q-Exactive Plus
COLLISIONENERGY:  
Comment:  DB#=CCMSLIB00000578333; origin=GNPS
Num Peaks:  8
106.04102	40.0
119.04885	10.0
121.06458	1000.0
122.06793	250.0
147.04404	100.0
148.04733	30.0
165.05478	230.0
166.05814	80.0

NAME:  4-AMINOBENZOATE
PRECURSORMZ:  136.04040201683
PRECURSORTYPE:  [M-H]-
FORMULA:  C7H7NO2
Ontology: Kingdom: Organic compounds;Superclass: Benzenoids;Class: Benzene and substituted derivatives;Subclass: Benzoic acids and derivatives
INCHIKEY:  ALYNCZNDIQEVRV-UHFFFAOYSA-N
SMILES:  NC1=CC=C(C=C1)C(O)=O
RETENTIONTIME:  
CCS:  125.7192229
IONMODE:  Negative
INSTRUMENTTYPE:  
INSTRUMENT:  Q-Exactive Plus
COLLISIONENERGY:  
Comment:  DB#=CCMSLIB00000578334; origin=GNPS
Num Peaks:  17
59.01238	40.0
71.01232	10.0
72.99165	30.0
75.00726	350.0
76.01062	30.0
89.02293	20.0
92.04913	1000.0
93.03316	10.0
93.05227	40.0
135.02872	130.0
135.89357	60.0
136.01729	20.0
136.03937	450.0
136.89058	140.0
137.02335	320.0
137.03395	30.0
137.04274	20.0

NAME:  ANTHRANILATE
PRECURSORMZ:  136.04040201683
PRECURSORTYPE:  [M-H]-
FORMULA:  C7H7NO2
Ontology: Kingdom: Organic compounds;Superclass: Benzenoids;Class: Benzene and substituted derivatives;Subclass: Benzoic acids and derivatives
INCHIKEY:  RWZYAGGXGHYGMB-UHFFFAOYSA-N
SMILES:  NC1=CC=CC=C1C(O)=O
RETENTIONTIME:  
CCS:  124.4120246
IONMODE:  Negative
INSTRUMENTTYPE:  
INSTRUMENT:  Q-Exactive Plus
COLLISIONENERGY:  
Comment:  DB#=CCMSLIB00000578338; origin=GNPS
Num Peaks:  6
92.0492	1000.0
93.0524	30.0
135.89365	80.0
136.03925	210.0
136.89059	180.0
137.02335	170.0

NAME:  2,5-DIHYDROXYBENZOATE
PRECURSORMZ:  153.01933222083
PRECURSORTYPE:  [M-H]-
FORMULA:  C7H6O4
Ontology: Kingdom: Organic compounds;Superclass: Benzenoids;Class: Benzene and substituted derivatives;Subclass: Benzoic acids and derivatives
INCHIKEY:  WXTMDXOMEHJXQO-UHFFFAOYSA-N
SMILES:  OC(=O)C1=C(O)C=CC(O)=C1
RETENTIONTIME:  
CCS:  125.7083044
IONMODE:  Negative
INSTRUMENTTYPE:  
INSTRUMENT:  Q-Exactive Plus
COLLISIONENERGY:  
Comment:  DB#=CCMSLIB00000578339; origin=GNPS
Num Peaks:  10
81.03308	10.0
85.02805	30.0
95.01243	30.0
108.02034	210.0
109.02818	1000.0
110.03149	30.0
123.00748	20.0
152.01027	20.0
153.01833	590.0
154.02174	20.0

NAME:  2-METHYLMALEATE
PRECURSORMZ:  129.01933222083
PRECURSORTYPE:  [M-H]-
FORMULA:  C5H6O4
Ontology: Kingdom: Organic compounds;Superclass: Lipids and lipid;Class: Fatty Acyls;Subclass: Fatty acids and conjugates
INCHIKEY:  HNEGQIOMVPPMNR-UHFFFAOYSA-N
SMILES:  CC(=CC(O)=O)C(O)=O
RETENTIONTIME:  
CCS:  123.7364894
IONMODE:  Negative
INSTRUMENTTYPE:  
INSTRUMENT:  Q-Exactive Plus
COLLISIONENERGY:  
Comment:  DB#=CCMSLIB00000578340; origin=GNPS
Num Peaks:  4
85.02805	1000.0
86.03124	30.0
129.01823	100.0
129.09088	40.0

NAME:  HYDROQUINONE
PRECURSORMZ:  109.02950298083
PRECURSORTYPE:  [M-H]-
FORMULA:  C6H6O2
Ontology: Kingdom: Organic compounds;Superclass: Benzenoids;Class: Phenols;Subclass: Benzenediols
INCHIKEY:  QIGBRXMKCJKVMJ-UHFFFAOYSA-N
SMILES:  OC1=CC=C(O)C=C1
RETENTIONTIME:  
CCS:  118.894999
IONMODE:  Negative
INSTRUMENTTYPE:  
INSTRUMENT:  Q-Exactive Plus
COLLISIONENERGY:  
Comment:  DB#=CCMSLIB00000578341; origin=GNPS
Num Peaks:  9
65.53883	10.0
66.03335	20.0
81.03315	20.0
108.02033	1000.0
108.0444	20.0
109.0223	20.0
109.02893	410.0
109.03939	150.0
110.02303	20.0

NAME:  DETHIOBIOTIN
PRECURSORMZ:  213.12446599583
PRECURSORTYPE:  [M-H]-
FORMULA:  C10H18N2O3
Ontology: Kingdom: Organic compounds;Superclass: Organoheterocyclic compounds;Class: Azoles;Subclass: Imidazoles
INCHIKEY:  AUTOLBMXDDTRRT-UHFFFAOYNA-N
SMILES:  CC1NC(=O)NC1CCCCCC(O)=O
RETENTIONTIME:  
CCS:  151.8338782
IONMODE:  Negative
INSTRUMENTTYPE:  
INSTRUMENT:  Q-Exactive Plus
COLLISIONENERGY:  
Comment:  DB#=CCMSLIB00000578342; origin=GNPS
Num Peaks:  7
126.09124	20.0
169.13373	210.0
170.11778	240.0
213.12408	1000.0
213.18529	190.0
214.12744	60.0
214.18861	10.0

NAME:  N-ACETYLSEROTONIN
PRECURSORMZ:  217.09825124683
PRECURSORTYPE:  [M-H]-
FORMULA:  C12H14N2O2
Ontology: Kingdom: Organic compounds;Superclass: Organoheterocyclic compounds;Class: Indoles and derivatives;Subclass: Hydroxyindoles
INCHIKEY:  MVAWJSIDNICKHF-UHFFFAOYSA-N
SMILES:  CC(=O)NCCC1=CNC2=C1C=C(O)C=C2
RETENTIONTIME:  
CCS:  152.4110439
IONMODE:  Negative
INSTRUMENTTYPE:  
INSTRUMENT:  Q-Exactive Plus
COLLISIONENERGY:  
Comment:  DB#=CCMSLIB00000578344; origin=GNPS
Num Peaks:  19
58.02837	310.0
59.01241	60.0
71.41198	20.0
116.92728	40.0
119.0155	10.0
131.03651	60.0
144.04459	10.0
146.06026	30.0
157.05229	10.0
158.06015	730.0
159.06381	30.0
174.9915	30.0
175.08696	20.0
199.85051	80.0
200.85078	20.0
216.85355	50.0
217.09808	1000.0
217.11993	30.0
218.10179	60.0

NAME:  AZELAIC ACID
PRECURSORMZ:  187.09758254283
PRECURSORTYPE:  [M-H]-
FORMULA:  C9H16O4
Ontology: Kingdom: Organic compounds;Superclass: Lipids and lipid;Class: Fatty Acyls;Subclass: Fatty acids and conjugates
INCHIKEY:  BDJRBEYXGGNYIS-UHFFFAOYSA-N
SMILES:  OC(=O)CCCCCCCC(O)=O
RETENTIONTIME:  
CCS:  143.7791184
IONMODE:  Negative
INSTRUMENTTYPE:  
INSTRUMENT:  Q-Exactive Plus
COLLISIONENERGY:  
Comment:  DB#=CCMSLIB00000578346; origin=GNPS
Num Peaks:  11
59.01231	20.0
71.58424	20.0
97.0644	50.0
123.08018	20.0
125.09597	1000.0
126.0994	50.0
143.10655	20.0
169.08627	20.0
186.15784	20.0
187.09685	540.0
188.10013	30.0

NAME:  MONO-METHYL GLUTARATE
PRECURSORMZ:  145.05063234983
PRECURSORTYPE:  [M-H]-
FORMULA:  C6H10O4
Ontology: Kingdom: Organic compounds;Superclass: Lipids and lipid;Class: Fatty Acyls;Subclass: Fatty acid esters
INCHIKEY:  IBMRTYCHDPMBFN-UHFFFAOYSA-N
SMILES:  COC(=O)CCCC(O)=O
RETENTIONTIME:  
CCS:  132.4007148
IONMODE:  Negative
INSTRUMENTTYPE:  
INSTRUMENT:  Q-Exactive Plus
COLLISIONENERGY:  
Comment:  DB#=CCMSLIB00000578347; origin=GNPS
Num Peaks:  6
83.04877	90.0
101.05944	690.0
102.06271	20.0
127.03879	50.0
145.04955	220.0
146.02371	1000.0

NAME:  N-ACETYL-L-LEUCINE
PRECURSORMZ:  172.09791689483
PRECURSORTYPE:  [M-H]-
FORMULA:  C8H15NO3
Ontology: Kingdom: Organic compounds;Superclass: Organic acids and derivatives;Class: Carboxylic acids and derivatives;Subclass: Amino acids
INCHIKEY:  WXNXCEHXYPACJF-UHFFFAOYNA-N
SMILES:  CC(C)CC(NC(C)=O)C(O)=O
RETENTIONTIME:  
CCS:  138.7063501
IONMODE:  Negative
INSTRUMENTTYPE:  
INSTRUMENT:  Q-Exactive Plus
COLLISIONENERGY:  
Comment:  DB#=CCMSLIB00000578349; origin=GNPS
Num Peaks:  4
128.10681	30.0
130.08615	1000.0
131.08961	30.0
172.09702	230.0

NAME:  2-OXOADIPATE
PRECURSORMZ:  159.02989690583
PRECURSORTYPE:  [M-H]-
FORMULA:  C6H8O5
Ontology: Kingdom: Organic compounds;Superclass: Organic acids and derivatives;Class: Keto acids and derivatives;Subclass: Medium
INCHIKEY:  FGSBNBBHOZHUBO-UHFFFAOYSA-N
SMILES:  OC(=O)CCCC(=O)C(O)=O
RETENTIONTIME:  
CCS:  130.3764319
IONMODE:  Negative
INSTRUMENTTYPE:  
INSTRUMENT:  Q-Exactive Plus
COLLISIONENERGY:  
Comment:  DB#=CCMSLIB00000578351; origin=GNPS
Num Peaks:  15
59.01239	1000.0
60.0158	10.0
71.01235	20.0
87.00729	30.0
87.04369	130.0
97.02809	40.0
99.92436	20.0
114.9479	30.0
115.03877	480.0
116.04215	10.0
116.92725	80.0
158.12589	30.0
158.93813	20.0
159.02896	170.0
159.89284	10.0

NAME:  3-METHOXY-4-HYDROXYMANDELATE
PRECURSORMZ:  197.04554696983
PRECURSORTYPE:  [M-H]-
FORMULA:  C9H10O5
Ontology: Kingdom: Organic compounds;Superclass: Benzenoids;Class: Phenols;Subclass: Methoxyphenols
INCHIKEY:  CGQCWMIAEPEHNQ-UHFFFAOYNA-N
SMILES:  COC1=C(O)C=CC(=C1)C(O)C(O)=O
RETENTIONTIME:  
CCS:  139.8955774
IONMODE:  Negative
INSTRUMENTTYPE:  
INSTRUMENT:  Q-Exactive Plus
COLLISIONENERGY:  
Comment:  DB#=CCMSLIB00000578353; origin=GNPS
Num Peaks:  5
136.01544	10.0
137.02327	1000.0
138.03012	40.0
181.00072	20.0
197.04485	190.0

NAME:  HOMOVANILLATE
PRECURSORMZ:  181.05063234983
PRECURSORTYPE:  [M-H]-
FORMULA:  C9H10O4
Ontology: Kingdom: Organic compounds;Superclass: Benzenoids;Class: Phenols;Subclass: Methoxyphenols
INCHIKEY:  QRMZSPFSDQBLIX-UHFFFAOYSA-N
SMILES:  COC1=C(O)C=CC(CC(O)=O)=C1
RETENTIONTIME:  
CCS:  137.0702181
IONMODE:  Negative
INSTRUMENTTYPE:  
INSTRUMENT:  Q-Exactive Plus
COLLISIONENERGY:  
Comment:  DB#=CCMSLIB00000578354; origin=GNPS
Num Peaks:  17
105.03321	10.0
107.04889	30.0
121.02822	50.0
122.03605	570.0
123.04491	50.0
124.01524	20.0
135.00771	20.0
136.01538	60.0
136.05208	10.0
137.02336	20.0
137.03464	70.0
137.05963	1000.0
138.06303	50.0
154.02605	20.0
166.01402	20.0
181.02502	110.0
181.04971	200.0

NAME:  3-HYDROXYBENZOATE
PRECURSORMZ:  137.02441760083
PRECURSORTYPE:  [M-H]-
FORMULA:  C7H6O3
Ontology: Kingdom: Organic compounds;Superclass: Benzenoids;Class: Benzene and substituted derivatives;Subclass: Benzoic acids and derivatives
INCHIKEY:  IJFXRHURBJZNAO-UHFFFAOYSA-N
SMILES:  OC(=O)C1=CC(O)=CC=C1
RETENTIONTIME:  
CCS:  123.0790954
IONMODE:  Negative
INSTRUMENTTYPE:  
INSTRUMENT:  Q-Exactive Plus
COLLISIONENERGY:  
Comment:  DB#=CCMSLIB00000578358; origin=GNPS
Num Peaks:  4
93.03317	1000.0
94.03648	30.0
137.02327	440.0
138.02684	20.0

NAME:  HOMOGENTISATE
PRECURSORMZ:  167.03498228583
PRECURSORTYPE:  [M-H]-
FORMULA:  C8H8O4
Ontology: Kingdom: Organic compounds;Superclass: Benzenoids;Class: Benzene and substituted derivatives;Subclass: Phenylacetic acids
INCHIKEY:  IGMNYECMUMZDDF-UHFFFAOYSA-N
SMILES:  OC(=O)CC1=C(O)C=CC(O)=C1
RETENTIONTIME:  
CCS:  131.2560352
IONMODE:  Negative
INSTRUMENTTYPE:  
INSTRUMENT:  Q-Exactive Plus
COLLISIONENERGY:  
Comment:  DB#=CCMSLIB00000578359; origin=GNPS
Num Peaks:  7
108.02035	40.0
109.02827	20.0
122.03611	90.0
123.04395	1000.0
124.04723	30.0
137.0233	20.0
167.03418	30.0

NAME:  INDOLE-3-ACETALDEHYDE
PRECURSORMZ:  158.06113746183
PRECURSORTYPE:  [M-H]-
FORMULA:  C10H9NO
Ontology: Kingdom: Organic compounds;Superclass: Organoheterocyclic compounds;Class: Indoles and derivatives;Subclass: Indoles
INCHIKEY:  WHOOUMGHGSPMGR-UHFFFAOYSA-N
SMILES:  O=CCC1=CNC2=CC=CC=C12
RETENTIONTIME:  
CCS:  134.3093908
IONMODE:  Negative
INSTRUMENTTYPE:  
INSTRUMENT:  Q-Exactive Plus
COLLISIONENERGY:  
Comment:  DB#=CCMSLIB00000578360; origin=GNPS
Num Peaks:  11
116.92731	20.0
128.04935	280.0
130.06499	300.0
131.06859	10.0
146.05995	30.0
156.04469	10.0
157.12241	530.0
158.06013	1000.0
158.12573	120.0
159.06357	60.0
172.03958	40.0

NAME:  3-HYDROXYPHENYLACETATE
PRECURSORMZ:  151.04006766583
PRECURSORTYPE:  [M-H]-
FORMULA:  C8H8O3
Ontology: Kingdom: Organic compounds;Superclass: Benzenoids;Class: Phenols;
INCHIKEY:  FVMDYYGIDFPZAX-UHFFFAOYSA-N
SMILES:  OC(=O)CC1=CC(O)=CC=C1
RETENTIONTIME:  
CCS:  128.5505864
IONMODE:  Negative
INSTRUMENTTYPE:  
INSTRUMENT:  Q-Exactive Plus
COLLISIONENERGY:  
Comment:  DB#=CCMSLIB00000578361; origin=GNPS
Num Peaks:  21
65.03821	20.0
93.03327	20.0
107.04896	40.0
108.02002	30.0
109.02815	90.0
121.02824	20.0
122.03663	20.0
133.02826	10.0
135.00751	30.0
136.01538	580.0
137.0188	20.0
150.00082	250.0
150.05409	20.0
151.00478	130.0
151.03896	1000.0
151.0748	30.0
151.99652	50.0
152.00999	20.0
152.03307	130.0
152.04237	30.0
153.0182	30.0

NAME:  4-METHYLCATECHOL
PRECURSORMZ:  123.04515304583
PRECURSORTYPE:  [M-H]-
FORMULA:  C7H8O2
Ontology: Kingdom: Organic compounds;Superclass: Benzenoids;Class: Phenols;Subclass: Benzenediols
INCHIKEY:  ZBCATMYQYDCTIZ-UHFFFAOYSA-N
SMILES:  CC1=CC(O)=C(O)C=C1
RETENTIONTIME:  
CCS:  121.5866975
IONMODE:  Negative
INSTRUMENTTYPE:  
INSTRUMENT:  Q-Exactive Plus
COLLISIONENERGY:  
Comment:  DB#=CCMSLIB00000578362; origin=GNPS
Num Peaks:  7
108.02032	220.0
109.02898	20.0
121.02834	10.0
122.03614	1000.0
123.04443	730.0
124.04734	40.0
137.02319	10.0

NAME:  3-(4-HYDROXYPHENYL)LACTATE
PRECURSORMZ:  181.05063234983
PRECURSORTYPE:  [M-H]-
FORMULA:  C9H10O4
Ontology: Kingdom: Organic compounds;Superclass: Phenylpropanoids and polyketides;Class: Phenylpropanoic acids;
INCHIKEY:  JVGVDSSUAVXRDY-UHFFFAOYNA-N
SMILES:  OC(CC1=CC=C(O)C=C1)C(O)=O
RETENTIONTIME:  
CCS:  137.895121
IONMODE:  Negative
INSTRUMENTTYPE:  
INSTRUMENT:  Q-Exactive Plus
COLLISIONENERGY:  
Comment:  DB#=CCMSLIB00000578364; origin=GNPS
Num Peaks:  12
72.99169	220.0
93.03323	10.0
107.04909	10.0
119.04899	350.0
120.05229	10.0
135.04404	660.0
136.04739	30.0
137.03442	20.0
163.0392	1000.0
164.04256	50.0
181.04994	780.0
182.05333	40.0

NAME:  BIOTIN
PRECURSORMZ:  243.08088710483
PRECURSORTYPE:  [M-H]-
FORMULA:  C10H16N2O3S
Ontology: Kingdom: Organic compounds;Superclass: Organoheterocyclic compounds;Class: Biotin and derivatives;
INCHIKEY:  YBJHBAHKTGYVGT-UHFFFAOYNA-N
SMILES:  OC(=O)CCCCC1SCC2NC(=O)NC12
RETENTIONTIME:  
CCS:  158.6727271
IONMODE:  Negative
INSTRUMENTTYPE:  
INSTRUMENT:  Q-Exactive Plus
COLLISIONENERGY:  
Comment:  DB#=CCMSLIB00000578365; origin=GNPS
Num Peaks:  17
68.04917	20.0
74.0055	60.0
97.03928	10.0
120.0807	30.0
122.09624	90.0
139.05737	20.0
156.08424	110.0
165.10243	70.0
166.08649	450.0
167.08986	20.0
197.0925	40.0
199.09048	80.0
200.07455	650.0
201.07797	30.0
209.09288	60.0
243.0809	1000.0
244.08382	50.0

NAME:  5-HYDROXYINDOLEACETATE
PRECURSORMZ:  190.05096670183
PRECURSORTYPE:  [M-H]-
FORMULA:  C10H9NO3
Ontology: Kingdom: Organic compounds;Superclass: Organoheterocyclic compounds;Class: Indoles and derivatives;Subclass: Indolyl carboxylic acids and derivatives
INCHIKEY:  DUUGKQCEGZLZNO-UHFFFAOYSA-N
SMILES:  OC(=O)CC1=CNC2=C1C=C(O)C=C2
RETENTIONTIME:  
CCS:  139.9801741
IONMODE:  Negative
INSTRUMENTTYPE:  
INSTRUMENT:  Q-Exactive Plus
COLLISIONENERGY:  
Comment:  DB#=CCMSLIB00000578366; origin=GNPS
Num Peaks:  22
71.01233	20.0
94.0284	20.0
104.04926	10.0
116.04929	40.0
120.04409	20.0
122.05975	20.0
131.03642	30.0
132.04427	110.0
133.02827	80.0
144.04436	750.0
145.04906	40.0
146.06004	1000.0
147.06355	50.0
148.03923	60.0
150.05472	20.0
159.03159	30.0
160.03938	640.0
161.04314	30.0
178.05025	20.0
190.01353	10.0
190.05042	50.0
191.10713	10.0

NAME:  PHENYLACETIC ACID
PRECURSORMZ:  135.04515304583
PRECURSORTYPE:  [M-H]-
FORMULA:  C8H8O2
Ontology: Kingdom: Organic compounds;Superclass: Benzenoids;Class: Benzene and substituted derivatives;
INCHIKEY:  WLJVXDMOQOGPHL-UHFFFAOYSA-N
SMILES:  OC(=O)CC1=CC=CC=C1
RETENTIONTIME:  
CCS:  125.7925686
IONMODE:  Negative
INSTRUMENTTYPE:  
INSTRUMENT:  Q-Exactive Plus
COLLISIONENERGY:  
Comment:  DB#=CCMSLIB00000578367; origin=GNPS
Num Peaks:  12
91.05376	10.0
93.03306	10.0
106.04108	50.0
107.04891	250.0
108.02042	10.0
117.03336	20.0
123.04391	20.0
133.0282	10.0
134.03619	490.0
134.89359	30.0
135.04413	1000.0
136.04764	50.0

NAME:  D-FRUCTOSE
PRECURSORMZ:  179.05611165383
PRECURSORTYPE:  [M-H]-
FORMULA:  C6H12O6
Ontology: Kingdom: Organic compounds;Superclass: Organic oxygen compounds;Class: Organooxygen compounds;Subclass: Carbohydrates and carbohydrate conjugates
INCHIKEY:  BJHIKXHVCXFQLS-UHFFFAOYNA-N
SMILES:  OCC(O)C(O)C(O)C(=O)CO
RETENTIONTIME:  
CCS:  131.0024774
IONMODE:  Negative
INSTRUMENTTYPE:  
INSTRUMENT:  Q-Exactive Plus
COLLISIONENERGY:  
Comment:  DB#=CCMSLIB00000578370; origin=GNPS
Num Peaks:  28
57.03307	10.0
59.01235	90.0
69.03313	20.0
71.01234	110.0
73.02798	70.0
75.00736	20.0
81.03318	20.0
83.01236	50.0
85.02802	150.0
87.0073	780.0
88.01064	10.0
89.02299	40.0
95.01235	10.0
97.02802	60.0
99.00734	190.0
101.02299	100.0
113.02311	40.0
117.01799	200.0
125.02316	140.0
129.01804	30.0
141.01819	100.0
147.02837	10.0
159.02884	70.0
161.04456	720.0
162.04787	20.0
177.03949	40.0
179.05533	1000.0
180.05815	40.0

NAME:  XYLITOL
PRECURSORMZ:  151.06119703383
PRECURSORTYPE:  [M-H]-
FORMULA:  C5H12O5
Ontology: Kingdom: Organic compounds;Superclass: Organic oxygen compounds;Class: Organooxygen compounds;Subclass: Carbohydrates and carbohydrate conjugates
INCHIKEY:  HEBKCHPVOIAQTA-UHFFFAOYNA-N
SMILES:  OCC(O)C(O)C(O)CO
RETENTIONTIME:  
CCS:  126.7950934
IONMODE:  Negative
INSTRUMENTTYPE:  
INSTRUMENT:  Q-Exactive Plus
COLLISIONENERGY:  
Comment:  DB#=CCMSLIB00000578372; origin=GNPS
Num Peaks:  27
55.01741	30.0
57.03319	20.0
59.01238	840.0
71.01237	1000.0
72.01565	10.0
72.99171	10.0
73.02799	150.0
83.01236	60.0
85.02802	110.0
87.00726	30.0
89.02296	770.0
90.02634	10.0
91.03868	20.0
97.02804	20.0
101.02303	850.0
102.02626	20.0
103.0387	20.0
113.02308	60.0
119.03369	70.0
131.03375	50.0
133.04964	30.0
136.01556	20.0
149.04417	20.0
150.00081	20.0
151.06013	810.0
152.03421	10.0
152.06329	20.0

NAME:  SUCROSE
PRECURSORMZ:  341.10893507583
PRECURSORTYPE:  [M-H]-
FORMULA:  C12H22O11
Ontology: Kingdom: Organic compounds;Superclass: Organic oxygen compounds;Class: Organooxygen compounds;Subclass: Carbohydrates and carbohydrate conjugates
INCHIKEY:  CZMRCDWAGMRECN-UHFFFAOYNA-N
SMILES:  OCC1OC(CO)(OC2OC(CO)C(O)C(O)C2O)C(O)C1O
RETENTIONTIME:  
CCS:  174.5740712
IONMODE:  Negative
INSTRUMENTTYPE:  
INSTRUMENT:  Q-Exactive Plus
COLLISIONENERGY:  
Comment:  DB#=CCMSLIB00000578375; origin=GNPS
Num Peaks:  20
59.01237	900.0
71.01235	710.0
72.99163	10.0
73.028	20.0
83.01237	20.0
85.02799	50.0
87.00727	30.0
89.02296	1000.0
90.02631	10.0
95.01242	30.0
101.02301	510.0
113.02307	350.0
119.03368	340.0
131.03366	50.0
143.03381	60.0
149.04445	30.0
161.04456	50.0
179.05525	110.0
221.0663	20.0
341.1091	50.0

NAME:  MANNITOL
PRECURSORMZ:  181.07176171883
PRECURSORTYPE:  [M-H]-
FORMULA:  C6H14O6
Ontology: Kingdom: Organic compounds;Superclass: Organic oxygen compounds;Class: Organooxygen compounds;Subclass: Carbohydrates and carbohydrate conjugates
INCHIKEY:  FBPFZTCFMRRESA-UHFFFAOYNA-N
SMILES:  OCC(O)C(O)C(O)C(O)CO
RETENTIONTIME:  
CCS:  132.9250301
IONMODE:  Negative
INSTRUMENTTYPE:  
INSTRUMENT:  Q-Exactive Plus
COLLISIONENERGY:  
Comment:  DB#=CCMSLIB00000578376; origin=GNPS
Num Peaks:  29
55.01746	20.0
57.03316	20.0
59.01239	640.0
69.03322	10.0
71.01237	640.0
72.01579	10.0
73.02802	200.0
83.01244	50.0
85.02805	150.0
87.00738	20.0
89.02296	600.0
90.02634	10.0
91.03868	10.0
97.02814	50.0
101.02303	750.0
102.0262	20.0
103.0387	10.0
113.02312	90.0
115.03875	40.0
119.03368	100.0
121.04906	10.0
131.03371	60.0
137.03445	20.0
143.03383	10.0
149.04439	30.0
161.0446	20.0
163.06029	160.0
181.07108	1000.0
182.07445	40.0

NAME:  D-(+)-CELLOBIOSE
PRECURSORMZ:  341.10893507583
PRECURSORTYPE:  [M-H]-
FORMULA:  C12H22O11
Ontology: Kingdom: Organic compounds;Superclass: Organic oxygen compounds;Class: Organooxygen compounds;Subclass: Carbohydrates and carbohydrate conjugates
INCHIKEY:  GUBGYTABKSRVRQ-UHFFFAOYNA-N
SMILES:  OCC1OC(OC2C(O)C(O)C(O)OC2CO)C(O)C(O)C1O
RETENTIONTIME:  
CCS:  174.3755353
IONMODE:  Negative
INSTRUMENTTYPE:  
INSTRUMENT:  Q-Exactive Plus
COLLISIONENERGY:  
Comment:  DB#=CCMSLIB00000578380; origin=GNPS
Num Peaks:  20
59.01236	690.0
71.01234	710.0
73.02799	310.0
81.03302	30.0
83.01235	80.0
85.028	70.0
87.00726	40.0
89.02293	780.0
95.01248	30.0
97.02805	130.0
101.02299	1000.0
113.02306	300.0
115.03855	40.0
119.03368	330.0
125.02318	40.0
131.03389	50.0
143.03395	60.0
161.04448	80.0
179.05495	70.0
221.06633	270.0

NAME:  L-ARABITOL
PRECURSORMZ:  151.06119703383
PRECURSORTYPE:  [M-H]-
FORMULA:  C5H12O5
Ontology: Kingdom: Organic compounds;Superclass: Organic oxygen compounds;Class: Organooxygen compounds;Subclass: Carbohydrates and carbohydrate conjugates
INCHIKEY:  HEBKCHPVOIAQTA-UHFFFAOYNA-N
SMILES:  OCC(O)C(O)C(O)CO
RETENTIONTIME:  
CCS:  126.7950934
IONMODE:  Negative
INSTRUMENTTYPE:  
INSTRUMENT:  Q-Exactive Plus
COLLISIONENERGY:  
Comment:  DB#=CCMSLIB00000578381; origin=GNPS
Num Peaks:  33
55.01744	20.0
57.03313	20.0
59.01239	710.0
60.01559	10.0
71.01237	1000.0
72.01566	20.0
72.9916	20.0
73.028	130.0
75.00726	10.0
83.01233	60.0
85.02802	110.0
87.00731	60.0
89.02297	750.0
90.02619	10.0
91.03883	10.0
97.02801	10.0
101.02303	820.0
102.02632	20.0
103.03866	20.0
108.0202	20.0
113.02306	70.0
119.03365	60.0
131.03369	60.0
133.04941	60.0
136.01543	90.0
149.04463	20.0
150.00085	70.0
151.00453	40.0
151.03931	40.0
151.06013	780.0
151.99664	10.0
152.03409	40.0
152.06311	20.0

NAME:  Caffeoylquinic acid
PRECURSORMZ:  353.08780570783
PRECURSORTYPE:  [M-H]-
FORMULA:  C16H18O9
Ontology: Kingdom: Organic compounds;Superclass: Organic oxygen compounds;Class: Organooxygen compounds;Subclass: Alcohols and polyols
INCHIKEY:  CWVRJTMFETXNAD-UHFFFAOYNA-N
SMILES:  OC1CC(O)(CC(OC(=O)C=CC2=CC(O)=C(O)C=C2)C1O)C(O)=O
RETENTIONTIME:  
CCS:  177.8649823
IONMODE:  Negative
INSTRUMENTTYPE:  
INSTRUMENT:  Ion Trap
COLLISIONENERGY:  
Comment:  DB#=CCMSLIB00000579204; origin=GNPS
Num Peaks:  7
135.04449	40.0
173.04497	320.0
174.04837	30.0
179.03444	270.0
180.03775	30.0
191.05559	1000.0
192.05876	120.0

NAME:  Chiococcasaponin I
PRECURSORMZ:  1171.55419188183
PRECURSORTYPE:  [M-H]-
FORMULA:  C57H88O25
Ontology: Kingdom: Organic compounds;Superclass: Lipids and lipid;Class: Prenol lipids;Subclass: Terpene glycosides
INCHIKEY:  BQPAYARYCXZJTR-UHFFFAOYNA-N
SMILES:  CC1OC(OC2C(O)C(O)COC2OC(=O)C23CCC(C)(C)CC2C2=CCC4C5(C)CCC(OC6OC(C(O)C(O)C6O)C(O)=O)C(C)(C)C5CCC4(C)C2(C)C=C3)C(O)C(OC2OCC(O)(CO)C2O)C1OC1OCC(O)(CO)C1O
RETENTIONTIME:  
CCS:  -1
IONMODE:  Negative
INSTRUMENTTYPE:  
INSTRUMENT:  Orbitrap
COLLISIONENERGY:  
Comment:  DB#=CCMSLIB00000579209; origin=GNPS
Num Peaks:  11
409.12997	50.0
469.15054	10.0
541.17084	150.0
542.17432	10.0
611.35162	20.0
627.34662	10.0
629.36194	1000.0
630.36505	140.0
1039.49939	40.0
1040.5022	20.0
1153.52844	30.0

NAME:  Chiococcasaponin IV
PRECURSORMZ:  907.46967440583
PRECURSORTYPE:  [M-H]-
FORMULA:  C47H72O17
Ontology: Kingdom: Organic compounds;Superclass: Lipids and lipid;Class: Prenol lipids;Subclass: Terpene glycosides
INCHIKEY:  WCCLEVMDEUCMHT-UHFFFAOYNA-N
SMILES:  CC1OC(OC2C(O)C(O)COC2OC(=O)C23CCC(C)(C)CC2C2=CCC4C5(C)CCC(OC6OC(C(O)C(O)C6O)C(O)=O)C(C)(C)C5CCC4(C)C2(C)C=C3)C(O)C(O)C1O
RETENTIONTIME:  
CCS:  -1
IONMODE:  Negative
INSTRUMENTTYPE:  
INSTRUMENT:  Hybrid FT
COLLISIONENERGY:  
Comment:  DB#=CCMSLIB00000579213; origin=GNPS
Num Peaks:  5
569.34851	20.0
611.35907	20.0
629.3703	1000.0
630.37128	470.0
701.39111	10.0

NAME:  Estrone-3-(beta-D-glucuronide) - CASMI2016 Category 1 - Challenge 15
PRECURSORMZ:  445.18679147383
PRECURSORTYPE:  [M-H]-
FORMULA:  C24H30O8
Ontology: Kingdom: Organic compounds;Superclass: Lipids and lipid;Class: Steroids and steroid derivatives;Subclass: Steroidal glycosides
INCHIKEY:  FJAZVHYPASAQKM-UHFFFAOYNA-N
SMILES:  CC12CCC3C(CCC4=CC(OC5OC(C(O)C(O)C5O)C(O)=O)=CC=C34)C1CCC2=O
RETENTIONTIME:  
CCS:  199.7825029
IONMODE:  Negative
INSTRUMENTTYPE:  
INSTRUMENT:  Orbitrap
COLLISIONENERGY:  
Comment:  DB#=CCMSLIB00000579304; origin=GNPS
Num Peaks:  5
129.019	30.0
157.01401	10.0
175.0248	140.0
269.15469	600.0
445.18671	1000.0

NAME:  Alizarin - CASMI2016 Category 1 - Challenge 16
PRECURSORMZ:  239.03498228583
PRECURSORTYPE:  [M-H]-
FORMULA:  C14H8O4
Ontology: Kingdom: Organic compounds;Superclass: Benzenoids;Class: Anthracenes;Subclass: Anthraquinones
INCHIKEY:  RGCKGOZRHPZPFP-UHFFFAOYSA-N
SMILES:  OC1=C(O)C2=C(C=C1)C(=O)C1=CC=CC=C1C2=O
RETENTIONTIME:  
CCS:  153.4358249
IONMODE:  Negative
INSTRUMENTTYPE:  
INSTRUMENT:  Orbitrap
COLLISIONENERGY:  
Comment:  DB#=CCMSLIB00000579305; origin=GNPS
Num Peaks:  5
167.05029	20.0
210.0323	20.0
211.03999	60.0
238.0271	20.0
239.035	1000.0

NAME:  Thyroxine - CASMI2016 Category 1 - Challenge 17
PRECURSORMZ:  775.67941354783
PRECURSORTYPE:  [M-H]-
FORMULA:  C15H11I4NO4
Ontology: Kingdom: Organic compounds;Superclass: Organic acids and derivatives;Class: Carboxylic acids and derivatives;Subclass: Amino acids
INCHIKEY:  XUIIKFGFIJCVMT-UHFFFAOYNA-N
SMILES:  NC(CC1=CC(I)=C(OC2=CC(I)=C(O)C(I)=C2)C(I)=C1)C(O)=O
RETENTIONTIME:  
CCS:  212.6556468
IONMODE:  Negative
INSTRUMENTTYPE:  
INSTRUMENT:  Orbitrap
COLLISIONENERGY:  
Comment:  DB#=CCMSLIB00000579306; origin=GNPS
Num Peaks:  4
126.9047	1000.0
483.76291	20.0
603.77979	20.0
775.67889	20.0

NAME:  Purpurin - CASMI2016 Category 1 - Challenge 18
PRECURSORMZ:  255.02989690583
PRECURSORTYPE:  [M-H]-
FORMULA:  C14H8O5
Ontology: Kingdom: Organic compounds;Superclass: Benzenoids;Class: Anthracenes;Subclass: Anthraquinones
INCHIKEY:  BBNQQADTFFCFGB-UHFFFAOYSA-N
SMILES:  OC1=CC(O)=C(O)C2=C1C(=O)C1=CC=CC=C1C2=O
RETENTIONTIME:  
CCS:  156.0560925
IONMODE:  Negative
INSTRUMENTTYPE:  
INSTRUMENT:  Orbitrap
COLLISIONENERGY:  
Comment:  DB#=CCMSLIB00000579307; origin=GNPS
Num Peaks:  4
171.04491	10.0
183.0453	20.0
227.035	210.0
255.03	1000.0

NAME:  Monensin - CASMI2016 Category 1 - Challenge 19
PRECURSORMZ:  669.42193636383
PRECURSORTYPE:  [M-H]-
FORMULA:  C36H62O11
Ontology: Kingdom: Organic compounds;Superclass: Lipids and lipid;Class: Fatty Acyls;Subclass: Fatty acids and conjugates
INCHIKEY:  GAOZTHIDHYLHMS-UHFFFAOYNA-N
SMILES:  CCC1(CCC(O1)C1(C)CCC2(CC(O)C(C)C(O2)C(C)C(OC)C(C)C(O)=O)O1)C1OC(CC1C)C1OC(O)(CO)C(C)CC1C
RETENTIONTIME:  
CCS:  252.0189316
IONMODE:  Negative
INSTRUMENTTYPE:  
INSTRUMENT:  Orbitrap
COLLISIONENERGY:  
Comment:  DB#=CCMSLIB00000579308; origin=GNPS
Num Peaks:  4
137.097	50.0
153.09219	20.0
637.3938	50.0
669.42188	1000.0

NAME:  ChiococcasaponinV+Rhap
PRECURSORMZ:  761.41176560383
PRECURSORTYPE:  [M-H]-
FORMULA:  C41H62O13
Ontology: Kingdom: Organic compounds;Superclass: Lipids and lipid;Class: Prenol lipids;Subclass: Terpene glycosides
INCHIKEY:  DPFRFXVTZUXYTC-UHFFFAOYNA-N
SMILES:  CC1(C)CCC2(C=CC3(C)C(=CCC4C5(C)CCC(OC6OC(C(O)C(O)C6O)C(O)=O)C(C)(C)C5CCC34C)C2C1)C(=O)OC1OCC(O)C(O)C1O
RETENTIONTIME:  
CCS:  -1
IONMODE:  Negative
INSTRUMENTTYPE:  
INSTRUMENT:  Orbitrap
COLLISIONENERGY:  
Comment:  DB#=CCMSLIB00000840372; origin=GNPS
Num Peaks:  57
197.0146	20.0
199.2466	20.0
199.25703	10.0
199.31877	20.0
199.3345	40.0
199.34419	90.0
199.35353	50.0
199.37872	10.0
199.44273	10.0
208.06143	20.0
217.15509	10.0
217.26646	10.0
240.25307	10.0
263.32892	10.0
293.44193	10.0
311.9675	10.0
312.15985	20.0
312.73575	40.0
312.92838	20.0
343.91913	10.0
343.93948	50.0
344.53656	20.0
344.5578	20.0
344.58279	10.0
468.10953	20.0
468.14014	70.0
468.94925	20.0
468.98254	30.0
469.02701	20.0
487.2236	10.0
487.60114	30.0
487.97452	20.0
488.35583	10.0
488.7262	40.0
489.1037	10.0
491.04211	10.0
530.16266	10.0
530.27625	20.0
530.33154	20.0
530.39313	10.0
540.57318	20.0
569.34686	40.0
611.35797	50.0
629.36786	1000.0
671.37842	50.0
674.06464	10.0
674.12256	60.0
675.27734	10.0
675.33557	30.0
675.41656	10.0
693.07764	20.0
693.20251	100.0
693.35754	60.0
693.47858	90.0
693.68237	10.0
693.74664	20.0
701.38959	10.0

NAME:  Lipid IVa
PRECURSORMZ:  1403.84668599783
PRECURSORTYPE:  [M-H]-
FORMULA:  C68H130N2O23P2
Ontology: Kingdom: Organic compounds;Superclass: Organic oxygen compounds;Class: Organooxygen compounds;Subclass: Carbohydrates and carbohydrate conjugates
INCHIKEY:  KVJWZTLXIROHIL-UHFFFAOYNA-N
SMILES:  CCCCCCCCCCCC(O)CC(=O)NC1C(OP(O)(O)=O)OC(COC2OC(CO)C(OP(O)(O)=O)C(OC(=O)CC(O)CCCCCCCCCCC)C2NC(=O)CC(O)CCCCCCCCCCC)C(O)C1OC(=O)CC(O)CCCCCCCCCCC
RETENTIONTIME:  
CCS:  -1
IONMODE:  Negative
INSTRUMENTTYPE:  
INSTRUMENT:  qTof
COLLISIONENERGY:  
Comment:  DB#=CCMSLIB00000840424; origin=GNPS
Num Peaks:  74
74.59129	270.0
96.96992	480.0
152.95303	20.0
158.92656	540.0
176.93745	410.0
216.93108	10.0
227.20274	100.0
242.16243	20.0
252.8244	100.0
255.23483	120.0
267.23508	140.0
281.20593	10.0
391.21432	10.0
448.07233	20.0
466.22382	120.0
508.23453	110.0
526.24731	20.0
693.4743	110.0
705.4585	100.0
710.43176	120.0
711.36664	20.0
719.48895	30.0
720.50195	10.0
721.34125	20.0
733.50964	180.0
734.48804	40.0
742.55347	70.0
743.5553	110.0
744.48431	10.0
752.44403	60.0
761.54236	90.0
773.37262	10.0
817.46747	130.0
818.45386	20.0
835.48016	130.0
836.46716	30.0
853.48712	110.0
854.47241	100.0
877.49188	100.0
915.44385	100.0
963.66718	20.0
1043.65051	20.0
1044.61169	20.0
1061.67639	350.0
1062.67908	200.0
1063.6814	70.0
1064.677	20.0
1079.68604	180.0
1080.68335	60.0
1081.65979	20.0
1141.62292	30.0
1142.51697	20.0
1159.65417	500.0
1160.65771	240.0
1161.65967	80.0
1162.67712	20.0
1181.63184	40.0
1182.59094	40.0
1183.64075	90.0
1305.88257	280.0
1306.88525	150.0
1307.87683	60.0
1308.88586	20.0
1385.65942	20.0
1386.83862	20.0
1401.81702	100.0
1403.86121	1000.0
1404.86475	690.0
1405.86633	270.0
1406.86792	80.0
1407.79358	20.0
1425.84033	140.0
1426.81958	40.0
1427.8634	20.0

NAME:  Lipid A
PRECURSORMZ:  1768.18081665483
PRECURSORTYPE:  [M-H]-
FORMULA:  C92H174N2O25P2
Ontology: Kingdom: Organic compounds;Superclass: Organic oxygen compounds;Class: Organooxygen compounds;Subclass: Carbohydrates and carbohydrate conjugates
INCHIKEY:  WGSFUVTXMVWHBP-UHFFFAOYNA-N
SMILES:  CCCCCCCCCCCC(O)CC(=O)NC1C(OCC2OC(OP(O)(O)=O)C(NC(=O)CC(CCCCCCCCCCC)OC(=O)CCCCCCCCCCC)C(OC(=O)CC(O)CCCCCCCCCCC)C2O)OC(CO)C(OP(O)(O)=O)C1OC(=O)CC(CCCCCCCCCCC)OC(=O)CCCCCCCCCCC
RETENTIONTIME:  
CCS:  -1
IONMODE:  Negative
INSTRUMENTTYPE:  
INSTRUMENT:  qTof
COLLISIONENERGY:  
Comment:  DB#=CCMSLIB00000840426; origin=GNPS
Num Peaks:  43
111.57768	540.0
176.9411	170.0
211.06987	70.0
267.19083	230.0
742.56061	170.0
892.2027	220.0
1025.67212	160.0
1225.82361	180.0
1226.86047	230.0
1243.8717	240.0
1244.84155	30.0
1245.84949	20.0
1323.84058	240.0
1324.85486	40.0
1341.82495	30.0
1426.04004	230.0
1427.04553	220.0
1444.08496	20.0
1444.94983	20.0
1470.02771	40.0
1471.05432	40.0
1472.03247	20.0
1524.02539	170.0
1524.18494	20.0
1525.02844	160.0
1525.19104	50.0
1526.03162	220.0
1526.14111	180.0
1526.98022	230.0
1568.04907	260.0
1569.01477	50.0
1570.05359	30.0
1670.25317	40.0
1671.20752	50.0
1672.2688	30.0
1766.22229	30.0
1767.17297	30.0
1768.23657	950.0
1769.23987	1000.0
1770.24182	520.0
1771.24487	190.0
1772.23047	50.0
1773.23645	20.0

NAME:  NCGC00187465-02!(E)-1-(5,7-dihydroxy-2,2,6-trimethylchromen-8-yl)-3-phenylprop-2-en-1-one
PRECURSORMZ:  335.12888267183
PRECURSORTYPE:  [M-H]-
FORMULA:  C21H20O4
Ontology: Kingdom: Organic compounds;Superclass: Phenylpropanoids and polyketides;Class: Linear ;Subclass: Chalcones and dihydrochalcones
INCHIKEY:  ADEFODYSLAAMOM-UHFFFAOYSA-N
SMILES:  CC1=C(O)C2=C(OC(C)(C)C=C2)C(C(=O)C=CC2=CC=CC=C2)=C1O
RETENTIONTIME:  
CCS:  197.2804876
IONMODE:  Negative
INSTRUMENTTYPE:  
INSTRUMENT:  Maxis II HD Q-TOF Bruker
COLLISIONENERGY:  
Comment:  DB#=CCMSLIB00000845086; origin=GNPS
Num Peaks:  6
188.04179	70.0
189.05034	80.0
265.78	60.0
291.13882	70.0
307.38065	90.0
335.12854	1000.0

NAME:  NCGC00384676-01!
PRECURSORMZ:  407.13475590083
PRECURSORTYPE:  [M-H]-
FORMULA:  C20H24O9
Ontology: Kingdom: Organic compounds;Superclass: Organoheterocyclic compounds;Class: Naphthopyrans;Subclass: Naphthopyranones
INCHIKEY:  XZIMIWQJQOVUFT-UHFFFAOYNA-N
SMILES:  CCC1OC2(CC(O)=O)CC3=CC4=C(C(O)C(O)C(O)C4=O)C(O)=C3C(O2)C1C
RETENTIONTIME:  
CCS:  -1
IONMODE:  Negative
INSTRUMENTTYPE:  
INSTRUMENT:  Maxis II HD Q-TOF Bruker
COLLISIONENERGY:  
Comment:  DB#=CCMSLIB00000845088; origin=GNPS
Num Peaks:  14
185.06061	80.0
201.06139	180.0
229.04288	150.0
231.13896	150.0
290.03882	130.0
291.13379	250.0
303.12943	190.0
319.10614	230.0
327.13797	300.0
337.12729	140.0
345.13635	380.0
363.14343	1000.0
407.09564	130.0
407.13391	750.0

NAME:  NCGC00169680-02!(2S,3S,4S,5R,6S)-3,4,5-trihydroxy-6-(5-hydroxy-6-methoxy-4-oxo-2-phenylchromen-7-yl)oxyoxane-2-carboxylic acid
PRECURSORMZ:  459.09328501183
PRECURSORTYPE:  [M-H]-
FORMULA:  C22H20O11
Ontology: Kingdom: Organic compounds;Superclass: Phenylpropanoids and polyketides;Class: Flavonoids;Subclass: Flavonoid glycosides
INCHIKEY:  QXIPXNZUEQYPLZ-UHFFFAOYNA-N
SMILES:  COC1=C(OC2OC(C(O)C(O)C2O)C(O)=O)C=C2OC(=CC(=O)C2=C1O)C1=CC=CC=C1
RETENTIONTIME:  
CCS:  225.9115283
IONMODE:  Negative
INSTRUMENTTYPE:  
INSTRUMENT:  Maxis II HD Q-TOF Bruker
COLLISIONENERGY:  
Comment:  DB#=CCMSLIB00000845090; origin=GNPS
Num Peaks:  10
113.0241	130.0
139.0016	40.0
157.01727	40.0
165.99368	30.0
175.02689	70.0
253.04999	50.0
268.04044	600.0
282.20316	20.0
283.0614	1000.0
294.27396	40.0

NAME:  NCGC00384671-01!2-[4-[3-[3,4-dihydroxy-4-(hydroxymethyl)oxolan-2-yl]oxy-4,5-dihydroxy-6-(hydroxymethyl)oxan-2-yl]oxyphenyl]-7-hydroxy-2,3-dihydrochromen-4-one
PRECURSORMZ:  549.16136457383
PRECURSORTYPE:  [M-H]-
FORMULA:  C26H30O13
Ontology: Kingdom: Organic compounds;Superclass: Phenylpropanoids and polyketides;Class: Flavonoids;Subclass: Flavonoid glycosides
INCHIKEY:  FTVKHUHJWDMWIR-UHFFFAOYNA-N
SMILES:  OCC1OC(OC2=CC=C(C=C2)C2CC(=O)C3=C(O2)C=C(O)C=C3)C(OC2OCC(O)(CO)C2O)C(O)C1O
RETENTIONTIME:  
CCS:  243.8306136
IONMODE:  Negative
INSTRUMENTTYPE:  
INSTRUMENT:  Maxis II HD Q-TOF Bruker
COLLISIONENERGY:  
Comment:  DB#=CCMSLIB00000845092; origin=GNPS
Num Peaks:  11
107.01128	20.0
119.04905	90.0
135.00861	110.0
149.0265	10.0
153.01826	100.0
191.06236	20.0
255.06519	580.0
417.11536	10.0
548.58203	20.0
549.16156	1000.0
549.28223	20.0

NAME:  NCGC00384671-01!2-[4-[3-[3,4-dihydroxy-4-(hydroxymethyl)oxolan-2-yl]oxy-4,5-dihydroxy-6-(hydroxymethyl)oxan-2-yl]oxyphenyl]-7-hydroxy-2,3-dihydrochromen-4-one
PRECURSORMZ:  531.15079989383
PRECURSORTYPE:  [M-H2O-H]-
FORMULA:  C26H30O13
Ontology: Kingdom: Organic compounds;Superclass: Phenylpropanoids and polyketides;Class: Flavonoids;Subclass: Flavonoid glycosides
INCHIKEY:  FTVKHUHJWDMWIR-UHFFFAOYNA-N
SMILES:  OCC1OC(OC2=CC=C(C=C2)C2CC(=O)C3=C(O2)C=C(O)C=C3)C(OC2OCC(O)(CO)C2O)C(O)C1O
RETENTIONTIME:  
CCS:  -1
IONMODE:  Negative
INSTRUMENTTYPE:  
INSTRUMENT:  Maxis II HD Q-TOF Bruker
COLLISIONENERGY:  
Comment:  DB#=CCMSLIB00000845094; origin=GNPS
Num Peaks:  9
95.34809	80.0
129.06573	180.0
177.02025	220.0
181.05334	1000.0
193.04884	330.0
217.04463	220.0
337.09714	50.0
349.10855	440.0
531.16467	210.0

NAME:  NCGC00169359-03!5-hydroxy-2-(4-hydroxyphenyl)-7-[(2S,3R,4S,5S,6R)-3,4,5-trihydroxy-6-[[(2R,3R,4R,5R,6S)-3,4,5-trihydroxy-6-methyloxan-2-yl]oxymethyl]oxan-2-yl]oxy-2,3-dihydrochromen-4-one
PRECURSORMZ:  579.17192925783
PRECURSORTYPE:  [M-H]-
FORMULA:  C27H32O14
Ontology: Kingdom: Organic compounds;Superclass: Phenylpropanoids and polyketides;Class: Flavonoids;Subclass: Flavonoid glycosides
INCHIKEY:  HXTFHSYLYXVTHC-UHFFFAOYNA-N
SMILES:  CC1OC(OCC2OC(OC3=CC(O)=C4C(=O)CC(OC4=C3)C3=CC=C(O)C=C3)C(O)C(O)C2O)C(O)C(O)C1O
RETENTIONTIME:  
CCS:  221.8934286
IONMODE:  Negative
INSTRUMENTTYPE:  
INSTRUMENT:  Maxis II HD Q-TOF Bruker
COLLISIONENERGY:  
Comment:  DB#=CCMSLIB00000845095; origin=GNPS
Num Peaks:  11
151.00294	450.0
151.1017	50.0
169.00906	80.0
175.00354	60.0
193.01691	150.0
197.03725	100.0
199.078	90.0
271.06412	1000.0
313.05722	40.0
459.12201	90.0
579.17279	260.0

NAME:  NCGC00169359-03!5-hydroxy-2-(4-hydroxyphenyl)-7-[(2S,3R,4S,5S,6R)-3,4,5-trihydroxy-6-[[(2R,3R,4R,5R,6S)-3,4,5-trihydroxy-6-methyloxan-2-yl]oxymethyl]oxan-2-yl]oxy-2,3-dihydrochromen-4-one
PRECURSORMZ:  625.17740825783
PRECURSORTYPE:  [M+FA-H]-
FORMULA:  C27H32O14
Ontology: Kingdom: Organic compounds;Superclass: Phenylpropanoids and polyketides;Class: Flavonoids;Subclass: Flavonoid glycosides
INCHIKEY:  HXTFHSYLYXVTHC-UHFFFAOYNA-N
SMILES:  CC1OC(OCC2OC(OC3=CC(O)=C4C(=O)CC(OC4=C3)C3=CC=C(O)C=C3)C(O)C(O)C2O)C(O)C(O)C1O
RETENTIONTIME:  
CCS:  -1
IONMODE:  Negative
INSTRUMENTTYPE:  
INSTRUMENT:  Maxis II HD Q-TOF Bruker
COLLISIONENERGY:  
Comment:  DB#=CCMSLIB00000845097; origin=GNPS
Num Peaks:  15
107.01781	20.0
119.0497	60.0
149.02193	20.0
151.0014	140.0
175.00616	10.0
177.02084	20.0
193.01715	10.0
195.9968	10.0
270.05856	10.0
271.06131	1000.0
285.09387	20.0
295.06223	20.0
313.07745	50.0
459.10944	10.0
579.17065	400.0

NAME:  NCGC00178486-02!5-hydroxy-2-(4-hydroxyphenyl)-7-[(2S,3R,4S,5S,6R)-3,4,5-trihydroxy-6-(hydroxymethyl)oxan-2-yl]oxychromen-4-one
PRECURSORMZ:  431.09837039183
PRECURSORTYPE:  [M-H]-
FORMULA:  C21H20O10
Ontology: Kingdom: Organic compounds;Superclass: Phenylpropanoids and polyketides;Class: Flavonoids;Subclass: Flavonoid glycosides
INCHIKEY:  KMOUJOKENFFTPU-UHFFFAOYNA-N
SMILES:  OCC1OC(OC2=CC(O)=C3C(=O)C=C(OC3=C2)C2=CC=C(O)C=C2)C(O)C(O)C1O
RETENTIONTIME:  
CCS:  197.0643546
IONMODE:  Negative
INSTRUMENTTYPE:  
INSTRUMENT:  Maxis II HD Q-TOF Bruker
COLLISIONENERGY:  
Comment:  DB#=CCMSLIB00000845103; origin=GNPS
Num Peaks:  4
239.03546	100.0
268.03662	160.0
269.05392	160.0
431.09933	1000.0

NAME:  NCGC00169000-02![(2R,3R,4R,5R,6R)-2-[[(2R,3R,4R)-3,4-dihydroxy-4-(hydroxymethyl)oxolan-2-yl]oxymethyl]-6-[2-(3,4-dihydroxyphenyl)ethoxy]-5-hydroxy-4-[(2S,3R,4R,5R,6S)-3,4,5-trihydroxy-6-methyloxan-2-yl]oxyoxan-3-yl] (E)-3-(3,4-dihydroxyphenyl)prop-2-enoate
PRECURSORMZ:  755.24040274483
PRECURSORTYPE:  [M-H]-
FORMULA:  C34H44O19
Ontology: Kingdom: Organic compounds;Superclass: Organic oxygen compounds;Class: Organooxygen compounds;Subclass: Carbohydrates and carbohydrate conjugates
INCHIKEY:  JMBINOWGIHWPJI-UHFFFAOYNA-N
SMILES:  CC1OC(OC2C(O)C(OCCC3=CC(O)=C(O)C=C3)OC(COC3OCC(O)(CO)C3O)C2OC(=O)C=CC2=CC(O)=C(O)C=C2)C(O)C(O)C1O
RETENTIONTIME:  
CCS:  278.8495212
IONMODE:  Negative
INSTRUMENTTYPE:  
INSTRUMENT:  Maxis II HD Q-TOF Bruker
COLLISIONENERGY:  
Comment:  DB#=CCMSLIB00000845105; origin=GNPS
Num Peaks:  21
89.02206	10.0
113.02604	50.0
123.04488	10.0
132.02228	20.0
133.02928	140.0
135.04631	200.0
136.04781	20.0
153.05629	10.0
161.02455	1000.0
162.25092	10.0
179.03488	60.0
293.05994	10.0
315.1051	20.0
439.15225	10.0
461.1669	50.0
593.20923	120.0
594.20776	20.0
623.21143	20.0
755.23853	910.0
756.24097	140.0
757.25323	10.0

NAME:  NCGC00385263-01![(2R,3R,4S,5R,6S)-2-(hydroxymethyl)-4,5,6-tris[(3,4,5-trihydroxybenzoyl)oxy]oxan-3-yl] 3,4,5-trihydroxybenzoate
PRECURSORMZ:  787.09994608983
PRECURSORTYPE:  [M-H]-
FORMULA:  C34H28O22
Ontology: Kingdom: Organic compounds;Superclass: Phenylpropanoids and polyketides;Class: Tannins;
INCHIKEY:  XFLTYUCKJRFDOU-UHFFFAOYNA-N
SMILES:  OCC1OC(OC(=O)C2=CC(O)=C(O)C(O)=C2)C(OC(=O)C2=CC(O)=C(O)C(O)=C2)C(OC(=O)C2=CC(O)=C(O)C(O)=C2)C1OC(=O)C1=CC(O)=C(O)C(O)=C1
RETENTIONTIME:  
CCS:  252.2981091
IONMODE:  Negative
INSTRUMENTTYPE:  
INSTRUMENT:  Maxis II HD Q-TOF Bruker
COLLISIONENERGY:  
Comment:  DB#=CCMSLIB00000845107; origin=GNPS
Num Peaks:  74
85.02663	10.0
113.02312	20.0
123.00767	40.0
124.01785	60.0
125.02632	150.0
125.07918	10.0
137.03374	20.0
141.02295	20.0
142.98524	30.0
149.02061	60.0
151.00858	60.0
161.01775	20.0
163.03677	20.0
166.99622	90.0
168.00157	40.0
169.01466	1000.0
170.01785	20.0
171.12495	20.0
181.00714	20.0
191.03598	40.0
193.01183	30.0
205.04785	10.0
207.02647	20.0
210.01677	30.0
211.0302	10.0
217.01259	10.0
218.01759	20.0
219.02696	60.0
221.04192	30.0
223.02759	30.0
229.01682	50.0
232.03169	10.0
235.06174	20.0
237.66083	20.0
271.04834	40.0
273.0145	30.0
274.01666	10.0
275.02469	20.0
275.86841	10.0
276.02133	30.0
277.03766	40.0
279.04889	40.0
295.04733	160.0
298.35962	20.0
299.9899	10.0
301.00345	110.0
302.01169	60.0
302.05817	10.0
313.06717	90.0
314.0592	10.0
321.01859	10.0
327.59738	30.0
329.06857	40.0
345.02484	20.0
374.39392	20.0
447.06253	30.0
447.10217	20.0
449.07385	30.0
450.06891	20.0
465.06647	210.0
465.78656	10.0
467.08051	20.0
599.0675	20.0
617.07898	640.0
618.09198	60.0
620.06555	10.0
630.5285	50.0
633.052	30.0
635.09229	50.0
636.09833	20.0
785.07898	50.0
787.10297	300.0
788.10101	30.0
1430.35059	30.0

NAME:  NCGC00179791-03!1,7-bis(4-hydroxyphenyl)-5-[(2R,3R,4S,5S,6R)-3,4,5-trihydroxy-6-(hydroxymethyl)oxan-2-yl]oxyheptan-3-one
PRECURSORMZ:  521.20283515783
PRECURSORTYPE:  [M+FA-H]-
FORMULA:  C25H32O9
Ontology: Kingdom: Organic compounds;Superclass: Phenylpropanoids and polyketides;Class: Diarylheptanoids;Subclass: Linear diarylheptanoids
INCHIKEY:  PVPDIJGSCANSAG-UHFFFAOYNA-N
SMILES:  OCC1OC(OC(CCC2=CC=C(O)C=C2)CC(=O)CCC2=CC=C(O)C=C2)C(O)C(O)C1O
RETENTIONTIME:  
CCS:  -1
IONMODE:  Negative
INSTRUMENTTYPE:  
INSTRUMENT:  Maxis II HD Q-TOF Bruker
COLLISIONENERGY:  
Comment:  DB#=CCMSLIB00000845109; origin=GNPS
Num Peaks:  8
88.60145	30.0
101.02426	20.0
119.03601	150.0
179.05861	270.0
188.82773	60.0
189.09198	800.0
189.24165	30.0
295.13574	1000.0

NAME:  NCGC00163378-03!
PRECURSORMZ:  503.07724102283
PRECURSORTYPE:  [M-H]-
FORMULA:  C30H16O8
Ontology: ;;;
INCHIKEY:  BTXNYTINYBABQR-UHFFFAOYSA-N
SMILES:  CC1=CC(O)=C2C(=O)C3=C(O)C=C(O)C4=C3C3=C2C1=C1C(C)=CC(O)=C2C(=O)C5=C(O)C=C(O)C4=C5C3=C12
RETENTIONTIME:  
CCS:  210.8810771
IONMODE:  Negative
INSTRUMENTTYPE:  
INSTRUMENT:  Maxis II HD Q-TOF Bruker
COLLISIONENERGY:  
Comment:  DB#=CCMSLIB00000845114; origin=GNPS
Num Peaks:  6
246.80807	10.0
254.65048	10.0
264.647	10.0
433.07159	10.0
502.91675	10.0
503.08087	1000.0

NAME:  NCGC00347505-02!
PRECURSORMZ:  591.27118949983
PRECURSORTYPE:  [M+FA-H]-
FORMULA:  C32H38N2O6
Ontology: Kingdom: Organic compounds;Superclass: Phenylpropanoids and polyketides;Class: Diarylheptanoids;Subclass: Linear diarylheptanoids
INCHIKEY:  FOAPBJMMOXYHAN-UHFFFAOYNA-N
SMILES:  COC1=C(OC)C=C(C=C1)C12CCNC1CC13OC4(O)CC5N1CCC5(C(C4)C3=C2)C1=CC(OC)=C(OC)C=C1
RETENTIONTIME:  
CCS:  -1
IONMODE:  Negative
INSTRUMENTTYPE:  
INSTRUMENT:  Maxis II HD Q-TOF Bruker
COLLISIONENERGY:  
Comment:  DB#=CCMSLIB00000845115; origin=GNPS
Num Peaks:  8
83.05213	50.0
188.08946	70.0
189.09468	740.0
189.55286	50.0
293.12454	50.0
295.13727	1000.0
299.02429	30.0
1767.25818	100.0

NAME:  NCGC00180396-02!6-[(2S,3R,4S,5S,6R)-4,5-dihydroxy-6-(hydroxymethyl)-3-[(2S,3R,4R,5R,6S)-3,4,5-trihydroxy-6-methyloxan-2-yl]oxyoxan-2-yl]-5,7-dihydroxy-2-(4-hydroxyphenyl)chromen-4-one
PRECURSORMZ:  577.15627919383
PRECURSORTYPE:  [M-H]-
FORMULA:  C27H30O14
Ontology: Kingdom: Organic compounds;Superclass: Phenylpropanoids and polyketides;Class: Flavonoids;Subclass: Flavonoid glycosides
INCHIKEY:  BGPMMCPSTAYIEL-UHFFFAOYNA-N
SMILES:  CC1OC(OC2C(O)C(O)C(CO)OC2C2=C(O)C3=C(OC(=CC3=O)C3=CC=C(O)C=C3)C=C2O)C(O)C(O)C1O
RETENTIONTIME:  
CCS:  250.5699361
IONMODE:  Negative
INSTRUMENTTYPE:  
INSTRUMENT:  Maxis II HD Q-TOF Bruker
COLLISIONENERGY:  
Comment:  DB#=CCMSLIB00000845117; origin=GNPS
Num Peaks:  16
163.06085	60.0
200.69316	50.0
249.05994	20.0
251.7101	10.0
282.05356	40.0
293.04739	990.0
311.05347	190.0
314.05078	100.0
335.05765	40.0
341.06467	200.0
355.10052	50.0
406.0083	20.0
413.08932	710.0
432.12021	50.0
457.12994	20.0
577.15588	1000.0

NAME:  NCGC00381159-01!2-[[3,21-dihydroxy-20-[3,4,5-trihydroxy-6-(hydroxymethyl)oxan-2-yl]oxydocosan-2-yl]amino]acetic acid
PRECURSORMZ:  592.40662065183
PRECURSORTYPE:  [M-H]-
FORMULA:  C30H59NO10
Ontology: Kingdom: Organic compounds;Superclass: Lipids and lipid;Class: Fatty Acyls;Subclass: Fatty acyl glycosides
INCHIKEY:  BFJZLVDYMQIIMI-UHFFFAOYNA-N
SMILES:  CC(O)C(CCCCCCCCCCCCCCCCC(O)C(C)NCC(O)=O)OC1OC(CO)C(O)C(O)C1O
RETENTIONTIME:  
CCS:  -1
IONMODE:  Negative
INSTRUMENTTYPE:  
INSTRUMENT:  Maxis II HD Q-TOF Bruker
COLLISIONENERGY:  
Comment:  DB#=CCMSLIB00000845119; origin=GNPS
Num Peaks:  10
101.02454	30.0
309.28717	10.0
398.76593	20.0
412.3399	40.0
430.34943	20.0
574.40942	10.0
589.38684	10.0
592.01599	20.0
592.40527	1000.0
593.41931	20.0

NAME:  NCGC00381158-01![2-[4-[7-acetyloxy-5-chloro-3-[(1E,3E)-3,5-dimethylhepta-1,3-dienyl]-7-methyl-6,8-dioxoisoquinolin-2-yl]butyl]-5-chloro-3-[(1E,3E)-3,5-dimethylhepta-1,3-dienyl]-7-methyl-6,8-dioxoisoquinolin-7-yl] acetate
PRECURSORMZ:  877.32392464783
PRECURSORTYPE:  [M+FA-H]-
FORMULA:  C46H54Cl2N2O8
Ontology: Kingdom: Organic compounds;Superclass: Organoheterocyclic compounds;Class: Azaphilones;
INCHIKEY:  GXUYGLKNAQMTRM-UHFFFAOYNA-N
SMILES:  CCC(C)C=C(C)C=CC1=CC2=C(Cl)C(=O)C(C)(OC(C)=O)C(=O)C2=CN1CCCCN1C=C2C(=O)C(C)(OC(C)=O)C(=O)C(Cl)=C2C=C1C=CC(C)=CC(C)CC
RETENTIONTIME:  
CCS:  -1
IONMODE:  Negative
INSTRUMENTTYPE:  
INSTRUMENT:  Maxis II HD Q-TOF Bruker
COLLISIONENERGY:  
Comment:  DB#=CCMSLIB00000845121; origin=GNPS
Num Peaks:  37
116.05386	170.0
208.03479	70.0
266.08621	150.0
268.13272	100.0
284.15808	140.0
291.11658	80.0
292.12866	190.0
294.14581	180.0
295.11923	90.0
309.13898	120.0
310.14417	300.0
326.10181	100.0
327.10672	180.0
327.63544	80.0
328.11191	1000.0
329.11655	290.0
330.11401	190.0
330.14996	60.0
346.18198	110.0
388.14017	780.0
389.13867	90.0
589.89178	80.0
641.31555	70.0
641.35406	90.0
675.29242	130.0
675.33466	90.0
676.3078	150.0
677.32855	170.0
693.32233	150.0
701.02045	120.0
711.26501	190.0
713.2962	380.0
714.31232	170.0
729.26508	60.0
731.30597	50.0
831.32489	60.0
877.3421	290.0

NAME:  NCGC00347746-02!1-[4,5-dihydroxy-6-(hydroxymethyl)-3-[(E)-3-(4-hydroxyphenyl)prop-2-enoyl]oxyoxan-2-yl]oxy-6-hydroxy-7-methylidene-4a,5,6,7a-tetrahydro-1H-cyclopenta[c]pyran-4-carboxylic acid
PRECURSORMZ:  519.15079988983
PRECURSORTYPE:  [M-H]-
FORMULA:  C25H28O12
Ontology: Kingdom: Organic compounds;Superclass: Phenylpropanoids and polyketides;Class: Cinnamic acids and derivatives;Subclass: Hydroxycinnamic acids and derivatives
INCHIKEY:  QPNFBUARICHXGG-UHFFFAOYNA-N
SMILES:  OCC1OC(OC2OC=C(C3CC(O)C(=C)C23)C(O)=O)C(OC(=O)C=CC2=CC=C(O)C=C2)C(O)C1O
RETENTIONTIME:  
CCS:  -1
IONMODE:  Negative
INSTRUMENTTYPE:  
INSTRUMENT:  Maxis II HD Q-TOF Bruker
COLLISIONENERGY:  
Comment:  DB#=CCMSLIB00000845123; origin=GNPS
Num Peaks:  14
113.02434	150.0
123.04066	150.0
145.02869	1000.0
149.06064	340.0
163.03552	250.0
167.07083	190.0
187.03951	90.0
193.04361	100.0
205.0408	110.0
211.07173	220.0
223.82104	60.0
325.09479	70.0
468.56015	100.0
519.15198	420.0

NAME:  NCGC00347746-02!1-[4,5-dihydroxy-6-(hydroxymethyl)-3-[(E)-3-(4-hydroxyphenyl)prop-2-enoyl]oxyoxan-2-yl]oxy-6-hydroxy-7-methylidene-4a,5,6,7a-tetrahydro-1H-cyclopenta[c]pyran-4-carboxylic acid
PRECURSORMZ:  565.15627888983
PRECURSORTYPE:  [M+FA-H]-
FORMULA:  C25H28O12
Ontology: ;;;
INCHIKEY:  QPNFBUARICHXGG-UHFFFAOYNA-N
SMILES:  OCC1OC(OC2OC=C(C3CC(O)C(=C)C23)C(O)=O)C(OC(=O)C=CC2=CC=C(O)C=C2)C(O)C1O
RETENTIONTIME:  
CCS:  -1
IONMODE:  Negative
INSTRUMENTTYPE:  
INSTRUMENT:  Maxis II HD Q-TOF Bruker
COLLISIONENERGY:  
Comment:  DB#=CCMSLIB00000845125; origin=GNPS
Num Peaks:  19
119.04967	110.0
123.0412	70.0
144.76538	130.0
145.028	790.0
149.05635	170.0
159.48083	30.0
161.05106	40.0
163.03969	870.0
167.06747	60.0
193.04478	150.0
205.04967	50.0
211.0574	170.0
235.06061	70.0
325.08755	40.0
355.09732	60.0
355.13034	70.0
475.16165	50.0
519.14587	1000.0
520.15131	50.0

NAME:  NCGC00347678-02!7-(3,4-dihydroxyphenyl)-1-(4-hydroxyphenyl)-5-[(2S,3R,4S,5R)-3,4,5-trihydroxyoxan-2-yl]oxyheptan-3-one
PRECURSORMZ:  461.18170609383
PRECURSORTYPE:  [M-H]-
FORMULA:  C24H30O9
Ontology: Kingdom: Organic compounds;Superclass: Phenylpropanoids and polyketides;Class: Diarylheptanoids;Subclass: Linear diarylheptanoids
INCHIKEY:  KQQLSXWIDDTWRR-UHFFFAOYNA-N
SMILES:  OC1COC(OC(CCC2=CC(O)=C(O)C=C2)CC(=O)CCC2=CC=C(O)C=C2)C(O)C1O
RETENTIONTIME:  
CCS:  214.2996778
IONMODE:  Negative
INSTRUMENTTYPE:  
INSTRUMENT:  Maxis II HD Q-TOF Bruker
COLLISIONENERGY:  
Comment:  DB#=CCMSLIB00000845127; origin=GNPS
Num Peaks:  17
104.21088	20.0
121.02962	160.0
126.60552	10.0
132.55539	10.0
135.04485	60.0
163.04187	30.0
189.0889	20.0
203.06656	30.0
204.07614	130.0
205.08937	190.0
309.11722	50.0
310.12161	140.0
311.12793	1000.0
328.97775	20.0
460.17252	110.0
461.16409	20.0
990.35815	50.0

NAME:  NCGC00347678-02!7-(3,4-dihydroxyphenyl)-1-(4-hydroxyphenyl)-5-[(2S,3R,4S,5R)-3,4,5-trihydroxyoxan-2-yl]oxyheptan-3-one
PRECURSORMZ:  507.18718509383
PRECURSORTYPE:  [M+FA-H]-
FORMULA:  C24H30O9
Ontology: Kingdom: Organic compounds;Superclass: Phenylpropanoids and polyketides;Class: Diarylheptanoids;Subclass: Linear diarylheptanoids
INCHIKEY:  KQQLSXWIDDTWRR-UHFFFAOYNA-N
SMILES:  OC1COC(OC(CCC2=CC(O)=C(O)C=C2)CC(=O)CCC2=CC=C(O)C=C2)C(O)C1O
RETENTIONTIME:  
CCS:  -1
IONMODE:  Negative
INSTRUMENTTYPE:  
INSTRUMENT:  Maxis II HD Q-TOF Bruker
COLLISIONENERGY:  
Comment:  DB#=CCMSLIB00000845129; origin=GNPS
Num Peaks:  7
83.04951	50.0
109.02847	40.0
189.09082	150.0
205.08763	130.0
207.62547	30.0
311.12979	1000.0
461.17023	90.0

NAME:  NCGC00384547-01!6-methoxy-7-[3,4,5-trihydroxy-6-[(3,4,5-trihydroxy-6-methyloxan-2-yl)oxymethyl]oxan-2-yl]oxychromen-2-one
PRECURSORMZ:  545.15119350983
PRECURSORTYPE:  [M+FA-H]-
FORMULA:  C22H28O13
Ontology: Kingdom: Organic compounds;Superclass: Phenylpropanoids and polyketides;Class: Coumarins and derivatives;Subclass: Coumarin glycosides
INCHIKEY:  FCIZPHNZRNLUJD-UHFFFAOYNA-N
SMILES:  COC1=C(OC2OC(COC3OC(C)C(O)C(O)C3O)C(O)C(O)C2O)C=C2OC(=O)C=CC2=C1
RETENTIONTIME:  
CCS:  -1
IONMODE:  Negative
INSTRUMENTTYPE:  
INSTRUMENT:  Maxis II HD Q-TOF Bruker
COLLISIONENERGY:  
Comment:  DB#=CCMSLIB00000845131; origin=GNPS
Num Peaks:  4
148.01616	40.0
175.72568	10.0
176.01128	360.0
191.03487	1000.0

NAME:  NCGC00384551-01!8-[5,7-dihydroxy-2-(4-hydroxyphenyl)-4-oxochromen-6-yl]-5,7-dihydroxy-2-(4-hydroxyphenyl)chromen-4-one
PRECURSORMZ:  537.08272032783
PRECURSORTYPE:  [M-H]-
FORMULA:  C30H18O10
Ontology: Kingdom: Organic compounds;Superclass: Phenylpropanoids and polyketides;Class: Flavonoids;Subclass: Biflavonoids and polyflavonoids
INCHIKEY:  BACLASYRJRZXMY-UHFFFAOYSA-N
SMILES:  OC1=CC=C(C=C1)C1=CC(=O)C2=C(O1)C=C(O)C(=C2O)C1=C(O)C=C(O)C2=C1OC(=CC2=O)C1=CC=C(O)C=C1
RETENTIONTIME:  
CCS:  213.6512408
IONMODE:  Negative
INSTRUMENTTYPE:  
INSTRUMENT:  Maxis II HD Q-TOF Bruker
COLLISIONENERGY:  
Comment:  DB#=CCMSLIB00000845133; origin=GNPS
Num Peaks:  17
159.04565	50.0
213.62566	20.0
306.81238	20.0
306.91476	50.0
307.06912	90.0
318.05838	40.0
333.03973	80.0
374.03119	40.0
374.99496	40.0
375.05508	440.0
399.04816	10.0
401.02878	40.0
417.05444	110.0
443.04276	210.0
537.08087	1000.0
537.97595	30.0
538.11353	60.0

NAME:  NCGC00384548-01![(2S,3R,4S,5S,6R)-4,5-dihydroxy-6-(hydroxymethyl)-2-[7-hydroxy-5-methyl-4-oxo-2-(2-oxopropyl)chromen-8-yl]oxan-3-yl] (E)-3-(4-hydroxyphenyl)prop-2-enoate
PRECURSORMZ:  539.15588526983
PRECURSORTYPE:  [M-H]-
FORMULA:  C28H28O11
Ontology: Kingdom: Organic compounds;Superclass: Organic oxygen compounds;Class: Organooxygen compounds;Subclass: Carbohydrates and carbohydrate conjugates
INCHIKEY:  QACRJXSXSVUOFZ-UHFFFAOYNA-N
SMILES:  CC(=O)CC1=CC(=O)C2=C(O1)C(C1OC(CO)C(O)C(O)C1OC(=O)C=CC1=CC=C(O)C=C1)=C(O)C=C2C
RETENTIONTIME:  
CCS:  225.1057886
IONMODE:  Negative
INSTRUMENTTYPE:  
INSTRUMENT:  Maxis II HD Q-TOF Bruker
COLLISIONENERGY:  
Comment:  DB#=CCMSLIB00000845135; origin=GNPS
Num Peaks:  34
78.935	20.0
119.04839	640.0
163.04042	910.0
164.0423	40.0
171.0442	50.0
188.71359	70.0
189.05646	80.0
189.14377	20.0
202.06729	30.0
203.06804	50.0
211.07729	20.0
212.04762	40.0
213.05591	70.0
215.07509	30.0
231.06938	100.0
233.68846	10.0
237.05531	90.0
242.05594	40.0
243.06715	260.0
244.07852	30.0
245.08446	20.0
255.06911	240.0
257.08752	70.0
273.08356	210.0
276.06812	40.0
285.08032	210.0
287.09384	40.0
299.10037	40.0
311.09778	30.0
333.09836	100.0
373.09503	10.0
375.11084	1000.0
389.1008	80.0
393.11484	80.0

NAME:  NCGC00384546-01!7-[(2S,3R,4S,5S,6R)-4,5-dihydroxy-3-[(2R,3R,4R,5R,6S)-3,4,5-trihydroxy-6-methyloxan-2-yl]oxy-6-[[(2R,3R,4R,5R,6S)-3,4,5-trihydroxy-6-methyloxan-2-yl]oxymethyl]oxan-2-yl]oxy-6-methoxychromen-2-one
PRECURSORMZ:  691.20910231183
PRECURSORTYPE:  [M+FA-H]-
FORMULA:  C28H38O17
Ontology: Kingdom: Organic compounds;Superclass: Organic oxygen compounds;Class: Organooxygen compounds;Subclass: Carbohydrates and carbohydrate conjugates
INCHIKEY:  LLQBCHODNVGKSF-UHFFFAOYNA-N
SMILES:  COC1=C(OC2OC(COC3OC(C)C(O)C(O)C3O)C(O)C(O)C2OC2OC(C)C(O)C(O)C2O)C=C2OC(=O)C=CC2=C1
RETENTIONTIME:  
CCS:  -1
IONMODE:  Negative
INSTRUMENTTYPE:  
INSTRUMENT:  Maxis II HD Q-TOF Bruker
COLLISIONENERGY:  
Comment:  DB#=CCMSLIB00000845137; origin=GNPS
Num Peaks:  8
120.02542	20.0
148.01595	10.0
163.0631	20.0
170.2355	10.0
176.01122	310.0
191.03502	1000.0
213.05267	10.0
645.2063	160.0

NAME:  NCGC00380553-01![3,4,5-trihydroxy-6-(3,4,5-trihydroxybenzoyl)oxyoxan-2-yl]methyl 3,4,5-trihydroxybenzoate
PRECURSORMZ:  483.07802887183
PRECURSORTYPE:  [M-H]-
FORMULA:  C20H20O14
Ontology: Kingdom: Organic compounds;Superclass: Phenylpropanoids and polyketides;Class: Tannins;
INCHIKEY:  LYGRISUQIZNHGM-UHFFFAOYNA-N
SMILES:  OC1C(O)C(COC(=O)C2=CC(O)=C(O)C(O)=C2)OC(OC(=O)C2=CC(O)=C(O)C(O)=C2)C1O
RETENTIONTIME:  
CCS:  199.3291996
IONMODE:  Negative
INSTRUMENTTYPE:  
INSTRUMENT:  Maxis II HD Q-TOF Bruker
COLLISIONENERGY:  
Comment:  DB#=CCMSLIB00000845139; origin=GNPS
Num Peaks:  14
121.02622	30.0
125.02133	20.0
137.22942	30.0
150.99837	30.0
168.00574	20.0
169.01176	340.0
211.02708	250.0
271.04541	620.0
295.04364	10.0
313.052	190.0
331.06549	80.0
341.17618	20.0
482.99084	20.0
483.07629	1000.0

NAME:  NCGC00169840-02![2-(4-hydroxy-3-methoxyphenyl)-4-[(4-hydroxy-3-methoxyphenyl)methyl]oxolan-3-yl]methyl (E)-3-(4-hydroxyphenyl)prop-2-enoate
PRECURSORMZ:  505.18679147383
PRECURSORTYPE:  [M-H]-
FORMULA:  C29H30O8
Ontology: Kingdom: Organic compounds;Superclass: Lignans;Class: Furanoid lignans;Subclass: Tetrahydrofuran lignans
INCHIKEY:  ZNVUQZAVBXKEGF-UHFFFAOYNA-N
SMILES:  COC1=C(O)C=CC(CC2COC(C2COC(=O)C=CC2=CC=C(O)C=C2)C2=CC(OC)=C(O)C=C2)=C1
RETENTIONTIME:  
CCS:  240.5927112
IONMODE:  Negative
INSTRUMENTTYPE:  
INSTRUMENT:  Maxis II HD Q-TOF Bruker
COLLISIONENERGY:  
Comment:  DB#=CCMSLIB00000845142; origin=GNPS
Num Peaks:  15
119.04589	20.0
123.04241	30.0
137.02533	30.0
145.02979	190.0
151.04213	30.0
162.03159	20.0
163.03932	360.0
169.78552	20.0
244.21758	40.0
252.88211	20.0
301.01044	30.0
327.12991	40.0
341.14734	40.0
505.04321	20.0
505.18423	1000.0

NAME:  NCGC00380543-01![(2R,3S,4S,5R,6R)-6-[(5,8-dihydroxy-4-oxo-2,3-dihydro-1H-naphthalen-1-yl)oxy]-3,4,5-trihydroxyoxan-2-yl]methyl 3,4,5-trihydroxybenzoate
PRECURSORMZ:  507.11441438083
PRECURSORTYPE:  [M-H]-
FORMULA:  C23H24O13
Ontology: Kingdom: Organic compounds;Superclass: Benzenoids;Class: Benzene and substituted derivatives;Subclass: Benzoic acids and derivatives
INCHIKEY:  LWONLPZQFYNCMG-UHFFFAOYNA-N
SMILES:  OC1C(O)C(COC(=O)C2=CC(O)=C(O)C(O)=C2)OC(OC2CCC(=O)C3=C(O)C=CC(O)=C23)C1O
RETENTIONTIME:  
CCS:  -1
IONMODE:  Negative
INSTRUMENTTYPE:  
INSTRUMENT:  Maxis II HD Q-TOF Bruker
COLLISIONENERGY:  
Comment:  DB#=CCMSLIB00000845143; origin=GNPS
Num Peaks:  19
99.77878	10.0
99.92366	10.0
138.99974	20.0
140.0098	30.0
151.0025	10.0
163.14482	20.0
169.01384	90.0
175.03813	70.0
182.04228	10.0
211.02039	170.0
241.04578	60.0
269.88754	10.0
271.04492	1000.0
271.11072	20.0
329.20697	10.0
330.42899	10.0
331.06833	160.0
507.11313	10.0
507.14987	10.0

NAME:  NCGC00380113-01!2,3,14-trihydroxy-10,13-dimethyl-17-(2,3,6,7-tetrahydroxy-5,6-dimethylheptan-2-yl)-2,3,4,5,9,11,12,15,16,17-decahydro-1H-cyclopenta[a]phenanthren-6-one
PRECURSORMZ:  555.31747098883
PRECURSORTYPE:  [M+FA-H]-
FORMULA:  C28H46O8
Ontology: Kingdom: Organic compounds;Superclass: Lipids and lipid;Class: Steroids and steroid derivatives;Subclass: Bile acids
INCHIKEY:  GGLFMIALTLLMEJ-UHFFFAOYNA-N
SMILES:  CC(CC(O)C(C)(O)C1CCC2(O)C3=CC(=O)C4CC(O)C(O)CC4(C)C3CCC12C)C(C)(O)CO
RETENTIONTIME:  
CCS:  -1
IONMODE:  Negative
INSTRUMENTTYPE:  
INSTRUMENT:  Maxis II HD Q-TOF Bruker
COLLISIONENERGY:  
Comment:  DB#=CCMSLIB00000845146; origin=GNPS
Num Peaks:  18
74.66216	10.0
97.06467	10.0
115.07587	10.0
127.07449	10.0
136.9883	10.0
153.08783	10.0
189.11365	310.0
249.14119	10.0
291.21396	20.0
301.18042	40.0
319.18732	80.0
391.21613	10.0
399.25732	20.0
491.29901	10.0
508.56659	10.0
508.60464	10.0
509.31143	1000.0
555.30157	10.0

NAME:  NCGC00169275-02!5-chloro-3-[(E)-3,4-dihydroxy-3,5-dimethylhept-1-enyl]-7,8-dihydroxy-7-methyl-8H-isochromen-6-one
PRECURSORMZ:  429.13216874783
PRECURSORTYPE:  [M+FA-H]-
FORMULA:  C19H25ClO6
Ontology: Kingdom: Organic compounds;Superclass: Organoheterocyclic compounds;Class: Azaphilones;
INCHIKEY:  BRELKNNWUMEGDN-UHFFFAOYNA-N
SMILES:  CCC(C)C(O)C(C)(O)C=CC1=CC2=C(Cl)C(=O)C(C)(O)C(O)C2=CO1
RETENTIONTIME:  
CCS:  -1
IONMODE:  Negative
INSTRUMENTTYPE:  
INSTRUMENT:  Maxis II HD Q-TOF Bruker
COLLISIONENERGY:  
Comment:  DB#=CCMSLIB00000845147; origin=GNPS
Num Peaks:  6
130.04311	320.0
228.03586	200.0
235.05745	1000.0
237.0399	160.0
243.06259	220.0
297.05365	970.0

NAME:  NCGC00180673-03!1,12,23-trihydroxy-1,6,12,17,23,28-hexazacyclotritriacontane-2,5,13,16,24,27-hexone
PRECURSORMZ:  599.34100069783
PRECURSORTYPE:  [M-H]-
FORMULA:  C27H48N6O9
Ontology: Kingdom: Organic compounds;Superclass: Phenylpropanoids and polyketides;Class: Macrolactams;
INCHIKEY:  NHKCCADZVLTPPO-UHFFFAOYSA-N
SMILES:  ON1CCCCCN=C(O)CCC(=O)N(O)CCCCCN=C(O)CCC(=O)N(O)CCCCCN=C(O)CCC1=O
RETENTIONTIME:  
CCS:  268.1231606
IONMODE:  Negative
INSTRUMENTTYPE:  
INSTRUMENT:  Maxis II HD Q-TOF Bruker
COLLISIONENERGY:  
Comment:  DB#=CCMSLIB00000845150; origin=GNPS
Num Peaks:  55
72.04559	30.0
74.2383	20.0
94.29842	10.0
98.02439	160.0
102.03481	10.0
108.08197	20.0
109.85453	10.0
123.05953	30.0
136.07677	30.0
138.06018	10.0
148.56847	20.0
151.08922	70.0
153.1017	60.0
154.08838	40.0
155.1174	140.0
157.09482	20.0
161.06801	20.0
163.08838	60.0
167.12082	30.0
170.07855	20.0
179.08098	30.0
181.09834	900.0
183.11627	30.0
199.10759	1000.0
203.07558	20.0
209.0977	20.0
211.11209	20.0
216.10754	20.0
217.11876	600.0
239.09579	30.0
241.13124	20.0
255.13895	20.0
264.69687	10.0
265.12173	20.0
281.11417	30.0
283.67035	10.0
299.22131	30.0
308.15259	10.0
333.59955	20.0
339.24265	10.0
363.19809	40.0
363.24036	20.0
365.22104	60.0
381.2132	50.0
399.22842	590.0
401.23758	40.0
415.94836	10.0
416.04303	20.0
416.23041	20.0
417.24628	20.0
417.29852	10.0
427.22482	20.0
455.2507	20.0
598.89697	10.0
599.34509	830.0

NAME:  NCGC00180673-03!1,12,23-trihydroxy-1,6,12,17,23,28-hexazacyclotritriacontane-2,5,13,16,24,27-hexone
PRECURSORMZ:  635.3176784099
PRECURSORTYPE:  [M+Cl]-
FORMULA:  C27H48N6O9
Ontology: Kingdom: Organic compounds;Superclass: Phenylpropanoids and polyketides;Class: Macrolactams;
INCHIKEY:  NHKCCADZVLTPPO-UHFFFAOYSA-N
SMILES:  ON1CCCCCN=C(O)CCC(=O)N(O)CCCCCN=C(O)CCC(=O)N(O)CCCCCN=C(O)CCC1=O
RETENTIONTIME:  
CCS:  -1
IONMODE:  Negative
INSTRUMENTTYPE:  
INSTRUMENT:  Maxis II HD Q-TOF Bruker
COLLISIONENERGY:  
Comment:  DB#=CCMSLIB00000845151; origin=GNPS
Num Peaks:  9
163.08998	210.0
179.07941	140.0
181.10515	360.0
199.10851	640.0
201.11998	210.0
217.12119	370.0
265.11038	130.0
399.22046	430.0
599.35236	1000.0

NAME:  NCGC00180448-02!bis[[4-[(2S,3R,4S,5S,6R)-3,4,5-trihydroxy-6-(hydroxymethyl)oxan-2-yl]oxyphenyl]methyl] (2R)-2-(2-methylpropyl)-2-[(2S,3R,4S,5S,6R)-3,4,5-trihydroxy-6-(hydroxymethyl)oxan-2-yl]oxybutanedioate
PRECURSORMZ:  887.31904699083
PRECURSORTYPE:  [M-H]-
FORMULA:  C40H56O22
Ontology: Kingdom: Organic compounds;Superclass: Organic oxygen compounds;Class: Organooxygen compounds;Subclass: Carbohydrates and carbohydrate conjugates
INCHIKEY:  QUCKZYFUROTIBC-UHFFFAOYNA-N
SMILES:  CC(C)CC(CC(=O)OCC1=CC=C(OC2OC(CO)C(O)C(O)C2O)C=C1)(OC1OC(CO)C(O)C(O)C1O)C(=O)OCC1=CC=C(OC2OC(CO)C(O)C(O)C2O)C=C1
RETENTIONTIME:  
CCS:  304.6179192
IONMODE:  Negative
INSTRUMENTTYPE:  
INSTRUMENT:  Maxis II HD Q-TOF Bruker
COLLISIONENERGY:  
Comment:  DB#=CCMSLIB00000845153; origin=GNPS
Num Peaks:  28
71.01885	30.0
109.06329	20.0
113.02177	10.0
123.04646	90.0
125.06233	20.0
127.07757	180.0
138.03172	30.0
149.04517	10.0
149.87317	20.0
153.05513	1000.0
154.0607	20.0
155.13435	20.0
156.08453	10.0
161.05296	20.0
171.0663	270.0
172.06801	10.0
179.05537	130.0
180.05634	40.0
274.10196	20.0
334.13989	20.0
439.16174	980.0
440.1644	100.0
457.17438	10.0
496.17572	20.0
619.22662	270.0
620.21014	50.0
707.26111	10.0
981.48883	20.0

NAME:  NCGC00180448-02!bis[[4-[(2S,3R,4S,5S,6R)-3,4,5-trihydroxy-6-(hydroxymethyl)oxan-2-yl]oxyphenyl]methyl] (2R)-2-(2-methylpropyl)-2-[(2S,3R,4S,5S,6R)-3,4,5-trihydroxy-6-(hydroxymethyl)oxan-2-yl]oxybutanedioate
PRECURSORMZ:  933.32452599083
PRECURSORTYPE:  [M+FA-H]-
FORMULA:  C40H56O22
Ontology: Kingdom: Organic compounds;Superclass: Organic oxygen compounds;Class: Organooxygen compounds;Subclass: Carbohydrates and carbohydrate conjugates
INCHIKEY:  QUCKZYFUROTIBC-UHFFFAOYNA-N
SMILES:  CC(C)CC(CC(=O)OCC1=CC=C(OC2OC(CO)C(O)C(O)C2O)C=C1)(OC1OC(CO)C(O)C(O)C1O)C(=O)OCC1=CC=C(OC2OC(CO)C(O)C(O)C2O)C=C1
RETENTIONTIME:  
CCS:  -1
IONMODE:  Negative
INSTRUMENTTYPE:  
INSTRUMENT:  Maxis II HD Q-TOF Bruker
COLLISIONENERGY:  
Comment:  DB#=CCMSLIB00000845155; origin=GNPS
Num Peaks:  21
89.02831	20.0
95.05827	10.0
101.02507	10.0
113.02292	50.0
119.03384	40.0
123.04425	70.0
127.07648	150.0
138.03305	20.0
153.05516	970.0
154.05847	10.0
161.04471	20.0
171.06529	320.0
179.05496	190.0
180.06203	10.0
285.0994	20.0
405.14398	10.0
439.16119	1000.0
440.1647	170.0
619.22626	560.0
620.23138	60.0
707.23651	10.0

NAME:  NCGC00095460-07!7,11b-dihydro-6H-indeno[2,1-c]chromene-3,4,6a,9,10-pentol
PRECURSORMZ:  347.07724071883
PRECURSORTYPE:  [M+FA-H]-
FORMULA:  C16H14O6
Ontology: Kingdom: Organic compounds;Superclass: Organoheterocyclic compounds;Class: Benzopyrans;
INCHIKEY:  WZUVPPKBWHMQCE-UHFFFAOYNA-N
SMILES:  OC1=C(O)C2=C(C=C1)C1C3=CC(O)=C(O)C=C3CC1(O)CO2
RETENTIONTIME:  
CCS:  -1
IONMODE:  Negative
INSTRUMENTTYPE:  
INSTRUMENT:  Maxis II HD Q-TOF Bruker
COLLISIONENERGY:  
Comment:  DB#=CCMSLIB00000845157; origin=GNPS
Num Peaks:  4
163.03455	70.0
175.03624	110.0
179.03494	40.0
301.07132	1000.0

NAME:  NCGC00160168-03!5,9,10-trihydroxy-2,2-dimethyl-12-(2-methylbut-3-en-2-yl)pyrano[3,2-b]xanthen-6-one
PRECURSORMZ:  393.13436197583
PRECURSORTYPE:  [M-H]-
FORMULA:  C23H22O6
Ontology: Kingdom: Organic compounds;Superclass: Organoheterocyclic compounds;Class: Benzopyrans;
INCHIKEY:  XRVLGJCHUWXTDX-UHFFFAOYSA-N
SMILES:  CC(C)(C=C)C1=C2OC(C)(C)C=CC2=C(O)C2=C1OC1=C(C=CC(O)=C1O)C2=O
RETENTIONTIME:  
CCS:  198.6078008
IONMODE:  Negative
INSTRUMENTTYPE:  
INSTRUMENT:  Maxis II HD Q-TOF Bruker
COLLISIONENERGY:  
Comment:  DB#=CCMSLIB00000845159; origin=GNPS
Num Peaks:  4
199.10176	60.0
377.09705	40.0
378.142	90.0
393.13284	1000.0

NAME:  NCGC00160168-03!5,9,10-trihydroxy-2,2-dimethyl-12-(2-methylbut-3-en-2-yl)pyrano[3,2-b]xanthen-6-one
PRECURSORMZ:  429.1110396879
PRECURSORTYPE:  [M+Cl]-
FORMULA:  C23H22O6
Ontology: Kingdom: Organic compounds;Superclass: Organoheterocyclic compounds;Class: Benzopyrans;
INCHIKEY:  XRVLGJCHUWXTDX-UHFFFAOYSA-N
SMILES:  CC(C)(C=C)C1=C2OC(C)(C)C=CC2=C(O)C2=C1OC1=C(C=CC(O)=C1O)C2=O
RETENTIONTIME:  
CCS:  -1
IONMODE:  Negative
INSTRUMENTTYPE:  
INSTRUMENT:  Maxis II HD Q-TOF Bruker
COLLISIONENERGY:  
Comment:  DB#=CCMSLIB00000845161; origin=GNPS
Num Peaks:  4
271.09	70.0
359.08591	60.0
363.09677	80.0
393.13516	1000.0

NAME:  NCGC00013053-07!3-(3,4-dihydroxyphenyl)-5-hydroxy-8,8-dimethyl-6-(3-methylbut-2-enyl)pyrano[2,3-h]chromen-4-one
PRECURSORMZ:  465.15549104083
PRECURSORTYPE:  [M+FA-H]-
FORMULA:  C25H24O6
Ontology: Kingdom: Organic compounds;Superclass: Phenylpropanoids and polyketides;Class: Isoflavonoids;Subclass: Isoflavans
INCHIKEY:  GHCZYXUOYFOXIP-UHFFFAOYSA-N
SMILES:  CC(C)=CCC1=C(O)C2=C(OC=C(C2=O)C2=CC(O)=C(O)C=C2)C2=C1OC(C)(C)C=C2
RETENTIONTIME:  
CCS:  -1
IONMODE:  Negative
INSTRUMENTTYPE:  
INSTRUMENT:  Maxis II HD Q-TOF Bruker
COLLISIONENERGY:  
Comment:  DB#=CCMSLIB00000845163; origin=GNPS
Num Peaks:  10
137.25984	40.0
150.0323	50.0
231.06366	50.0
241.12234	30.0
255.07755	40.0
258.05634	50.0
363.09311	50.0
419.15118	1000.0
420.16446	70.0
505.43051	20.0

NAME:  NCGC00385223-01!(2R,3S)-7-[(2S,3R,4R)-3,4-dihydroxy-4-(hydroxymethyl)oxolan-2-yl]oxy-2-(3,4-dihydroxyphenyl)-3,4-dihydro-2H-chromene-3,5-diol
PRECURSORMZ:  467.11949945583
PRECURSORTYPE:  [M+FA-H]-
FORMULA:  C20H22O10
Ontology: Kingdom: Organic compounds;Superclass: Phenylpropanoids and polyketides;Class: Flavonoids;Subclass: Flavans
INCHIKEY:  OZEIRJMOKXRLCR-UHFFFAOYNA-N
SMILES:  OCC1(O)COC(OC2=CC(O)=C3CC(O)C(OC3=C2)C2=CC(O)=C(O)C=C2)C1O
RETENTIONTIME:  
CCS:  -1
IONMODE:  Negative
INSTRUMENTTYPE:  
INSTRUMENT:  Maxis II HD Q-TOF Bruker
COLLISIONENERGY:  
Comment:  DB#=CCMSLIB00000845165; origin=GNPS
Num Peaks:  12
109.03036	60.0
137.02425	480.0
149.02611	60.0
164.01591	50.0
189.05721	70.0
199.08408	50.0
201.55876	40.0
202.05907	50.0
245.08315	190.0
289.07358	1000.0
419.31564	20.0
421.12048	500.0

NAME:  NCGC00169746-02!(2S,3S,4S,5R,6S)-3,4,5-trihydroxy-6-[5-hydroxy-2-(4-hydroxyphenyl)-4-oxochromen-7-yl]oxyoxane-2-carboxylic acid
PRECURSORMZ:  445.07763494783
PRECURSORTYPE:  [M-H]-
FORMULA:  C21H18O11
Ontology: Kingdom: Organic compounds;Superclass: Phenylpropanoids and polyketides;Class: Flavonoids;Subclass: Flavonoid glycosides
INCHIKEY:  JBFOLLJCGUCDQP-UHFFFAOYNA-N
SMILES:  OC1C(O)C(OC2=CC(O)=C3C(=O)C=C(OC3=C2)C2=CC=C(O)C=C2)OC(C1O)C(O)=O
RETENTIONTIME:  
CCS:  226.712548
IONMODE:  Negative
INSTRUMENTTYPE:  
INSTRUMENT:  Maxis II HD Q-TOF Bruker
COLLISIONENERGY:  
Comment:  DB#=CCMSLIB00000845167; origin=GNPS
Num Peaks:  5
225.0697	40.0
269.04684	1000.0
269.23523	60.0
445.08115	50.0
1971.85608	40.0

NAME:  NCGC00385228-01!(2S,3S,4S,5R,6S)-3,4,5-trihydroxy-6-[5-hydroxy-2-(2-hydroxyphenyl)-6-methoxy-4-oxochromen-7-yl]oxyoxane-2-carboxylic acid
PRECURSORMZ:  475.08819963183
PRECURSORTYPE:  [M-H]-
FORMULA:  C22H20O12
Ontology: Kingdom: Organic compounds;Superclass: Phenylpropanoids and polyketides;Class: Flavonoids;Subclass: Flavonoid glycosides
INCHIKEY:  KZMZTZKFLKRTMB-UHFFFAOYNA-N
SMILES:  COC1=C(OC2OC(C(O)C(O)C2O)C(O)=O)C=C2OC(=CC(=O)C2=C1O)C1=CC=CC=C1O
RETENTIONTIME:  
CCS:  227.3550165
IONMODE:  Negative
INSTRUMENTTYPE:  
INSTRUMENT:  Maxis II HD Q-TOF Bruker
COLLISIONENERGY:  
Comment:  DB#=CCMSLIB00000845170; origin=GNPS
Num Peaks:  10
113.02637	50.0
153.99004	70.0
168.05275	60.0
284.03363	330.0
299.05383	1000.0
299.20432	30.0
475.09216	80.0
698.43298	40.0
1723.96619	30.0
1974.58875	70.0

NAME:  NCGC00168839-02!(2S,3R,5R,10R,13R,14S,17S)-2,3,14-trihydroxy-10,13-dimethyl-17-[(2R,3R)-2,3,6-trihydroxy-6-methylheptan-2-yl]-2,3,4,5,9,11,12,15,16,17-decahydro-1H-cyclopenta[a]phenanthren-6-one
PRECURSORMZ:  525.30690630483
PRECURSORTYPE:  [M+FA-H]-
FORMULA:  C27H44O7
Ontology: Kingdom: Organic compounds;Superclass: Lipids and lipid;Class: Steroids and steroid derivatives;Subclass: Bile acids
INCHIKEY:  NKDFYOWSKOHCCO-UHFFFAOYNA-N
SMILES:  CC(C)(O)CCC(O)C(C)(O)C1CCC2(O)C3=CC(=O)C4CC(O)C(O)CC4(C)C3CCC12C
RETENTIONTIME:  
CCS:  -1
IONMODE:  Negative
INSTRUMENTTYPE:  
INSTRUMENT:  Maxis II HD Q-TOF Bruker
COLLISIONENERGY:  
Comment:  DB#=CCMSLIB00000845171; origin=GNPS
Num Peaks:  9
78.90193	140.0
159.10461	260.0
265.03143	40.0
267.13596	60.0
319.19601	170.0
331.17944	40.0
479.30811	1000.0
525.30481	270.0
525.35144	50.0

NAME:  NCGC00385260-01![(2S,3R,4S,5R,6R)-2-[3-[(2S,3R,4S,5S,6R)-4,5-dihydroxy-6-(hydroxymethyl)-3-[(2S,3R,4R,5R,6S)-3,4,5-trihydroxy-6-methyloxan-2-yl]oxyoxan-2-yl]oxy-5-hydroxy-2-(4-hydroxyphenyl)-4-oxochromen-7-yl]oxy-5-hydroxy-6-(hydroxymethyl)-4-[(2S,3R,4S,5S,6R)-3,4,5-trihydroxy-6-(hydroxymethyl)oxan-2-yl]oxyoxan-3-yl] (E)-3-(4-hydroxyphenyl)prop-2-enoate
PRECURSORMZ:  1063.29362009083
PRECURSORTYPE:  [M-H]-
FORMULA:  C48H56O27
Ontology: Kingdom: Organic compounds;Superclass: Phenylpropanoids and polyketides;Class: Flavonoids;Subclass: Flavonoid glycosides
INCHIKEY:  OUYDFTJZSVOQJE-UHFFFAOYNA-N
SMILES:  CC1OC(OC2C(OC3=C(OC4=CC(OC5OC(CO)C(O)C(OC6OC(CO)C(O)C(O)C6O)C5OC(=O)C=CC5=CC=C(O)C=C5)=CC(O)=C4C3=O)C3=CC=C(O)C=C3)OC(CO)C(O)C2O)C(O)C(O)C1O
RETENTIONTIME:  
CCS:  334.4740239
IONMODE:  Negative
INSTRUMENTTYPE:  
INSTRUMENT:  Maxis II HD Q-TOF Bruker
COLLISIONENERGY:  
Comment:  DB#=CCMSLIB00000845173; origin=GNPS
Num Peaks:  21
127.05753	10.0
145.02841	130.0
163.03963	10.0
169.01923	20.0
227.03598	80.0
228.03796	30.0
255.02986	190.0
256.03549	70.0
283.02448	70.0
284.03436	1000.0
285.03934	220.0
286.04251	20.0
593.15131	730.0
594.15564	180.0
595.1676	10.0
754.18201	20.0
917.28131	10.0
1046.4375	10.0
1063.30457	200.0
1064.29468	50.0
1065.3064	20.0

NAME:  NCGC00380861-01!
PRECURSORMZ:  519.18718539783
PRECURSORTYPE:  [M-H]-
FORMULA:  C26H32O11
Ontology: Kingdom: Organic compounds;Superclass: Organic acids and derivatives;Class: Carboxylic acids and derivatives;Subclass: Tetracarboxylic acids and derivatives
INCHIKEY:  XOEFANNJIKAWGX-UHFFFAOYNA-N
SMILES:  CCCCCCC(O)C1C(O)C2=C(CC(CC3=C1C(=O)OC3O)C(O)C1CC=CC(=O)O1)C(=O)OC2=O
RETENTIONTIME:  
CCS:  237.2650117
IONMODE:  Negative
INSTRUMENTTYPE:  
INSTRUMENT:  Maxis II HD Q-TOF Bruker
COLLISIONENERGY:  
Comment:  DB#=CCMSLIB00000845176; origin=GNPS
Num Peaks:  45
102.37132	220.0
123.04048	190.0
137.5555	130.0
141.02037	190.0
145.06418	190.0
147.08023	140.0
151.0361	210.0
152.00604	130.0
155.10344	350.0
161.05727	330.0
163.08745	150.0
173.09927	200.0
179.03635	150.0
181.05209	300.0
201.13301	170.0
203.11256	280.0
211.11343	340.0
215.07294	180.0
227.10548	620.0
229.12029	180.0
232.03394	240.0
239.15955	290.0
245.11836	800.0
247.17142	230.0
255.10451	830.0
257.17511	130.0
279.0882	120.0
281.19846	350.0
287.10202	170.0
287.16415	170.0
289.11276	460.0
305.07172	180.0
307.20557	210.0
343.19708	90.0
361.08774	200.0
369.20428	150.0
403.20615	240.0
405.11401	120.0
413.18408	320.0
474.14429	60.0
474.30334	60.0
474.39938	140.0
475.20389	300.0
519.19873	190.0
1359.98157	1000.0

NAME:  NCGC00380861-01!
PRECURSORMZ:  565.19266439783
PRECURSORTYPE:  [M+FA-H]-
FORMULA:  C26H32O11
Ontology: Kingdom: Organic compounds;Superclass: Organic acids and derivatives;Class: Carboxylic acids and derivatives;Subclass: Tetracarboxylic acids and derivatives
INCHIKEY:  XOEFANNJIKAWGX-UHFFFAOYNA-N
SMILES:  CCCCCCC(O)C1C(O)C2=C(CC(CC3=C1C(=O)OC3O)C(O)C1CC=CC(=O)O1)C(=O)OC2=O
RETENTIONTIME:  
CCS:  -1
IONMODE:  Negative
INSTRUMENTTYPE:  
INSTRUMENT:  Maxis II HD Q-TOF Bruker
COLLISIONENERGY:  
Comment:  DB#=CCMSLIB00000845177; origin=GNPS
Num Peaks:  44
127.1225	110.0
133.05763	100.0
149.02504	380.0
149.52133	160.0
151.048	280.0
157.0634	420.0
161.0706	580.0
163.03435	190.0
171.08101	180.0
189.05322	290.0
191.06483	150.0
211.10748	490.0
213.09613	330.0
214.10638	420.0
229.11905	190.0
235.06496	320.0
235.16789	260.0
242.16183	320.0
245.0762	280.0
245.11913	680.0
273.12027	580.0
285.15771	320.0
287.09274	240.0
289.1337	310.0
297.14081	290.0
299.08804	370.0
305.06894	460.0
305.17871	300.0
323.19852	240.0
341.07281	190.0
341.22455	140.0
343.07675	140.0
351.2019	610.0
361.09775	260.0
369.21417	170.0
377.08691	340.0
405.09311	200.0
413.19705	240.0
431.19791	1000.0
457.19608	170.0
475.19922	420.0
501.16287	170.0
518.75171	170.0
519.19403	340.0

NAME:  NCGC00380864-01!7-[4,5-dihydroxy-6-(hydroxymethyl)-3-[(2S,3R,4R,5R,6S)-3,4,5-trihydroxy-6-methyloxan-2-yl]oxyoxan-2-yl]oxy-5-hydroxy-2-(4-hydroxyphenyl)-2,3-dihydrochromen-4-one
PRECURSORMZ:  579.17192925783
PRECURSORTYPE:  [M-H]-
FORMULA:  C27H32O14
Ontology: ;;;
INCHIKEY:  DFPMSGMNTNDNHN-UHFFFAOYNA-N
SMILES:  CC1OC(OC2C(O)C(O)C(CO)OC2OC2=CC(O)=C3C(=O)CC(OC3=C2)C2=CC=C(O)C=C2)C(O)C(O)C1O
RETENTIONTIME:  
CCS:  222.2572464
IONMODE:  Negative
INSTRUMENTTYPE:  
INSTRUMENT:  Maxis II HD Q-TOF Bruker
COLLISIONENERGY:  
Comment:  DB#=CCMSLIB00000845179; origin=GNPS
Num Peaks:  16
107.01154	60.0
149.0222	30.0
151.00124	340.0
177.01572	70.0
193.0144	80.0
235.02106	50.0
271.06128	730.0
284.30438	10.0
339.08511	40.0
417.11456	30.0
433.10309	30.0
459.11908	270.0
501.13391	60.0
579.1712	1000.0
1143.83618	40.0
1162.93848	40.0

NAME:  NCGC00380864-01!7-[4,5-dihydroxy-6-(hydroxymethyl)-3-[(2S,3R,4R,5R,6S)-3,4,5-trihydroxy-6-methyloxan-2-yl]oxyoxan-2-yl]oxy-5-hydroxy-2-(4-hydroxyphenyl)-2,3-dihydrochromen-4-one
PRECURSORMZ:  625.17740825783
PRECURSORTYPE:  [M+FA-H]-
FORMULA:  C27H32O14
Ontology: Kingdom: Organic compounds;Superclass: Phenylpropanoids and polyketides;Class: Flavonoids;Subclass: Flavonoid glycosides
INCHIKEY:  DFPMSGMNTNDNHN-UHFFFAOYNA-N
SMILES:  CC1OC(OC2C(O)C(O)C(CO)OC2OC2=CC(O)=C3C(=O)CC(OC3=C2)C2=CC=C(O)C=C2)C(O)C(O)C1O
RETENTIONTIME:  
CCS:  -1
IONMODE:  Negative
INSTRUMENTTYPE:  
INSTRUMENT:  Maxis II HD Q-TOF Bruker
COLLISIONENERGY:  
Comment:  DB#=CCMSLIB00000845182; origin=GNPS
Num Peaks:  27
93.03287	20.0
98.42294	10.0
119.0497	50.0
125.02594	20.0
135.60596	10.0
135.67578	10.0
145.03009	50.0
151.0027	280.0
164.01912	20.0
169.0139	30.0
187.04001	20.0
195.99913	50.0
227.07188	10.0
242.05287	10.0
271.05978	330.0
276.72137	10.0
295.04565	10.0
373.09079	20.0
415.09872	20.0
433.11209	20.0
459.12048	140.0
485.10971	10.0
578.63855	10.0
579.04999	10.0
579.1731	1000.0
579.29077	20.0
580.15881	20.0

NAME:  NCGC00179867-02![(2R,3R,4S,5R,6S)-3,5-dihydroxy-4,6-bis[(3,4,5-trihydroxybenzoyl)oxy]oxan-2-yl]methyl 3,4,5-trihydroxybenzoate
PRECURSORMZ:  635.08898748083
PRECURSORTYPE:  [M-H]-
FORMULA:  C27H24O18
Ontology: Kingdom: Organic compounds;Superclass: Phenylpropanoids and polyketides;Class: Tannins;
INCHIKEY:  RNKMOGIPOMVCHO-UHFFFAOYNA-N
SMILES:  OC1C(COC(=O)C2=CC(O)=C(O)C(O)=C2)OC(OC(=O)C2=CC(O)=C(O)C(O)=C2)C(O)C1OC(=O)C1=CC(O)=C(O)C(O)=C1
RETENTIONTIME:  
CCS:  225.6359053
IONMODE:  Negative
INSTRUMENTTYPE:  
INSTRUMENT:  Maxis II HD Q-TOF Bruker
COLLISIONENERGY:  
Comment:  DB#=CCMSLIB00000845184; origin=GNPS
Num Peaks:  29
113.02271	10.0
123.00671	20.0
125.02588	110.0
139.03986	10.0
143.03416	20.0
151.00546	10.0
169.01349	410.0
171.04538	20.0
175.03859	10.0
178.99817	10.0
195.02905	20.0
195.04771	20.0
205.0051	10.0
207.02513	10.0
211.02545	80.0
221.04546	60.0
271.04752	120.0
281.27747	20.0
295.05188	50.0
296.04764	20.0
313.05984	70.0
324.5838	10.0
331.05194	20.0
423.05017	20.0
465.06796	110.0
466.07788	20.0
483.07849	100.0
635.09058	1000.0
636.09009	30.0

NAME:  NCGC00380802-01!3-[4,5-dihydroxy-3-[(2R,3R,4R,5R,6S)-3,4,5-trihydroxy-6-methyloxan-2-yl]oxy-6-[[(2R,3R,4R,5R,6S)-3,4,5-trihydroxy-6-methyloxan-2-yl]oxymethyl]oxan-2-yl]oxy-5,7-dihydroxy-2-(4-hydroxyphenyl)chromen-4-one
PRECURSORMZ:  739.20910261583
PRECURSORTYPE:  [M-H]-
FORMULA:  C33H40O19
Ontology: Kingdom: Organic compounds;Superclass: Phenylpropanoids and polyketides;Class: Flavonoids;Subclass: Flavonoid glycosides
INCHIKEY:  WRXVPTMENPZUIZ-UHFFFAOYNA-N
SMILES:  CC1OC(OCC2OC(OC3=C(OC4=CC(O)=CC(O)=C4C3=O)C3=CC=C(O)C=C3)C(OC3OC(C)C(O)C(O)C3O)C(O)C2O)C(O)C(O)C1O
RETENTIONTIME:  
CCS:  259.7559514
IONMODE:  Negative
INSTRUMENTTYPE:  
INSTRUMENT:  Maxis II HD Q-TOF Bruker
COLLISIONENERGY:  
Comment:  DB#=CCMSLIB00000845185; origin=GNPS
Num Peaks:  15
151.00145	10.0
178.9975	20.0
187.04297	10.0
199.03798	10.0
211.04161	10.0
227.03542	200.0
229.05324	20.0
255.02989	390.0
256.0376	50.0
257.04538	20.0
283.0311	20.0
284.03241	1000.0
285.0397	140.0
739.20801	590.0
740.21887	90.0

NAME:  NCGC00385319-01!4-[2-hydroxy-3-methyl-3-[(2S,3R,4S,5S,6R)-3,4,5-trihydroxy-6-(hydroxymethyl)oxan-2-yl]oxybutoxy]furo[3,2-g]chromen-7-one
PRECURSORMZ:  511.14571420483
PRECURSORTYPE:  [M+FA-H]-
FORMULA:  C22H26O11
Ontology: Kingdom: Organic compounds;Superclass: Phenylpropanoids and polyketides;Class: Coumarins and derivatives;Subclass: Furanocoumarins
INCHIKEY:  VCJBNRNRYLKSGX-UHFFFAOYNA-N
SMILES:  CC(C)(OC1OC(CO)C(O)C(O)C1O)C(O)COC1=C2C=COC2=CC2=C1C=CC(=O)O2
RETENTIONTIME:  
CCS:  -1
IONMODE:  Negative
INSTRUMENTTYPE:  
INSTRUMENT:  Maxis II HD Q-TOF Bruker
COLLISIONENERGY:  
Comment:  DB#=CCMSLIB00000845187; origin=GNPS
Num Peaks:  4
74.06109	10.0
102.26813	20.0
145.03114	10.0
201.02057	1000.0

NAME:  NCGC00169359-04!5-hydroxy-2-(4-hydroxyphenyl)-7-[(2S,3R,4S,5S,6R)-3,4,5-trihydroxy-6-[[(2R,3R,4R,5R,6S)-3,4,5-trihydroxy-6-methyloxan-2-yl]oxymethyl]oxan-2-yl]oxy-2,3-dihydrochromen-4-one
PRECURSORMZ:  579.17192925783
PRECURSORTYPE:  [M-H]-
FORMULA:  C27H32O14
Ontology: Kingdom: Organic compounds;Superclass: Phenylpropanoids and polyketides;Class: Flavonoids;Subclass: Flavonoid glycosides
INCHIKEY:  HXTFHSYLYXVTHC-UHFFFAOYNA-N
SMILES:  CC1OC(OCC2OC(OC3=CC(O)=C4C(=O)CC(OC4=C3)C3=CC=C(O)C=C3)C(O)C(O)C2O)C(O)C(O)C1O
RETENTIONTIME:  
CCS:  221.8934286
IONMODE:  Negative
INSTRUMENTTYPE:  
INSTRUMENT:  Maxis II HD Q-TOF Bruker
COLLISIONENERGY:  
Comment:  DB#=CCMSLIB00000845190; origin=GNPS
Num Peaks:  16
111.76836	60.0
119.05006	80.0
151.00293	460.0
169.01408	90.0
177.0226	70.0
187.03465	230.0
270.05493	110.0
270.43365	50.0
271.06314	750.0
271.53046	40.0
280.60687	50.0
433.13416	60.0
455.14429	50.0
459.11902	420.0
481.51932	40.0
579.17627	1000.0

NAME:  NCGC00169359-04!5-hydroxy-2-(4-hydroxyphenyl)-7-[(2S,3R,4S,5S,6R)-3,4,5-trihydroxy-6-[[(2R,3R,4R,5R,6S)-3,4,5-trihydroxy-6-methyloxan-2-yl]oxymethyl]oxan-2-yl]oxy-2,3-dihydrochromen-4-one
PRECURSORMZ:  561.16136457783
PRECURSORTYPE:  [M-H2O-H]-
FORMULA:  C27H32O14
Ontology: Kingdom: Organic compounds;Superclass: Phenylpropanoids and polyketides;Class: Flavonoids;Subclass: Flavonoid glycosides
INCHIKEY:  HXTFHSYLYXVTHC-UHFFFAOYNA-N
SMILES:  CC1OC(OCC2OC(OC3=CC(O)=C4C(=O)CC(OC4=C3)C3=CC=C(O)C=C3)C(O)C(O)C2O)C(O)C(O)C1O
RETENTIONTIME:  
CCS:  -1
IONMODE:  Negative
INSTRUMENTTYPE:  
INSTRUMENT:  Maxis II HD Q-TOF Bruker
COLLISIONENERGY:  
Comment:  DB#=CCMSLIB00000845191; origin=GNPS
Num Peaks:  6
136.27635	20.0
210.06956	300.0
225.09315	660.0
269.08234	1000.0
269.12906	10.0
561.17438	30.0

NAME:  NCGC00169359-04!5-hydroxy-2-(4-hydroxyphenyl)-7-[(2S,3R,4S,5S,6R)-3,4,5-trihydroxy-6-[[(2R,3R,4R,5R,6S)-3,4,5-trihydroxy-6-methyloxan-2-yl]oxymethyl]oxan-2-yl]oxy-2,3-dihydrochromen-4-one
PRECURSORMZ:  625.17740825783
PRECURSORTYPE:  [M+FA-H]-
FORMULA:  C27H32O14
Ontology: Kingdom: Organic compounds;Superclass: Phenylpropanoids and polyketides;Class: Flavonoids;Subclass: Flavonoid glycosides
INCHIKEY:  HXTFHSYLYXVTHC-UHFFFAOYNA-N
SMILES:  CC1OC(OCC2OC(OC3=CC(O)=C4C(=O)CC(OC4=C3)C3=CC=C(O)C=C3)C(O)C(O)C2O)C(O)C(O)C1O
RETENTIONTIME:  
CCS:  -1
IONMODE:  Negative
INSTRUMENTTYPE:  
INSTRUMENT:  Maxis II HD Q-TOF Bruker
COLLISIONENERGY:  
Comment:  DB#=CCMSLIB00000845193; origin=GNPS
Num Peaks:  25
82.60081	20.0
130.96077	10.0
135.04353	10.0
145.02161	10.0
151.00522	260.0
181.08965	10.0
196.00171	20.0
212.16733	10.0
227.08897	10.0
241.05447	20.0
247.02977	10.0
255.03409	20.0
268.04913	10.0
269.04404	100.0
270.05429	110.0
271.06189	400.0
291.21051	20.0
373.08325	10.0
459.13019	100.0
460.12735	20.0
509.27975	20.0
578.16443	60.0
579.17291	1000.0
579.50372	10.0
580.17114	40.0

NAME:  NCGC00385154-02!4-[3-[(2S,3R,4S,5S,6R)-6-[[(2R,3R,4R)-3,4-dihydroxy-4-(hydroxymethyl)oxolan-2-yl]oxymethyl]-3,4,5-trihydroxyoxan-2-yl]oxy-2-hydroxy-3-methylbutoxy]furo[3,2-g]chromen-7-one
PRECURSORMZ:  643.18797294283
PRECURSORTYPE:  [M+FA-H]-
FORMULA:  C27H34O15
Ontology: Kingdom: Organic compounds;Superclass: Phenylpropanoids and polyketides;Class: Coumarins and derivatives;Subclass: Furanocoumarins
INCHIKEY:  WHICJDPSYBJDEN-UHFFFAOYNA-N
SMILES:  CC(C)(OC1OC(COC2OCC(O)(CO)C2O)C(O)C(O)C1O)C(O)COC1=C2C=COC2=CC2=C1C=CC(=O)O2
RETENTIONTIME:  
CCS:  -1
IONMODE:  Negative
INSTRUMENTTYPE:  
INSTRUMENT:  Maxis II HD Q-TOF Bruker
COLLISIONENERGY:  
Comment:  DB#=CCMSLIB00000845204; origin=GNPS
Num Peaks:  2
163.03543	20.0
201.01967	1000.0

NAME:  NCGC00385327-01!(2S)-7-[(2S,3R,4S,5S,6R)-4,5-dihydroxy-6-(hydroxymethyl)-3-[(2S,3R,4R,5R,6S)-3,4,5-trihydroxy-6-methyloxan-2-yl]oxyoxan-2-yl]oxy-5-hydroxy-2-(3-hydroxy-4-methoxyphenyl)-2,3-dihydrochromen-4-one
PRECURSORMZ:  609.18249394283
PRECURSORTYPE:  [M-H]-
FORMULA:  C28H34O15
Ontology: Kingdom: Organic compounds;Superclass: Phenylpropanoids and polyketides;Class: Flavonoids;Subclass: Flavonoid glycosides
INCHIKEY:  ARGKVCXINMKCAZ-UHFFFAOYNA-N
SMILES:  COC1=C(O)C=C(C=C1)C1CC(=O)C2=C(O)C=C(OC3OC(CO)C(O)C(O)C3OC3OC(C)C(O)C(O)C3O)C=C2O1
RETENTIONTIME:  
CCS:  228.3650395
IONMODE:  Negative
INSTRUMENTTYPE:  
INSTRUMENT:  Maxis II HD Q-TOF Bruker
COLLISIONENERGY:  
Comment:  DB#=CCMSLIB00000845210; origin=GNPS
Num Peaks:  26
108.02429	40.0
112.88052	20.0
125.02531	80.0
134.03165	30.0
136.01498	20.0
151.00621	30.0
160.0201	20.0
164.01711	40.0
188.04677	20.0
195.99977	60.0
199.03282	50.0
217.04356	40.0
255.06842	30.0
283.07104	40.0
284.05115	20.0
285.03348	50.0
286.03296	10.0
286.07712	30.0
301.07364	710.0
313.36176	20.0
325.06522	30.0
333.94632	30.0
337.06921	20.0
489.14383	40.0
608.29651	30.0
609.18622	1000.0

NAME:  NCGC00385327-01!(2S)-7-[(2S,3R,4S,5S,6R)-4,5-dihydroxy-6-(hydroxymethyl)-3-[(2S,3R,4R,5R,6S)-3,4,5-trihydroxy-6-methyloxan-2-yl]oxyoxan-2-yl]oxy-5-hydroxy-2-(3-hydroxy-4-methoxyphenyl)-2,3-dihydrochromen-4-one
PRECURSORMZ:  655.18797294283
PRECURSORTYPE:  [M+FA-H]-
FORMULA:  C28H34O15
Ontology: Kingdom: Organic compounds;Superclass: Phenylpropanoids and polyketides;Class: Flavonoids;Subclass: Flavonoid glycosides
INCHIKEY:  ARGKVCXINMKCAZ-UHFFFAOYNA-N
SMILES:  COC1=C(O)C=C(C=C1)C1CC(=O)C2=C(O)C=C(OC3OC(CO)C(O)C(O)C3OC3OC(C)C(O)C(O)C3O)C=C2O1
RETENTIONTIME:  
CCS:  -1
IONMODE:  Negative
INSTRUMENTTYPE:  
INSTRUMENT:  Maxis II HD Q-TOF Bruker
COLLISIONENERGY:  
Comment:  DB#=CCMSLIB00000845211; origin=GNPS
Num Peaks:  8
187.09842	140.0
300.05621	150.0
301.07535	880.0
459.10269	140.0
459.13165	160.0
609.18463	1000.0
609.23401	250.0
697.61102	260.0

NAME:  NCGC00380847-01!(1R)-2-chloro-1,7-dihydroxy-3,9-dimethoxy-1-methylbenzo[c]chromene-4,6-dione
PRECURSORMZ:  397.03318304783
PRECURSORTYPE:  [M+FA-H]-
FORMULA:  C16H13ClO7
Ontology: Kingdom: Organic compounds;Superclass: Phenylpropanoids and polyketides;Class: Isocoumarins and derivatives;
INCHIKEY:  UMKWAHOXPWRVRW-UHFFFAOYNA-N
SMILES:  COC1=CC2=C(C(O)=C1)C(=O)OC1=C2C(C)(O)C(Cl)=C(OC)C1=O
RETENTIONTIME:  
CCS:  -1
IONMODE:  Negative
INSTRUMENTTYPE:  
INSTRUMENT:  Maxis II HD Q-TOF Bruker
COLLISIONENERGY:  
Comment:  DB#=CCMSLIB00000845213; origin=GNPS
Num Peaks:  10
213.02701	160.0
272.02762	230.0
273.05969	130.0
291.00269	190.0
292.01257	220.0
320.97668	140.0
335.24338	70.0
335.36923	60.0
336.00247	670.0
351.02884	1000.0

NAME:  NCGC00170012-03!5-hydroxy-3-[(2S,3R,4S,5S)-4-hydroxy-5-(hydroxymethyl)-3-[(2S,3R,4R,5R,6S)-3,4,5-trihydroxy-6-methyloxan-2-yl]oxyoxolan-2-yl]oxy-2-(4-hydroxyphenyl)-7-methoxychromen-4-one
PRECURSORMZ:  577.15627919383
PRECURSORTYPE:  [M-H]-
FORMULA:  C27H30O14
Ontology: Kingdom: Organic compounds;Superclass: Phenylpropanoids and polyketides;Class: Flavonoids;Subclass: Flavonoid glycosides
INCHIKEY:  TXCAFRVNHJUDMI-UHFFFAOYNA-N
SMILES:  COC1=CC(O)=C2C(=O)C(OC3OC(CO)C(O)C3OC3OC(C)C(O)C(O)C3O)=C(OC2=C1)C1=CC=C(O)C=C1
RETENTIONTIME:  
CCS:  -1
IONMODE:  Negative
INSTRUMENTTYPE:  
INSTRUMENT:  Maxis II HD Q-TOF Bruker
COLLISIONENERGY:  
Comment:  DB#=CCMSLIB00000845215; origin=GNPS
Num Peaks:  12
148.67873	10.0
193.01637	50.0
227.04088	20.0
255.033	40.0
271.05869	20.0
283.02548	440.0
298.04956	1000.0
298.51389	10.0
299.05695	90.0
301.1174	20.0
487.13632	20.0
577.15997	610.0

NAME:  NCGC00169209-03![17-(2,6-dihydroxy-6-methyl-3-oxoheptan-2-yl)-3-hydroxy-4,4,9,13,14-pentamethyl-2-[3,4,5-trihydroxy-6-(hydroxymethyl)oxan-2-yl]oxy-2,3,7,8,10,11,12,15,16,17-decahydro-1H-cyclopenta[a]phenanthren-16-yl] acetate
PRECURSORMZ:  755.42232998383
PRECURSORTYPE:  [M+FA-H]-
FORMULA:  C38H62O12
Ontology: Kingdom: Organic compounds;Superclass: Lipids and lipid;Class: Steroids and steroid derivatives;Subclass: Steroidal glycosides
INCHIKEY:  VJWYQRXPCZNDKS-UHFFFAOYNA-N
SMILES:  CC(=O)OC1CC2(C)C3CC=C4C(CC(OC5OC(CO)C(O)C(O)C5O)C(O)C4(C)C)C3(C)CCC2(C)C1C(C)(O)C(=O)CCC(C)(C)O
RETENTIONTIME:  
CCS:  -1
IONMODE:  Negative
INSTRUMENTTYPE:  
INSTRUMENT:  Maxis II HD Q-TOF Bruker
COLLISIONENERGY:  
Comment:  DB#=CCMSLIB00000845217; origin=GNPS
Num Peaks:  28
101.02525	140.0
161.0455	220.0
329.23679	30.0
337.20502	50.0
340.68268	30.0
340.76053	10.0
341.21674	60.0
345.23917	30.0
371.25385	10.0
425.29703	20.0
469.33383	90.0
473.30289	30.0
487.327	50.0
589.38501	30.0
612.34021	50.0
631.38214	210.0
632.38477	20.0
649.26581	40.0
649.40002	1000.0
650.41553	100.0
651.40295	20.0
653.4046	20.0
686.98639	40.0
691.42108	60.0
709.41748	290.0
709.50421	20.0
755.42389	360.0
980.22375	130.0

NAME:  NCGC00380848-01!(2R,3R,4R,5R,6S)-2-[[(2R,3S,4S,5R,6S)-6-[(2R,3R,4R,5S,6S)-2-[[(1S,3R,4S,4aR,8aR)-4-[(3S)-3-[(2S,3R,4S,5R,6R)-4,5-dihydroxy-6-methyl-3-[(2S,3R,4R,5R,6S)-3,4,5-trihydroxy-6-methyloxan-2-yl]oxyoxan-2-yl]oxy-3-methylpent-4-enyl]-3,4,8,8a-tetramethyl-1,2,3,4a,5,6-hexahydronaphthalen-1-yl]oxy]-3,5-dihydroxy-6-methyloxan-4-yl]oxy-3,4,5-trihydroxyoxan-2-yl]methoxy]-6-methyloxane-3,4,5-triol
PRECURSORMZ:  1097.53854151283
PRECURSORTYPE:  [M+FA-H]-
FORMULA:  C50H84O23
Ontology: ;;;
INCHIKEY:  MERWGCAXAUTKAC-UHFFFAOYNA-N
SMILES:  CC1CC(OC2OC(C)C(O)C(OC3OC(COC4OC(C)C(O)C(O)C4O)C(O)C(O)C3O)C2O)C2(C)C(CCC=C2C)C1(C)CCC(C)(OC1OC(C)C(O)C(O)C1OC1OC(C)C(O)C(O)C1O)C=C
RETENTIONTIME:  
CCS:  -1
IONMODE:  Negative
INSTRUMENTTYPE:  
INSTRUMENT:  Maxis II HD Q-TOF Bruker
COLLISIONENERGY:  
Comment:  DB#=CCMSLIB00000845220; origin=GNPS
Num Peaks:  39
73.03004	20.0
85.03035	40.0
101.02472	100.0
103.03941	10.0
109.02951	10.0
113.03077	20.0
125.02271	20.0
126.03103	60.0
127.03986	20.0
145.05336	50.0
161.04683	70.0
163.05711	10.0
205.07976	10.0
237.42238	20.0
299.17966	10.0
319.2338	10.0
321.24609	10.0
449.28995	60.0
451.30292	20.0
467.29242	20.0
494.20319	10.0
515.30707	10.0
523.31885	10.0
595.34888	160.0
613.35992	200.0
614.35754	50.0
723.38531	20.0
741.4057	30.0
759.41925	200.0
760.41986	40.0
905.47998	400.0
906.48456	60.0
906.62482	10.0
907.4809	20.0
1049.52563	10.0
1050.03247	10.0
1051.53296	1000.0
1052.53381	390.0
1053.552	40.0

NAME:  NCGC00168934-02!2-(3,4-dihydroxyphenyl)-5,7-dihydroxy-8-[(3R,4R,5R,6R)-3,4,5-trihydroxy-6-(hydroxymethyl)oxan-2-yl]chromen-4-one
PRECURSORMZ:  447.09328501183
PRECURSORTYPE:  [M-H]-
FORMULA:  C21H20O11
Ontology: Kingdom: Organic compounds;Superclass: Phenylpropanoids and polyketides;Class: Flavonoids;Subclass: Flavonoid glycosides
INCHIKEY:  PLAPMLGJVGLZOV-UHFFFAOYNA-N
SMILES:  OCC1OC(C(O)C(O)C1O)C1=C(O)C=C(O)C2=C1OC(=CC2=O)C1=CC(O)=C(O)C=C1
RETENTIONTIME:  
CCS:  204.7545221
IONMODE:  Negative
INSTRUMENTTYPE:  
INSTRUMENT:  Maxis II HD Q-TOF Bruker
COLLISIONENERGY:  
Comment:  DB#=CCMSLIB00000845222; origin=GNPS
Num Peaks:  18
173.8912	60.0
174.3463	60.0
175.03433	40.0
175.68677	60.0
190.19788	240.0
285.03189	210.0
297.0354	240.0
298.05289	230.0
299.05081	140.0
302.04324	90.0
327.05215	650.0
327.0986	30.0
339.05154	220.0
357.06107	1000.0
411.07214	180.0
429.08017	350.0
447.09314	920.0
450.87289	100.0

NAME:  NCGC00168934-02!2-(3,4-dihydroxyphenyl)-5,7-dihydroxy-8-[(3R,4R,5R,6R)-3,4,5-trihydroxy-6-(hydroxymethyl)oxan-2-yl]chromen-4-one
PRECURSORMZ:  493.09876401183
PRECURSORTYPE:  [M+FA-H]-
FORMULA:  C21H20O11
Ontology: Kingdom: Organic compounds;Superclass: Phenylpropanoids and polyketides;Class: Flavonoids;Subclass: Flavonoid glycosides
INCHIKEY:  PLAPMLGJVGLZOV-UHFFFAOYNA-N
SMILES:  OCC1OC(C(O)C(O)C1O)C1=C(O)C=C(O)C2=C1OC(=CC2=O)C1=CC(O)=C(O)C=C1
RETENTIONTIME:  
CCS:  -1
IONMODE:  Negative
INSTRUMENTTYPE:  
INSTRUMENT:  Maxis II HD Q-TOF Bruker
COLLISIONENERGY:  
Comment:  DB#=CCMSLIB00000845224; origin=GNPS
Num Peaks:  15
146.01364	40.0
176.043	20.0
285.02087	80.0
297.04016	220.0
299.05811	40.0
327.0488	1000.0
357.0376	70.0
357.07056	250.0
363.06891	70.0
369.08002	40.0
393.0574	40.0
399.05725	60.0
447.09863	830.0
512.91064	260.0
792.53802	40.0

NAME:  NCGC00385136-01!3-[1,1-bis(4-hydroxyphenyl)-3-oxo-3-(2,4,6-trihydroxyphenyl)propan-2-yl]-5,7-dihydroxychromen-4-one
PRECURSORMZ:  541.11402045583
PRECURSORTYPE:  [M-H]-
FORMULA:  C30H22O10
Ontology: Kingdom: Organic compounds;Superclass: Phenylpropanoids and polyketides;Class: Linear ;Subclass: Chalcones and dihydrochalcones
INCHIKEY:  KLKLIUIRQAMTAJ-UHFFFAOYNA-N
SMILES:  OC1=CC=C(C=C1)C(C(C(=O)C1=C(O)C=C(O)C=C1O)C1=COC2=CC(O)=CC(O)=C2C1=O)C1=CC=C(O)C=C1
RETENTIONTIME:  
CCS:  244.5162203
IONMODE:  Negative
INSTRUMENTTYPE:  
INSTRUMENT:  Maxis II HD Q-TOF Bruker
COLLISIONENERGY:  
Comment:  DB#=CCMSLIB00000845226; origin=GNPS
Num Peaks:  40
125.02502	520.0
132.09282	10.0
133.02756	20.0
137.03246	30.0
146.03549	60.0
151.00334	90.0
152.00667	20.0
161.02393	40.0
163.04247	20.0
167.05217	10.0
177.03244	20.0
190.02643	50.0
195.04453	20.0
197.06212	320.0
213.05525	20.0
214.06146	20.0
217.01547	500.0
233.04742	60.0
244.03554	20.0
251.06973	20.0
256.03232	10.0
257.04922	20.0
271.05392	20.0
276.02469	20.0
279.03278	20.0
298.05063	80.0
299.05579	90.0
299.76794	10.0
308.02881	40.0
314.03711	80.0
315.05722	30.0
316.07852	20.0
329.08685	20.0
341.04282	20.0
342.03897	220.0
343.04843	1000.0
389.10513	10.0
415.08649	60.0
497.11264	20.0
541.117	130.0

NAME:  NCGC00384830-02!3-[5,7-dihydroxy-2-(4-methoxyphenyl)-4-oxo-2,3-dihydrochromen-3-yl]-5,7-dihydroxy-2-(4-methoxyphenyl)-2,3-dihydrochromen-4-one
PRECURSORMZ:  569.14532058483
PRECURSORTYPE:  [M-H]-
FORMULA:  C32H26O10
Ontology: Kingdom: Organic compounds;Superclass: Phenylpropanoids and polyketides;Class: Flavonoids;Subclass: Biflavonoids and polyflavonoids
INCHIKEY:  BTCICADMSGBCKA-UHFFFAOYNA-N
SMILES:  COC1=CC=C(C=C1)C1OC2=CC(O)=CC(O)=C2C(=O)C1C1C(OC2=CC(O)=CC(O)=C2C1=O)C1=CC=C(OC)C=C1
RETENTIONTIME:  
CCS:  256.048302
IONMODE:  Negative
INSTRUMENTTYPE:  
INSTRUMENT:  Maxis II HD Q-TOF Bruker
COLLISIONENERGY:  
Comment:  DB#=CCMSLIB00000845228; origin=GNPS
Num Peaks:  47
125.02474	1000.0
151.00342	610.0
177.11035	60.0
195.04445	40.0
210.06535	80.0
215.06471	60.0
257.08307	70.0
266.0531	60.0
269.08032	70.0
278.05579	50.0
283.0603	70.0
285.07956	60.0
290.08994	60.0
293.04385	40.0
294.0452	50.0
307.02243	80.0
315.10049	50.0
319.0538	20.0
322.05338	120.0
323.05399	40.0
325.07141	40.0
331.05994	70.0
331.12708	60.0
339.11316	20.0
347.0553	20.0
350.07849	40.0
357.10468	30.0
360.09802	50.0
372.57562	10.0
373.14719	120.0
375.13867	50.0
383.11111	40.0
384.09866	50.0
387.11972	20.0
405.11087	60.0
415.12665	50.0
420.08536	40.0
443.11548	570.0
446.05585	50.0
459.13919	120.0
483.15012	130.0
483.19055	80.0
525.16461	70.0
565.67853	20.0
566.57422	30.0
568.34778	20.0
569.1532	530.0

NAME:  NCGC00385142-01![(2S,3R,4R,5R,6S)-2-[5,7-dihydroxy-4-oxo-2-(3,4,5-trihydroxyphenyl)chromen-3-yl]oxy-4,5-dihydroxy-6-methyloxan-3-yl] 3,4,5-trihydroxybenzoate
PRECURSORMZ:  615.09915824083
PRECURSORTYPE:  [M-H]-
FORMULA:  C28H24O16
Ontology: Kingdom: Organic compounds;Superclass: Phenylpropanoids and polyketides;Class: Flavonoids;Subclass: Flavonoid glycosides
INCHIKEY:  IXDHJNNHLVGCLC-UHFFFAOYNA-N
SMILES:  CC1OC(OC2=C(OC3=CC(O)=CC(O)=C3C2=O)C2=CC(O)=C(O)C(O)=C2)C(OC(=O)C2=CC(O)=C(O)C(O)=C2)C(O)C1O
RETENTIONTIME:  
CCS:  247.0784512
IONMODE:  Negative
INSTRUMENTTYPE:  
INSTRUMENT:  Maxis II HD Q-TOF Bruker
COLLISIONENERGY:  
Comment:  DB#=CCMSLIB00000845232; origin=GNPS
Num Peaks:  12
125.02456	20.0
137.02356	30.0
151.00273	110.0
165.02205	10.0
169.01422	40.0
178.99815	90.0
261.03888	20.0
315.01416	20.0
316.02356	40.0
317.02982	1000.0
463.08752	30.0
615.09863	240.0

NAME:  NCGC00180115-02!5,7-dihydroxy-2-(4-hydroxyphenyl)-6-[3,4,5-trihydroxy-6-(hydroxymethyl)oxan-2-yl]-8-(3,4,5-trihydroxyoxan-2-yl)chromen-4-one
PRECURSORMZ:  563.14062912983
PRECURSORTYPE:  [M-H]-
FORMULA:  C26H28O14
Ontology: Kingdom: Organic compounds;Superclass: Phenylpropanoids and polyketides;Class: Flavonoids;Subclass: Flavonoid glycosides
INCHIKEY:  MMDUKUSNQNWVET-UHFFFAOYNA-N
SMILES:  OCC1OC(C(O)C(O)C1O)C1=C(O)C(C2OCC(O)C(O)C2O)=C2OC(=CC(=O)C2=C1O)C1=CC=C(O)C=C1
RETENTIONTIME:  
CCS:  227.9015946
IONMODE:  Negative
INSTRUMENTTYPE:  
INSTRUMENT:  Maxis II HD Q-TOF Bruker
COLLISIONENERGY:  
Comment:  DB#=CCMSLIB00000845234; origin=GNPS
Num Peaks:  31
135.0405	30.0
159.04138	50.0
164.03897	30.0
195.7587	30.0
221.0388	30.0
262.04312	20.0
267.06348	20.0
269.03888	20.0
271.6113	40.0
297.06662	20.0
325.06931	50.0
328.06186	30.0
337.06445	10.0
350.02768	40.0
353.06631	250.0
355.08081	40.0
356.05676	50.0
368.06952	20.0
383.0759	280.0
395.08221	120.0
413.10272	20.0
425.09311	60.0
443.09427	110.0
443.16028	10.0
467.09863	30.0
473.10922	200.0
503.1553	40.0
562.14233	20.0
563.14557	1000.0
564.12134	20.0
564.16394	30.0

NAME:  NCGC00384704-01![(2R,3S,4R,5R,6R)-6-[2-(3,4-dihydroxyphenyl)ethoxy]-4,5-dihydroxy-2-[[(2S,3R,4S,5R)-3,4,5-trihydroxyoxan-2-yl]oxymethyl]oxan-3-yl] (E)-3-(3,4-dihydroxyphenyl)prop-2-enoate
PRECURSORMZ:  609.18249394283
PRECURSORTYPE:  [M-H]-
FORMULA:  C28H34O15
Ontology: Kingdom: Organic compounds;Superclass: Phenylpropanoids and polyketides;Class: Cinnamic acids and derivatives;Subclass: Hydroxycinnamic acids and derivatives
INCHIKEY:  GNDDBOHLMOANGU-UHFFFAOYNA-N
SMILES:  OC1COC(OCC2OC(OCCC3=CC(O)=C(O)C=C3)C(O)C(O)C2OC(=O)C=CC2=CC(O)=C(O)C=C2)C(O)C1O
RETENTIONTIME:  
CCS:  248.0218737
IONMODE:  Negative
INSTRUMENTTYPE:  
INSTRUMENT:  Maxis II HD Q-TOF Bruker
COLLISIONENERGY:  
Comment:  DB#=CCMSLIB00000845236; origin=GNPS
Num Peaks:  22
113.02796	20.0
133.02621	60.0
135.04192	90.0
140.47154	10.0
149.04887	30.0
161.02283	980.0
179.0347	100.0
182.71788	20.0
191.04958	30.0
315.11423	30.0
429.14508	20.0
447.14127	90.0
608.09137	10.0
608.91052	40.0
609.17865	1000.0
609.34015	30.0
609.91333	10.0
610.164	20.0
613.66003	20.0
613.77307	20.0
616.0307	20.0
1720.30664	30.0

NAME:  NCGC00384697-01![(2S,3R,4S,5S,6R)-4,5-dihydroxy-3-[(E)-3-(4-hydroxyphenyl)prop-2-enoyl]oxy-6-[[(E)-3-(4-hydroxyphenyl)prop-2-enoyl]oxymethyl]oxan-2-yl] 3,4,5-trihydroxybenzoate
PRECURSORMZ:  623.14062912983
PRECURSORTYPE:  [M-H]-
FORMULA:  C31H28O14
Ontology: Kingdom: Organic compounds;Superclass: Phenylpropanoids and polyketides;Class: Tannins;
INCHIKEY:  QZONBCFTKCIUKE-UHFFFAOYNA-N
SMILES:  OC1C(COC(=O)C=CC2=CC=C(O)C=C2)OC(OC(=O)C2=CC(O)=C(O)C(O)=C2)C(OC(=O)C=CC2=CC=C(O)C=C2)C1O
RETENTIONTIME:  
CCS:  -1
IONMODE:  Negative
INSTRUMENTTYPE:  
INSTRUMENT:  Maxis II HD Q-TOF Bruker
COLLISIONENERGY:  
Comment:  DB#=CCMSLIB00000845238; origin=GNPS
Num Peaks:  42
95.97669	20.0
97.09184	10.0
107.01305	20.0
119.04665	20.0
123.01254	70.0
125.02621	50.0
131.04984	10.0
132.05644	20.0
145.02724	460.0
145.07433	30.0
146.03601	20.0
151.00735	30.0
153.0271	30.0
158.03326	40.0
159.0383	60.0
163.04123	200.0
167.99979	50.0
169.01262	330.0
169.59247	20.0
177.01486	10.0
181.01192	30.0
186.48985	10.0
187.0377	30.0
195.03229	20.0
205.05801	30.0
211.02322	100.0
211.06618	20.0
211.10251	10.0
221.04761	20.0
223.01871	20.0
233.52205	10.0
241.03139	50.0
271.03967	150.0
295.04514	130.0
296.0585	20.0
297.07971	20.0
313.05612	120.0
331.06931	20.0
459.09067	1000.0
477.099	100.0
623.13843	370.0
624.13605	20.0

NAME:  NCGC00384697-01![(2S,3R,4S,5S,6R)-4,5-dihydroxy-3-[(E)-3-(4-hydroxyphenyl)prop-2-enoyl]oxy-6-[[(E)-3-(4-hydroxyphenyl)prop-2-enoyl]oxymethyl]oxan-2-yl] 3,4,5-trihydroxybenzoate
PRECURSORMZ:  659.1173068419
PRECURSORTYPE:  [M+Cl]-
FORMULA:  C31H28O14
Ontology: Kingdom: Organic compounds;Superclass: Phenylpropanoids and polyketides;Class: Tannins;
INCHIKEY:  QZONBCFTKCIUKE-UHFFFAOYNA-N
SMILES:  OC1C(COC(=O)C=CC2=CC=C(O)C=C2)OC(OC(=O)C2=CC(O)=C(O)C(O)=C2)C(OC(=O)C=CC2=CC=C(O)C=C2)C1O
RETENTIONTIME:  
CCS:  -1
IONMODE:  Negative
INSTRUMENTTYPE:  
INSTRUMENT:  Maxis II HD Q-TOF Bruker
COLLISIONENERGY:  
Comment:  DB#=CCMSLIB00000845240; origin=GNPS
Num Peaks:  12
117.03438	340.0
145.02815	590.0
168.01135	300.0
217.71178	120.0
220.97061	130.0
253.03168	140.0
271.02283	130.0
271.04294	180.0
459.09137	1000.0
459.1377	260.0
477.09152	530.0
623.15308	620.0

NAME:  NCGC00384698-01![(6R)-6-hydroxy-6-[(2S,8S,9R,10R,13R,14S,16R)-16-hydroxy-4,4,9,13,14-pentamethyl-3,11-dioxo-2-[(2S,3R,4S,5S,6R)-3,4,5-trihydroxy-6-(hydroxymethyl)oxan-2-yl]oxy-2,7,8,10,12,15,16,17-octahydro-1H-cyclopenta[a]phenanthren-17-yl]-2-methyl-5-oxoheptan-2-yl] acetate
PRECURSORMZ:  767.38594447583
PRECURSORTYPE:  [M+FA-H]-
FORMULA:  C38H58O13
Ontology: Kingdom: Organic compounds;Superclass: Lipids and lipid;Class: Steroids and steroid derivatives;Subclass: Steroidal glycosides
INCHIKEY:  KSENPDOZJGRJHR-UHFFFAOYNA-N
SMILES:  CC(=O)OC(C)(C)CCC(=O)C(C)(O)C1C(O)CC2(C)C3CC=C4C(CC(OC5OC(CO)C(O)C(O)C5O)C(=O)C4(C)C)C3(C)C(=O)CC12C
RETENTIONTIME:  
CCS:  -1
IONMODE:  Negative
INSTRUMENTTYPE:  
INSTRUMENT:  Maxis II HD Q-TOF Bruker
COLLISIONENERGY:  
Comment:  DB#=CCMSLIB00000845242; origin=GNPS
Num Peaks:  80
111.08295	90.0
113.02393	70.0
135.08093	50.0
137.0589	130.0
155.10399	50.0
159.02293	80.0
161.04527	250.0
165.10469	50.0
165.97585	30.0
175.02715	50.0
179.05305	90.0
191.10561	40.0
201.12617	40.0
225.11588	50.0
236.01836	30.0
268.77908	20.0
269.69275	40.0
299.20636	50.0
315.19147	40.0
325.17929	120.0
327.18561	50.0
327.90286	60.0
334.23181	70.0
337.19199	20.0
343.19296	60.0
365.84702	30.0
376.53412	20.0
394.22437	30.0
397.14612	40.0
439.25668	20.0
463.29413	40.0
466.26556	20.0
481.30222	120.0
487.22198	70.0
497.28781	30.0
499.30573	40.0
505.24207	260.0
505.28656	140.0
507.31268	30.0
525.33667	100.0
545.27362	20.0
553.30963	40.0
553.35553	50.0
555.32367	50.0
557.10107	10.0
563.27844	50.0
569.31787	40.0
571.32275	190.0
573.2652	30.0
591.27698	30.0
592.28082	20.0
603.29974	20.0
606.245	80.0
609.27942	400.0
617.33368	30.0
623.33612	30.0
643.35181	670.0
644.33728	60.0
646.94916	30.0
657.33044	60.0
661.36383	1000.0
662.35944	120.0
678.37323	60.0
679.37451	60.0
680.362	20.0
701.34662	60.0
703.36035	470.0
704.34119	60.0
705.34039	50.0
719.37653	30.0
719.86945	20.0
720.83575	20.0
720.92981	20.0
721.12439	20.0
721.38867	350.0
722.38336	140.0
739.56958	30.0
765.38257	30.0
767.38232	150.0
768.41199	50.0

NAME:  NCGC00385788-01!3-(2,4-dihydroxyphenyl)-5,7-dihydroxy-6,8-bis(3-methylbut-2-enyl)-2,3-dihydrochromen-4-one
PRECURSORMZ:  423.18131216983
PRECURSORTYPE:  [M-H]-
FORMULA:  C25H28O6
Ontology: Kingdom: Organic compounds;Superclass: Phenylpropanoids and polyketides;Class: Isoflavonoids;Subclass: Isoflavans
INCHIKEY:  LYELCCACUCFABR-UHFFFAOYNA-N
SMILES:  CC(C)=CCC1=C(O)C(CC=C(C)C)=C2OCC(C(=O)C2=C1O)C1=C(O)C=C(O)C=C1
RETENTIONTIME:  
CCS:  225.9762353
IONMODE:  Negative
INSTRUMENTTYPE:  
INSTRUMENT:  Maxis II HD Q-TOF Bruker
COLLISIONENERGY:  
Comment:  DB#=CCMSLIB00000845244; origin=GNPS
Num Peaks:  21
133.03006	230.0
133.08629	100.0
135.05087	70.0
149.03191	50.0
161.0244	730.0
163.03621	50.0
189.06143	50.0
192.08432	130.0
194.09145	80.0
216.73482	30.0
216.77904	30.0
216.83414	40.0
216.91463	30.0
219.13805	60.0
261.15042	1000.0
273.1564	50.0
286.0495	40.0
420.3479	40.0
422.1749	50.0
422.34933	30.0
423.18594	480.0

NAME:  NCGC00385788-01!3-(2,4-dihydroxyphenyl)-5,7-dihydroxy-6,8-bis(3-methylbut-2-enyl)-2,3-dihydrochromen-4-one
PRECURSORMZ:  469.18679116983
PRECURSORTYPE:  [M+FA-H]-
FORMULA:  C25H28O6
Ontology: Kingdom: Organic compounds;Superclass: Phenylpropanoids and polyketides;Class: Isoflavonoids;Subclass: Isoflavans
INCHIKEY:  LYELCCACUCFABR-UHFFFAOYNA-N
SMILES:  CC(C)=CCC1=C(O)C(CC=C(C)C)=C2OCC(C(=O)C2=C1O)C1=C(O)C=C(O)C=C1
RETENTIONTIME:  
CCS:  -1
IONMODE:  Negative
INSTRUMENTTYPE:  
INSTRUMENT:  Maxis II HD Q-TOF Bruker
COLLISIONENERGY:  
Comment:  DB#=CCMSLIB00000845246; origin=GNPS
Num Peaks:  15
123.7262	100.0
136.0126	140.0
161.02481	220.0
191.06795	390.0
219.06749	370.0
261.04935	310.0
261.07581	360.0
275.09103	1000.0
276.09204	160.0
276.92831	260.0
277.07834	280.0
277.10571	840.0
437.15848	200.0
437.19293	160.0
469.13965	260.0

NAME:  NCGC00169296-02!(2S,3S,4S,5R,6S)-3,4,5-trihydroxy-6-(5-hydroxy-8-methoxy-4-oxo-2-phenylchromen-7-yl)oxyoxane-2-carboxylic acid
PRECURSORMZ:  459.09328501183
PRECURSORTYPE:  [M-H]-
FORMULA:  C22H20O11
Ontology: ;;;
INCHIKEY:  LNOHXHDWGCMVCO-UHFFFAOYNA-N
SMILES:  COC1=C(OC2OC(C(O)C(O)C2O)C(O)=O)C=C(O)C2=C1OC(=CC2=O)C1=CC=CC=C1
RETENTIONTIME:  
CCS:  209.8969283
IONMODE:  Negative
INSTRUMENTTYPE:  
INSTRUMENT:  Maxis II HD Q-TOF Bruker
COLLISIONENERGY:  
Comment:  DB#=CCMSLIB00000845248; origin=GNPS
Num Peaks:  11
103.83666	20.0
113.02287	40.0
125.07049	20.0
163.00793	60.0
198.02492	40.0
268.03802	650.0
283.06241	1000.0
285.51254	40.0
285.88312	40.0
293.73441	10.0
459.07983	20.0

NAME:  NCGC00381110-01!13-hydroxy-6-(1-hydroxyethyl)-3-(hydroxymethyl)-12,14-dimethyl-15-nonyl-9-propan-2-yl-1-oxa-4,7,10-triazacyclopentadecane-2,5,8,11-tetrone
PRECURSORMZ:  592.3370168739
PRECURSORTYPE:  [M+Cl]-
FORMULA:  C28H51N3O8
Ontology: Kingdom: Organic compounds;Superclass: Organic acids and derivatives;Class: Peptidomimetics;Subclass: Depsipeptides
INCHIKEY:  CBEIHVWVTGRGDR-UHFFFAOYNA-N
SMILES:  CCCCCCCCCC1OC(=O)C(CO)N=C(O)C(N=C(O)C(N=C(O)C(C)C(O)C1C)C(C)C)C(C)O
RETENTIONTIME:  
CCS:  -1
IONMODE:  Negative
INSTRUMENTTYPE:  
INSTRUMENT:  Maxis II HD Q-TOF Bruker
COLLISIONENERGY:  
Comment:  DB#=CCMSLIB00000845250; origin=GNPS
Num Peaks:  16
113.04333	310.0
115.08591	360.0
153.10414	290.0
168.14357	240.0
171.11148	1000.0
172.10503	410.0
212.11029	140.0
294.18591	560.0
326.17484	420.0
385.29037	390.0
482.32217	970.0
494.32907	340.0
526.35455	390.0
556.37201	410.0
592.3363	680.0
1290.37683	250.0

NAME:  NCGC00381110-01!13-hydroxy-6-(1-hydroxyethyl)-3-(hydroxymethyl)-12,14-dimethyl-15-nonyl-9-propan-2-yl-1-oxa-4,7,10-triazacyclopentadecane-2,5,8,11-tetrone
PRECURSORMZ:  602.36581816183
PRECURSORTYPE:  [M+FA-H]-
FORMULA:  C28H51N3O8
Ontology: Kingdom: Organic compounds;Superclass: Organic acids and derivatives;Class: Peptidomimetics;Subclass: Depsipeptides
INCHIKEY:  CBEIHVWVTGRGDR-UHFFFAOYNA-N
SMILES:  CCCCCCCCCC1OC(=O)C(CO)N=C(O)C(N=C(O)C(N=C(O)C(C)C(O)C1C)C(C)C)C(C)O
RETENTIONTIME:  
CCS:  -1
IONMODE:  Negative
INSTRUMENTTYPE:  
INSTRUMENT:  Maxis II HD Q-TOF Bruker
COLLISIONENERGY:  
Comment:  DB#=CCMSLIB00000845252; origin=GNPS
Num Peaks:  62
92.63425	10.0
110.09848	10.0
112.0767	20.0
113.03604	50.0
115.08957	80.0
125.03702	70.0
128.03607	20.0
131.04674	20.0
138.05597	20.0
138.09067	10.0
143.0489	30.0
150.12201	30.0
150.28632	20.0
153.1044	40.0
154.08754	70.0
157.06238	30.0
168.11472	40.0
170.823	10.0
171.11382	1000.0
171.17844	10.0
172.10127	50.0
186.12643	180.0
187.06795	20.0
194.11124	10.0
195.11957	20.0
211.10983	30.0
211.1451	50.0
224.10776	20.0
224.14203	40.0
225.12675	40.0
225.16481	20.0
242.15271	70.0
244.80852	20.0
250.21913	20.0
254.16098	20.0
264.19281	20.0
267.6926	20.0
268.13199	50.0
280.1261	30.0
282.17596	30.0
286.1416	460.0
287.15009	10.0
294.20197	20.0
298.13504	40.0
326.1723	180.0
330.16998	70.0
368.28296	320.0
370.19855	20.0
385.30795	160.0
386.28363	20.0
420.3262	30.0
464.31448	40.0
482.32205	730.0
483.32327	20.0
494.31281	50.0
512.32892	120.0
526.35083	500.0
527.35712	10.0
538.35046	40.0
556.36121	200.0
1073.82629	20.0
1355.54553	20.0

NAME:  NCGC00384813-01!6-[(E)-2-carboxyethenyl]-2-(3,4-dihydroxyphenyl)-2,3-dihydro-1,4-benzodioxine-3-carboxylic acid
PRECURSORMZ:  403.06706995883
PRECURSORTYPE:  [M+FA-H]-
FORMULA:  C18H14O8
Ontology: Kingdom: Organic compounds;Superclass: Organoheterocyclic compounds;Class: Benzodioxanes;Subclass: Phenylbenzodioxanes
INCHIKEY:  XOLNJKHCNSNACU-UHFFFAOYNA-N
SMILES:  OC(=O)C=CC1=CC2=C(OC(C(O2)C(O)=O)C2=CC(O)=C(O)C=C2)C=C1
RETENTIONTIME:  
CCS:  -1
IONMODE:  Negative
INSTRUMENTTYPE:  
INSTRUMENT:  Maxis II HD Q-TOF Bruker
COLLISIONENERGY:  
Comment:  DB#=CCMSLIB00000845254; origin=GNPS
Num Peaks:  14
133.02754	180.0
134.0352	80.0
135.0403	130.0
175.925	90.0
176.31937	70.0
176.45354	30.0
176.98062	40.0
177.01678	210.0
178.02338	380.0
179.03349	1000.0
181.32799	20.0
313.07907	160.0
383.1022	60.0
433.07434	50.0

NAME:  NCGC00015741-12!4-[4-(3,4-dihydroxyphenyl)-2,3-dimethylbutyl]benzene-1,2-diol
PRECURSORMZ:  347.15001173583
PRECURSORTYPE:  [M+FA-H]-
FORMULA:  C18H22O4
Ontology: Kingdom: Organic compounds;Superclass: Lignans;Class: Dibenzylbutane lignans;
INCHIKEY:  HCZKYJDFEPMADG-UHFFFAOYNA-N
SMILES:  CC(CC1=CC(O)=C(O)C=C1)C(C)CC1=CC(O)=C(O)C=C1
RETENTIONTIME:  
CCS:  -1
IONMODE:  Negative
INSTRUMENTTYPE:  
INSTRUMENT:  Maxis II HD Q-TOF Bruker
COLLISIONENERGY:  
Comment:  DB#=CCMSLIB00000845258; origin=GNPS
Num Peaks:  2
122.03869	80.0
301.14429	1000.0

NAME:  NCGC00380926-01![5-[4-(3,4-dihydroxyphenyl)-2,3-dimethylbutyl]-2-hydroxyphenyl] 4-hydroxybenzoate
PRECURSORMZ:  421.16566210483
PRECURSORTYPE:  [M-H]-
FORMULA:  C25H26O6
Ontology: Kingdom: Organic compounds;Superclass: Phenylpropanoids and polyketides;Class: Depsides and depsidones;
INCHIKEY:  ORMBYUPZHHWUEM-UHFFFAOYNA-N
SMILES:  CC(CC1=CC(O)=C(O)C=C1)C(C)CC1=CC(OC(=O)C2=CC=C(O)C=C2)=C(O)C=C1
RETENTIONTIME:  
CCS:  -1
IONMODE:  Negative
INSTRUMENTTYPE:  
INSTRUMENT:  Maxis II HD Q-TOF Bruker
COLLISIONENERGY:  
Comment:  DB#=CCMSLIB00000845260; origin=GNPS
Num Peaks:  7
108.02167	20.0
297.64368	10.0
300.15735	30.0
301.0209	20.0
301.14471	1000.0
421.16281	50.0
1694.67505	20.0

NAME:  NCGC00169797-03![3,4,5-trihydroxy-6-[4-hydroxy-2-[(1,2,3,6-tetrahydroxycyclohexanecarbonyl)oxymethyl]phenoxy]oxan-2-yl]methyl benzoate
PRECURSORMZ:  625.17740825783
PRECURSORTYPE:  [M+FA-H]-
FORMULA:  C27H32O14
Ontology: Kingdom: Organic compounds;Superclass: Organic oxygen compounds;Class: Organooxygen compounds;Subclass: Carbohydrates and carbohydrate conjugates
INCHIKEY:  JMCVYQUHLKARLD-UHFFFAOYNA-N
SMILES:  OC1CCC(O)C(O)(C1O)C(=O)OCC1=CC(O)=CC=C1OC1OC(COC(=O)C2=CC=CC=C2)C(O)C(O)C1O
RETENTIONTIME:  
CCS:  -1
IONMODE:  Negative
INSTRUMENTTYPE:  
INSTRUMENT:  Maxis II HD Q-TOF Bruker
COLLISIONENERGY:  
Comment:  DB#=CCMSLIB00000845262; origin=GNPS
Num Peaks:  25
83.05335	20.0
109.03076	30.0
111.00968	70.0
111.0455	20.0
121.0304	50.0
127.03696	50.0
135.04417	10.0
136.01239	20.0
137.02376	170.0
138.032	530.0
139.04076	360.0
145.05328	30.0
151.03886	60.0
152.04417	10.0
154.2554	20.0
155.03392	290.0
163.04007	50.0
173.04659	1000.0
175.24619	20.0
181.05048	70.0
191.05807	780.0
193.0649	10.0
283.07797	10.0
405.12149	390.0
579.17169	10.0

NAME:  NCGC00380922-01![6-[2-(3,4-dihydroxyphenyl)-8-hydroxy-4-oxochromen-7-yl]oxy-3,4,5-trihydroxyoxan-2-yl]methyl (E)-3-(4-hydroxyphenyl)prop-2-enoate
PRECURSORMZ:  593.13006444483
PRECURSORTYPE:  [M-H]-
FORMULA:  C30H26O13
Ontology: Kingdom: Organic compounds;Superclass: Phenylpropanoids and polyketides;Class: Flavonoids;Subclass: Flavonoid glycosides
INCHIKEY:  VXAHTPDZSOTOPQ-UHFFFAOYNA-N
SMILES:  OC1C(COC(=O)C=CC2=CC=C(O)C=C2)OC(OC2=C(O)C3=C(C=C2)C(=O)C=C(O3)C2=CC(O)=C(O)C=C2)C(O)C1O
RETENTIONTIME:  
CCS:  -1
IONMODE:  Negative
INSTRUMENTTYPE:  
INSTRUMENT:  Maxis II HD Q-TOF Bruker
COLLISIONENERGY:  
Comment:  DB#=CCMSLIB00000845264; origin=GNPS
Num Peaks:  15
133.02861	20.0
135.04388	60.0
158.85408	10.0
197.02759	10.0
229.04652	20.0
255.03506	30.0
257.04736	30.0
281.73175	30.0
284.03546	50.0
285.04095	1000.0
429.09579	60.0
432.87646	20.0
447.1011	60.0
465.09665	40.0
593.13702	170.0

NAME:  NCGC00380922-01![6-[2-(3,4-dihydroxyphenyl)-8-hydroxy-4-oxochromen-7-yl]oxy-3,4,5-trihydroxyoxan-2-yl]methyl (E)-3-(4-hydroxyphenyl)prop-2-enoate
PRECURSORMZ:  639.13554344483
PRECURSORTYPE:  [M+FA-H]-
FORMULA:  C30H26O13
Ontology: Kingdom: Organic compounds;Superclass: Phenylpropanoids and polyketides;Class: Flavonoids;Subclass: Flavonoid glycosides
INCHIKEY:  VXAHTPDZSOTOPQ-UHFFFAOYNA-N
SMILES:  OC1C(COC(=O)C=CC2=CC=C(O)C=C2)OC(OC2=C(O)C3=C(C=C2)C(=O)C=C(O3)C2=CC(O)=C(O)C=C2)C(O)C1O
RETENTIONTIME:  
CCS:  -1
IONMODE:  Negative
INSTRUMENTTYPE:  
INSTRUMENT:  Maxis II HD Q-TOF Bruker
COLLISIONENERGY:  
Comment:  DB#=CCMSLIB00000845266; origin=GNPS
Num Peaks:  15
135.04666	30.0
162.68999	20.0
227.0396	40.0
229.05409	20.0
257.04379	30.0
285.04034	1000.0
287.94794	30.0
288.00873	20.0
298.04898	10.0
311.95679	10.0
429.09338	30.0
447.10156	80.0
588.47754	10.0
590.85675	20.0
593.12744	210.0

NAME:  NCGC00169631-03!(2S)-5,7-dihydroxy-2-(4-hydroxyphenyl)-6-[(2S,3R,4R,5S,6R)-3,4,5-trihydroxy-6-(hydroxymethyl)oxan-2-yl]-2,3-dihydrochromen-4-one
PRECURSORMZ:  433.11402045583
PRECURSORTYPE:  [M-H]-
FORMULA:  C21H22O10
Ontology: Kingdom: Organic compounds;Superclass: Phenylpropanoids and polyketides;Class: Flavonoids;Subclass: Flavonoid glycosides
INCHIKEY:  QKPKGDDHOGIEOO-UHFFFAOYNA-N
SMILES:  OCC1OC(C(O)C(O)C1O)C1=C(O)C2=C(OC(CC2=O)C2=CC=C(O)C=C2)C=C1O
RETENTIONTIME:  
CCS:  205.725471
IONMODE:  Negative
INSTRUMENTTYPE:  
INSTRUMENT:  Maxis II HD Q-TOF Bruker
COLLISIONENERGY:  
Comment:  DB#=CCMSLIB00000845268; origin=GNPS
Num Peaks:  11
137.02228	60.0
187.0471	50.0
197.0724	50.0
204.66473	20.0
219.02679	70.0
271.07016	40.0
313.07172	1000.0
343.08472	160.0
343.11505	90.0
433.11578	30.0
443.87479	40.0

NAME:  NCGC00169323-02!(2R,3R)-3,5-dihydroxy-2-(4-hydroxyphenyl)-8-(3-methylbut-2-enyl)-7-[(2S,3R,4S,5S,6R)-3,4,5-trihydroxy-6-(hydroxymethyl)oxan-2-yl]oxy-2,3-dihydrochromen-4-one
PRECURSORMZ:  517.17153533383
PRECURSORTYPE:  [M-H]-
FORMULA:  C26H30O11
Ontology: ;;;
INCHIKEY:  GRDZTDZJQRPNCN-UHFFFAOYNA-N
SMILES:  CC(C)=CCC1=C(OC2OC(CO)C(O)C(O)C2O)C=C(O)C2=C1OC(C(O)C2=O)C1=CC=C(O)C=C1
RETENTIONTIME:  
CCS:  219.9676323
IONMODE:  Negative
INSTRUMENTTYPE:  
INSTRUMENT:  Maxis II HD Q-TOF Bruker
COLLISIONENERGY:  
Comment:  DB#=CCMSLIB00000845270; origin=GNPS
Num Peaks:  9
153.34613	170.0
214.54457	100.0
219.05659	220.0
256.07404	260.0
327.12625	800.0
327.2359	50.0
337.10675	120.0
355.12436	1000.0
489.20273	140.0

NAME:  NCGC00169323-02!(2R,3R)-3,5-dihydroxy-2-(4-hydroxyphenyl)-8-(3-methylbut-2-enyl)-7-[(2S,3R,4S,5S,6R)-3,4,5-trihydroxy-6-(hydroxymethyl)oxan-2-yl]oxy-2,3-dihydrochromen-4-one
PRECURSORMZ:  563.17701433383
PRECURSORTYPE:  [M+FA-H]-
FORMULA:  C26H30O11
Ontology: Kingdom: Organic compounds;Superclass: Phenylpropanoids and polyketides;Class: Flavonoids;Subclass: Flavonoid glycosides
INCHIKEY:  GRDZTDZJQRPNCN-UHFFFAOYNA-N
SMILES:  CC(C)=CCC1=C(OC2OC(CO)C(O)C(O)C2O)C=C(O)C2=C1OC(C(O)C2=O)C1=CC=C(O)C=C1
RETENTIONTIME:  
CCS:  -1
IONMODE:  Negative
INSTRUMENTTYPE:  
INSTRUMENT:  Maxis II HD Q-TOF Bruker
COLLISIONENERGY:  
Comment:  DB#=CCMSLIB00000845272; origin=GNPS
Num Peaks:  25
151.0788	30.0
167.03888	20.0
175.0714	40.0
193.08459	40.0
215.0779	80.0
219.06519	90.0
233.08229	30.0
237.08231	20.0
243.06975	20.0
247.06197	120.0
267.10193	30.0
269.13138	10.0
283.1347	40.0
311.1358	60.0
327.12436	640.0
335.13712	10.0
351.11887	80.0
355.11911	1000.0
356.12045	10.0
369.13635	90.0
411.1286	20.0
489.17963	240.0
517.17181	340.0
517.24286	30.0
520.96979	30.0

NAME:  NCGC00169787-02!(2R,3R,4S,5S,6R)-2-[[7-hydroxy-1-(4-hydroxy-3-methoxyphenyl)-3-(hydroxymethyl)-6-methoxy-1,2,3,4-tetrahydronaphthalen-2-yl]methoxy]-6-(hydroxymethyl)oxane-3,4,5-triol
PRECURSORMZ:  567.20831446283
PRECURSORTYPE:  [M+FA-H]-
FORMULA:  C26H34O11
Ontology: Kingdom: Organic compounds;Superclass: Lignans;Class: Lignan glycosides;
INCHIKEY:  AHYOMNWKYGMYMB-UHFFFAOYNA-N
SMILES:  COC1=C(O)C=C2C(C(COC3OC(CO)C(O)C(O)C3O)C(CO)CC2=C1)C1=CC(OC)=C(O)C=C1
RETENTIONTIME:  
CCS:  -1
IONMODE:  Negative
INSTRUMENTTYPE:  
INSTRUMENT:  Maxis II HD Q-TOF Bruker
COLLISIONENERGY:  
Comment:  DB#=CCMSLIB00000845274; origin=GNPS
Num Peaks:  20
91.56184	50.0
113.02519	100.0
155.4621	30.0
161.04308	40.0
311.06549	50.0
311.09857	50.0
313.17981	110.0
323.99872	30.0
326.11765	130.0
329.13931	90.0
359.15283	520.0
446.13239	20.0
519.80322	50.0
520.24457	100.0
521.10126	100.0
521.20447	1000.0
521.32751	60.0
522.19666	30.0
522.97943	30.0
1266.95312	20.0

NAME:  NCGC00384722-02!5-hydroxy-2-(3-hydroxy-4-methoxyphenyl)-7-[(2S,3R,4S,5S,6R)-3,4,5-trihydroxy-6-[[(2R,3R,4R,5R,6S)-3,4,5-trihydroxy-6-methyloxan-2-yl]oxymethyl]oxan-2-yl]oxy-2,3-dihydrochromen-4-one
PRECURSORMZ:  609.18249394283
PRECURSORTYPE:  [M-H]-
FORMULA:  C28H34O15
Ontology: Kingdom: Organic compounds;Superclass: Phenylpropanoids and polyketides;Class: Flavonoids;Subclass: Flavonoid glycosides
INCHIKEY:  QUQPHWDTPGMPEX-UHFFFAOYNA-N
SMILES:  COC1=C(O)C=C(C=C1)C1CC(=O)C2=C(O)C=C(OC3OC(COC4OC(C)C(O)C(O)C4O)C(O)C(O)C3O)C=C2O1
RETENTIONTIME:  
CCS:  228.0515203
IONMODE:  Negative
INSTRUMENTTYPE:  
INSTRUMENT:  Maxis II HD Q-TOF Bruker
COLLISIONENERGY:  
Comment:  DB#=CCMSLIB00000845276; origin=GNPS
Num Peaks:  36
147.14366	10.0
148.18423	10.0
150.68095	20.0
150.99951	50.0
152.01416	20.0
152.42398	10.0
163.05702	20.0
164.01213	30.0
171.65555	20.0
185.02017	30.0
201.01765	40.0
206.0204	20.0
214.02643	20.0
239.07419	20.0
257.08911	10.0
258.05096	20.0
269.04633	20.0
286.04718	10.0
292.77444	20.0
295.45547	10.0
301.07117	800.0
307.82834	10.0
315.10681	20.0
317.04706	30.0
322.77829	30.0
322.91034	10.0
325.06741	20.0
343.07651	30.0
447.14078	10.0
448.12808	20.0
459.12964	20.0
463.12253	10.0
489.13672	50.0
594.15045	20.0
609.18298	1000.0
636.48376	20.0

NAME:  NCGC00384722-02!5-hydroxy-2-(3-hydroxy-4-methoxyphenyl)-7-[(2S,3R,4S,5S,6R)-3,4,5-trihydroxy-6-[[(2R,3R,4R,5R,6S)-3,4,5-trihydroxy-6-methyloxan-2-yl]oxymethyl]oxan-2-yl]oxy-2,3-dihydrochromen-4-one
PRECURSORMZ:  655.18797294283
PRECURSORTYPE:  [M+FA-H]-
FORMULA:  C28H34O15
Ontology: Kingdom: Organic compounds;Superclass: Phenylpropanoids and polyketides;Class: Flavonoids;Subclass: Flavonoid glycosides
INCHIKEY:  QUQPHWDTPGMPEX-UHFFFAOYNA-N
SMILES:  COC1=C(O)C=C(C=C1)C1CC(=O)C2=C(O)C=C(OC3OC(COC4OC(C)C(O)C(O)C4O)C(O)C(O)C3O)C=C2O1
RETENTIONTIME:  
CCS:  -1
IONMODE:  Negative
INSTRUMENTTYPE:  
INSTRUMENT:  Maxis II HD Q-TOF Bruker
COLLISIONENERGY:  
Comment:  DB#=CCMSLIB00000845278; origin=GNPS
Num Peaks:  8
242.06531	110.0
257.07727	100.0
272.57742	30.0
301.07379	900.0
343.09546	60.0
489.13925	120.0
608.18292	230.0
609.18091	1000.0

NAME:  NCGC00385303-01!(2R,3S,4S,5R,6S)-5-[(2S,3R,4R)-3,4-dihydroxy-4-(hydroxymethyl)oxolan-2-yl]oxy-6-[4-[(3R,6S)-3-(4-hydroxy-3,5-dimethoxyphenyl)-1,3,3a,4,6,6a-hexahydrofuro[3,4-c]furan-6-yl]-2,6-dimethoxyphenoxy]-2-(hydroxymethyl)oxane-3,4-diol
PRECURSORMZ:  711.25057350483
PRECURSORTYPE:  [M-H]-
FORMULA:  C33H44O17
Ontology: Kingdom: Organic compounds;Superclass: Lignans;Class: Lignan glycosides;
INCHIKEY:  BUBVKRMIMSPLND-UHFFFAOYNA-N
SMILES:  COC1=CC(=CC(OC)=C1O)C1OCC2C1COC2C1=CC(OC)=C(OC2OC(CO)C(O)C(O)C2OC2OCC(O)(CO)C2O)C(OC)=C1
RETENTIONTIME:  
CCS:  277.8149161
IONMODE:  Negative
INSTRUMENTTYPE:  
INSTRUMENT:  Maxis II HD Q-TOF Bruker
COLLISIONENERGY:  
Comment:  DB#=CCMSLIB00000845284; origin=GNPS
Num Peaks:  17
73.00204	150.0
161.04857	230.0
166.02647	400.0
179.07588	260.0
181.04828	810.0
341.10468	170.0
344.04178	130.0
356.11255	250.0
387.13989	480.0
399.14908	450.0
417.15555	1000.0
543.20435	140.0
681.26227	130.0
693.24957	260.0
696.23077	160.0
711.25439	580.0
712.26587	60.0

NAME:  NCGC00385303-01!(2R,3S,4S,5R,6S)-5-[(2S,3R,4R)-3,4-dihydroxy-4-(hydroxymethyl)oxolan-2-yl]oxy-6-[4-[(3R,6S)-3-(4-hydroxy-3,5-dimethoxyphenyl)-1,3,3a,4,6,6a-hexahydrofuro[3,4-c]furan-6-yl]-2,6-dimethoxyphenoxy]-2-(hydroxymethyl)oxane-3,4-diol
PRECURSORMZ:  757.25605250483
PRECURSORTYPE:  [M+FA-H]-
FORMULA:  C33H44O17
Ontology: Kingdom: Organic compounds;Superclass: Lignans;Class: Lignan glycosides;
INCHIKEY:  BUBVKRMIMSPLND-UHFFFAOYNA-N
SMILES:  COC1=CC(=CC(OC)=C1O)C1OCC2C1COC2C1=CC(OC)=C(OC2OC(CO)C(O)C(O)C2OC2OCC(O)(CO)C2O)C(OC)=C1
RETENTIONTIME:  
CCS:  -1
IONMODE:  Negative
INSTRUMENTTYPE:  
INSTRUMENT:  Maxis II HD Q-TOF Bruker
COLLISIONENERGY:  
Comment:  DB#=CCMSLIB00000845286; origin=GNPS
Num Peaks:  61
81.01728	20.0
101.02457	60.0
113.02404	60.0
131.03535	20.0
137.02095	40.0
151.00725	70.0
152.04901	50.0
154.02821	20.0
161.04784	40.0
166.02516	170.0
181.05177	980.0
182.02095	30.0
184.03699	20.0
187.04251	20.0
189.05792	20.0
190.07153	20.0
191.05795	140.0
192.04921	50.0
194.05818	20.0
195.03441	10.0
202.02516	20.0
205.04778	20.0
205.09615	10.0
208.06783	20.0
219.08977	20.0
220.08112	10.0
221.07417	30.0
235.09647	10.0
236.06648	20.0
239.75951	20.0
259.09451	30.0
283.09766	20.0
292.55087	20.0
293.09259	100.0
327.08328	20.0
328.05176	20.0
333.08887	20.0
383.11475	20.0
387.10849	170.0
387.14606	110.0
398.15091	10.0
399.14722	160.0
402.13385	200.0
403.13647	60.0
404.14178	30.0
414.87793	10.0
416.56873	20.0
417.15811	1000.0
420.82208	10.0
563.21069	10.0
580.21368	10.0
649.43616	20.0
681.24548	120.0
682.2384	20.0
693.23712	40.0
694.24683	20.0
709.26819	10.0
711.25079	890.0
711.42084	10.0
712.25385	70.0
714.68848	10.0

NAME:  NCGC00385300-01!3-[6,12,22-tris(2-amino-2-oxoethyl)-19-(hydroxymethyl)-9-[(4-hydroxyphenyl)methyl]-16-(10-methylundecyl)-2,5,8,11,14,18,21,24-octaoxo-1,4,7,10,13,17,20,23-octazabicyclo[23.3.0]octacosan-3-yl]propanamide
PRECURSORMZ:  1101.55859772283
PRECURSORTYPE:  [M+FA-H]-
FORMULA:  C49H76N12O14
Ontology: Kingdom: Organic compounds;Superclass: Organic acids and derivatives;Class: Carboxylic acids and derivatives;Subclass: Amino acids
INCHIKEY:  VOKIDQKEGUPZBD-UHFFFAOYNA-N
SMILES:  CC(C)CCCCCCCCCC1CC(O)=NC(CC(O)=N)C(O)=NC(CC2=CC=C(O)C=C2)C(O)=NC(CC(O)=N)C(O)=NC(CCC(O)=N)C(=O)N2CCCC2C(O)=NC(CC(O)=N)C(O)=NC(CO)C(O)=N1
RETENTIONTIME:  
CCS:  -1
IONMODE:  Negative
INSTRUMENTTYPE:  
INSTRUMENT:  Maxis II HD Q-TOF Bruker
COLLISIONENERGY:  
Comment:  DB#=CCMSLIB00000845288; origin=GNPS
Num Peaks:  161
71.02637	10.0
73.04049	20.0
82.03212	10.0
87.9361	10.0
94.03071	20.0
96.0094	120.0
97.0406	30.0
98.02469	80.0
99.02065	20.0
109.0394	70.0
110.02541	100.0
111.01984	60.0
113.03561	100.0
113.07171	30.0
119.05135	20.0
121.04298	10.0
124.04073	20.0
125.03484	40.0
127.05256	230.0
128.05019	10.0
130.06624	20.0
135.01909	30.0
138.05507	40.0
139.05106	30.0
143.04962	10.0
144.07748	20.0
150.05537	30.0
152.0462	220.0
153.0302	320.0
154.04102	30.0
155.04428	10.0
161.65436	10.0
161.87289	10.0
162.05861	90.0
163.05411	30.0
164.04645	20.0
164.08469	10.0
165.06772	10.0
169.07753	30.0
170.05772	810.0
170.09425	40.0
171.0406	200.0
172.04402	10.0
177.0657	10.0
179.08148	30.0
180.07964	40.0
181.06444	50.0
182.06175	40.0
182.08736	10.0
183.05878	10.0
187.08221	20.0
196.07277	20.0
204.08055	20.0
205.06705	30.0
206.05612	30.0
206.09294	50.0
207.04338	20.0
208.04332	10.0
210.08777	40.0
215.08047	30.0
216.06642	10.0
223.12527	20.0
224.06891	450.0
225.08035	20.0
226.08009	30.0
227.08524	10.0
238.22038	10.0
241.09819	90.0
241.13557	30.0
249.09836	50.0
250.09453	10.0
253.23431	10.0
258.0914	40.0
259.07797	30.0
260.10251	10.0
267.11292	70.0
275.10629	30.0
276.10037	720.0
277.12598	50.0
279.21188	10.0
281.22858	10.0
284.13937	50.0
293.12732	50.0
294.13394	10.0
294.17184	10.0
295.14059	90.0
298.13992	10.0
310.25955	10.0
312.26932	50.0
320.13876	70.0
324.27692	20.0
338.14578	560.0
339.14896	50.0
350.25046	20.0
373.11688	20.0
391.27847	20.0
392.25589	80.0
393.2562	10.0
394.26489	10.0
395.15335	10.0
409.28662	210.0
410.2865	40.0
420.32343	10.0
421.27243	10.0
435.16528	50.0
439.2915	40.0
457.18692	10.0
490.98343	10.0
491.19522	10.0
497.31018	20.0
501.17862	40.0
502.17661	10.0
509.21527	80.0
510.2211	20.0
515.32953	100.0
516.328	20.0
518.23956	40.0
523.35693	60.0
536.3031	10.0
539.22552	50.0
553.37628	20.0
598.2359	40.0
601.37231	20.0
615.25342	300.0
616.25488	50.0
669.34576	10.0
686.39307	50.0
689.29913	10.0
712.27704	20.0
716.40009	40.0
719.30127	10.0
729.30188	20.0
740.38922	10.0
748.43481	20.0
778.44836	80.0
779.42615	10.0
795.06744	10.0
800.41223	10.0
800.44574	10.0
807.51807	10.0
854.46753	50.0
855.49158	20.0
923.51807	10.0
940.53052	20.0
958.53528	20.0
966.51068	10.0
1007.54285	30.0
1008.53369	20.0
1025.5498	250.0
1026.54297	80.0
1027.54321	20.0
1037.54163	130.0
1038.53796	70.0
1039.51038	10.0
1054.94531	10.0
1055.44519	10.0
1055.56006	1000.0
1055.90076	10.0
1056.5575	340.0
1057.55652	20.0
1165.79358	10.0

NAME:  NCGC00385139-01!
PRECURSORMZ:  491.08311425183
PRECURSORTYPE:  [M-H]-
FORMULA:  C22H20O13
Ontology: Kingdom: Organic compounds;Superclass: Phenylpropanoids and polyketides;Class: Tannins;Subclass: Hydrolyzable tannins
INCHIKEY:  PNYQFRZBMVRYFC-UHFFFAOYNA-N
SMILES:  COC1=C(O)C=C2C(=O)OC3=C4C(=CC(OC5OC(CO)C(O)C(O)C5O)=C3OC)C(=O)OC1=C24
RETENTIONTIME:  
CCS:  226.2883118
IONMODE:  Negative
INSTRUMENTTYPE:  
INSTRUMENT:  Maxis II HD Q-TOF Bruker
COLLISIONENERGY:  
Comment:  DB#=CCMSLIB00000845290; origin=GNPS
Num Peaks:  8
159.49811	40.0
285.00427	90.0
287.79419	40.0
297.97537	80.0
313.00348	650.0
328.01663	1000.0
476.06931	30.0
491.09409	440.0

NAME:  NCGC00380564-01!3-[(2S,3R,4S,5S,6R)-4,5-dihydroxy-6-(hydroxymethyl)-3-[(2S,3R,4S,5R)-3,4,5-trihydroxyoxan-2-yl]oxyoxan-2-yl]oxy-2-(3,4-dihydroxyphenyl)-5-hydroxy-7-methoxychromen-4-one
PRECURSORMZ:  609.14610843383
PRECURSORTYPE:  [M-H]-
FORMULA:  C27H30O16
Ontology: Kingdom: Organic compounds;Superclass: Phenylpropanoids and polyketides;Class: Flavonoids;Subclass: Flavonoid glycosides
INCHIKEY:  UKZBYNNIKTZZLT-UHFFFAOYNA-N
SMILES:  COC1=CC(O)=C2C(=O)C(OC3OC(CO)C(O)C(O)C3OC3OCC(O)C(O)C3O)=C(OC2=C1)C1=CC(O)=C(O)C=C1
RETENTIONTIME:  
CCS:  -1
IONMODE:  Negative
INSTRUMENTTYPE:  
INSTRUMENT:  Maxis II HD Q-TOF Bruker
COLLISIONENERGY:  
Comment:  DB#=CCMSLIB00000845292; origin=GNPS
Num Peaks:  15
156.11722	10.0
165.01749	30.0
167.03059	10.0
174.63689	10.0
193.01746	60.0
269.0477	20.0
271.02356	30.0
299.01779	210.0
300.01706	20.0
314.04462	1000.0
315.04764	60.0
319.58444	20.0
357.05801	10.0
607.78326	10.0
609.1474	600.0

NAME:  NCGC00380537-01!5-[[4,5-dihydroxy-6-[5-hydroxy-2-(4-hydroxyphenyl)-7-methoxy-4-oxochromen-3-yl]oxy-3-(3,4,5-trihydroxy-6-methyloxan-2-yl)oxyoxan-2-yl]methoxy]-3-hydroxy-3-methyl-5-oxopentanoic acid
PRECURSORMZ:  751.20910261583
PRECURSORTYPE:  [M-H]-
FORMULA:  C34H40O19
Ontology: Kingdom: Organic compounds;Superclass: Phenylpropanoids and polyketides;Class: Flavonoids;Subclass: Flavonoid glycosides
INCHIKEY:  VGOJYSUPEJWUNN-UHFFFAOYNA-N
SMILES:  COC1=CC(O)=C2C(OC(C3=CC=C(O)C=C3)=C(OC3OC(COC(=O)CC(C)(O)CC(O)=O)C(OC4OC(C)C(O)C(O)C4O)C(O)C3O)C2=O)=C1
RETENTIONTIME:  
CCS:  -1
IONMODE:  Negative
INSTRUMENTTYPE:  
INSTRUMENT:  Maxis II HD Q-TOF Bruker
COLLISIONENERGY:  
Comment:  DB#=CCMSLIB00000845294; origin=GNPS
Num Peaks:  14
255.02927	50.0
271.06061	50.0
283.02509	590.0
284.02979	40.0
298.04846	1000.0
299.0567	210.0
425.09219	10.0
451.14001	10.0
607.16803	500.0
608.16827	50.0
649.17767	430.0
650.18115	10.0
689.20947	120.0
751.21484	130.0

NAME:  NCGC00380129-01![6-[6-[6-[4,5-dihydroxy-6-[(2E,6E)-10-hydroxy-2,6,10-trimethyldodeca-2,6,11-trienoxy]-2-methyloxan-3-yl]oxy-4,5-dihydroxy-2-methyloxan-3-yl]oxy-4,5-dihydroxy-2-methyloxan-3-yl]oxy-4,5-dihydroxy-2-methyloxan-3-yl] acetate
PRECURSORMZ:  909.43368251783
PRECURSORTYPE:  [M+FA-H]-
FORMULA:  C41H68O19
Ontology: Kingdom: Organic compounds;Superclass: Lipids and lipid;Class: Prenol lipids;Subclass: Terpene glycosides
INCHIKEY:  YGXBITSXQZFVOX-UHFFFAOYNA-N
SMILES:  CC1OC(OCC(C)=CCCC(C)=CCCC(C)(O)C=C)C(O)C(O)C1OC1OC(C)C(OC2OC(C)C(OC3OC(C)C(OC(C)=O)C(O)C3O)C(O)C2O)C(O)C1O
RETENTIONTIME:  
CCS:  -1
IONMODE:  Negative
INSTRUMENTTYPE:  
INSTRUMENT:  Maxis II HD Q-TOF Bruker
COLLISIONENERGY:  
Comment:  DB#=CCMSLIB00000845296; origin=GNPS
Num Peaks:  49
81.03619	10.0
83.01273	10.0
85.02813	50.0
85.99936	20.0
87.00666	30.0
87.88013	10.0
89.02765	20.0
99.04306	20.0
101.02268	30.0
103.03743	50.0
109.0248	10.0
112.01349	20.0
115.04229	60.0
125.02469	10.0
125.05818	10.0
126.03081	70.0
127.03943	90.0
131.03235	50.0
143.03452	90.0
145.04988	120.0
153.05219	10.0
163.06096	140.0
167.14142	30.0
194.26466	10.0
205.07094	270.0
237.19641	20.0
378.4104	10.0
383.24496	130.0
384.24591	20.0
511.293	30.0
513.28717	10.0
529.30023	330.0
530.30408	30.0
657.34283	120.0
658.35461	20.0
675.3584	450.0
675.5105	10.0
676.36011	40.0
699.38666	10.0
717.35339	20.0
718.36218	10.0
803.40387	300.0
803.47467	50.0
804.4079	90.0
821.41919	1000.0
822.41925	170.0
863.42987	420.0
864.43262	120.0
1896.5293	20.0

NAME:  NCGC00169619-02![(2R,3S,4S,5R,6S)-6-[(2S,3R,4S,5R,6R)-6-[[(1S,3R,4S,4aR,8aR)-4-[(3S)-3-[(2S,3R,4R,5R,6R)-3,4-dihydroxy-6-methyl-5-[(2S,3R,4R,5R,6S)-3,4,5-trihydroxy-6-methyloxan-2-yl]oxyoxan-2-yl]oxy-3-methylpent-4-enyl]-3,4,8,8a-tetramethyl-1,2,3,4a,5,6-hexahydronaphthalen-1-yl]oxy]-4,5-dihydroxy-2-methyloxan-3-yl]oxy-3,4,5-trihydroxyoxan-2-yl]methyl acetate
PRECURSORMZ:  993.49119739483
PRECURSORTYPE:  [M+FA-H]-
FORMULA:  C46H76O20
Ontology: Kingdom: Organic compounds;Superclass: Lipids and lipid;Class: Prenol lipids;Subclass: Terpene glycosides
INCHIKEY:  YGAXNRUXTMXSJA-UHFFFAOYNA-N
SMILES:  CC1CC(OC2OC(C)C(OC3OC(COC(C)=O)C(O)C(O)C3O)C(O)C2O)C2(C)C(CCC=C2C)C1(C)CCC(C)(OC1OC(C)C(OC2OC(C)C(O)C(O)C2O)C(O)C1O)C=C
RETENTIONTIME:  
CCS:  -1
IONMODE:  Negative
INSTRUMENTTYPE:  
INSTRUMENT:  Maxis II HD Q-TOF Bruker
COLLISIONENERGY:  
Comment:  DB#=CCMSLIB00000845298; origin=GNPS
Num Peaks:  74
71.0152	40.0
73.02795	60.0
85.02867	60.0
87.05027	20.0
89.02442	20.0
95.0114	10.0
97.02317	10.0
101.02202	30.0
107.42718	10.0
109.02943	10.0
113.02269	80.0
113.94937	10.0
119.03321	30.0
121.02631	20.0
126.03034	20.0
127.04041	30.0
129.01743	30.0
141.01985	30.0
141.054	10.0
143.03336	60.0
145.0502	160.0
161.04309	30.0
163.06352	20.0
165.04631	20.0
169.04767	20.0
179.05278	20.0
187.06036	10.0
229.0724	20.0
232.96693	20.0
307.10126	20.0
333.23138	10.0
347.8309	20.0
371.98483	20.0
425.54633	20.0
439.98578	10.0
447.95084	10.0
450.84811	20.0
451.30948	90.0
491.3291	10.0
493.31171	30.0
506.77234	10.0
517.32281	10.0
547.33649	20.0
561.30048	10.0
561.34149	10.0
595.34619	10.0
597.29742	10.0
597.36639	250.0
614.35193	20.0
725.42169	30.0
741.40436	100.0
742.3764	10.0
743.41235	120.0
744.4212	20.0
759.4231	140.0
760.41064	30.0
785.4436	30.0
801.46613	10.0
884.98151	10.0
887.45868	560.0
888.46796	190.0
897.85059	10.0
904.79596	10.0
905.24335	10.0
905.4726	660.0
906.47308	230.0
907.48376	40.0
929.21301	20.0
945.41846	10.0
946.52716	20.0
947.48431	1000.0
948.4881	340.0
949.48297	40.0
1302.28259	10.0

NAME:  NCGC00347394-02!(2R)-5,8-dihydroxy-2-(2-hydroxyphenyl)-7-methoxy-2,3-dihydrochromen-4-one
PRECURSORMZ:  301.07176171883
PRECURSORTYPE:  [M-H]-
FORMULA:  C16H14O6
Ontology: Kingdom: Organic compounds;Superclass: Phenylpropanoids and polyketides;Class: Flavonoids;Subclass: O
INCHIKEY:  NJUWLUPGDQOJCR-UHFFFAOYNA-N
SMILES:  COC1=C(O)C2=C(C(=O)CC(O2)C2=CC=CC=C2O)C(O)=C1
RETENTIONTIME:  
CCS:  182.9843311
IONMODE:  Negative
INSTRUMENTTYPE:  
INSTRUMENT:  Maxis II HD Q-TOF Bruker
COLLISIONENERGY:  
Comment:  DB#=CCMSLIB00000845300; origin=GNPS
Num Peaks:  7
111.01096	370.0
137.18452	80.0
140.00887	1000.0
155.03081	960.0
165.99084	130.0
286.05627	250.0
301.08505	260.0

NAME:  NCGC00384488-01!5,7-dihydroxy-3-[3-hydroxy-4-methoxy-5-(3-methylbut-2-enyl)phenyl]chromen-4-one
PRECURSORMZ:  367.11871191183
PRECURSORTYPE:  [M-H]-
FORMULA:  C21H20O6
Ontology: Kingdom: Organic compounds;Superclass: Phenylpropanoids and polyketides;Class: Isoflavonoids;Subclass: O
INCHIKEY:  ONLZHAOKMQJPIC-UHFFFAOYSA-N
SMILES:  COC1=C(O)C=C(C=C1CC=C(C)C)C1=COC2=CC(O)=CC(O)=C2C1=O
RETENTIONTIME:  
CCS:  209.0293835
IONMODE:  Negative
INSTRUMENTTYPE:  
INSTRUMENT:  Maxis II HD Q-TOF Bruker
COLLISIONENERGY:  
Comment:  DB#=CCMSLIB00000845302; origin=GNPS
Num Peaks:  10
284.02899	260.0
297.04913	490.0
309.03644	170.0
351.07217	200.0
352.09296	750.0
367.11945	760.0
367.16226	300.0
917.6427	270.0
1074.63831	1000.0
1079.88416	50.0

NAME:  NCGC00386038-01!(E)-1-[3-[(2,3-dihydroxyphenyl)methyl]-2,4-dihydroxy-6-methoxyphenyl]-3-phenylprop-2-en-1-one
PRECURSORMZ:  391.11871191183
PRECURSORTYPE:  [M-H]-
FORMULA:  C23H20O6
Ontology: Kingdom: Organic compounds;Superclass: Phenylpropanoids and polyketides;Class: Diarylheptanoids;Subclass: Linear diarylheptanoids
INCHIKEY:  WEHFIEZHFRETHH-UHFFFAOYSA-N
SMILES:  COC1=C(C(=O)C=CC2=CC=CC=C2)C(O)=C(CC2=C(O)C(O)=CC=C2)C(O)=C1
RETENTIONTIME:  
CCS:  -1
IONMODE:  Negative
INSTRUMENTTYPE:  
INSTRUMENT:  Maxis II HD Q-TOF Bruker
COLLISIONENERGY:  
Comment:  DB#=CCMSLIB00000845304; origin=GNPS
Num Peaks:  6
97.03014	110.0
208.00607	130.0
253.05386	70.0
254.05672	80.0
269.08398	1000.0
391.11481	810.0

NAME:  NCGC00385215-01!
PRECURSORMZ:  425.12419121583
PRECURSORTYPE:  [M-H]-
FORMULA:  C23H22O8
Ontology: Kingdom: Organic compounds;Superclass: Phenylpropanoids and polyketides;Class: Isoflavonoids;Subclass: Rotenoids
INCHIKEY:  OFLCPNIRDVOOEZ-UHFFFAOYNA-N
SMILES:  COC1=C(OC)C=C2C(OCC3OC4=C(C(O)=CC5=C4C=CC(C)(C)O5)C(=O)C23O)=C1
RETENTIONTIME:  
CCS:  211.4668861
IONMODE:  Negative
INSTRUMENTTYPE:  
INSTRUMENT:  Maxis II HD Q-TOF Bruker
COLLISIONENERGY:  
Comment:  DB#=CCMSLIB00000845306; origin=GNPS
Num Peaks:  11
81.91384	70.0
107.05396	50.0
149.05809	100.0
150.03128	70.0
159.04201	70.0
217.0497	1000.0
367.08826	50.0
381.09818	100.0
382.10861	30.0
394.11575	40.0
425.12079	470.0

NAME:  NCGC00179752-02!5,7-dihydroxy-2-(4-hydroxyphenyl)-3-[(2S,3R,4S,5S,6R)-3,4,5-trihydroxy-6-[[(2R,3R,4R,5R,6S)-3,4,5-trihydroxy-6-methyloxan-2-yl]oxymethyl]oxan-2-yl]oxychromen-4-one
PRECURSORMZ:  593.15119381383
PRECURSORTYPE:  [M-H]-
FORMULA:  C27H30O15
Ontology: Kingdom: Organic compounds;Superclass: Phenylpropanoids and polyketides;Class: Flavonoids;Subclass: Flavonoid glycosides
INCHIKEY:  RTATXGUCZHCSNG-UHFFFAOYNA-N
SMILES:  CC1OC(OCC2OC(OC3=C(OC4=CC(O)=CC(O)=C4C3=O)C3=CC=C(O)C=C3)C(O)C(O)C2O)C(O)C(O)C1O
RETENTIONTIME:  
CCS:  224.998807
IONMODE:  Negative
INSTRUMENTTYPE:  
INSTRUMENT:  Maxis II HD Q-TOF Bruker
COLLISIONENERGY:  
Comment:  DB#=CCMSLIB00000845308; origin=GNPS
Num Peaks:  20
140.47707	20.0
148.04401	10.0
151.00334	40.0
163.01042	20.0
167.05402	10.0
209.00754	20.0
227.03474	30.0
229.05244	30.0
241.06195	10.0
243.78964	10.0
255.02931	60.0
256.06482	20.0
267.03949	10.0
283.21841	10.0
284.03162	730.0
285.04144	580.0
287.04324	20.0
289.21542	20.0
327.06052	30.0
593.14954	1000.0

NAME:  NCGC00385065-01!4-[4-[(4-hydroxy-3-methoxyphenyl)methyl]-3-(hydroxymethyl)oxolan-2-yl]benzene-1,2-diol
PRECURSORMZ:  391.13984097583
PRECURSORTYPE:  [M+FA-H]-
FORMULA:  C19H22O6
Ontology: Kingdom: Organic compounds;Superclass: Lignans;Class: Furanoid lignans;Subclass: Tetrahydrofuran lignans
INCHIKEY:  SNZZAHRDXCGWEM-UHFFFAOYNA-N
SMILES:  COC1=C(O)C=CC(CC2COC(C2CO)C2=CC(O)=C(O)C=C2)=C1
RETENTIONTIME:  
CCS:  -1
IONMODE:  Negative
INSTRUMENTTYPE:  
INSTRUMENT:  Maxis II HD Q-TOF Bruker
COLLISIONENERGY:  
Comment:  DB#=CCMSLIB00000845310; origin=GNPS
Num Peaks:  5
123.0447	70.0
175.08266	60.0
178.06325	70.0
315.12064	1000.0
345.1362	140.0

NAME:  NCGC00163580-03!5,7-dihydroxy-2-(4-hydroxyphenyl)-3-[(2S,3R,4S,5S,6R)-3,4,5-trihydroxy-6-(hydroxymethyl)oxan-2-yl]oxychromen-4-one
PRECURSORMZ:  447.09328501183
PRECURSORTYPE:  [M-H]-
FORMULA:  C21H20O11
Ontology: Kingdom: Organic compounds;Superclass: Phenylpropanoids and polyketides;Class: Flavonoids;Subclass: Flavonoid glycosides
INCHIKEY:  JPUKWEQWGBDDQB-UHFFFAOYNA-N
SMILES:  OCC1OC(OC2=C(OC3=CC(O)=CC(O)=C3C2=O)C2=CC=C(O)C=C2)C(O)C(O)C1O
RETENTIONTIME:  
CCS:  199.6625881
IONMODE:  Negative
INSTRUMENTTYPE:  
INSTRUMENT:  Maxis II HD Q-TOF Bruker
COLLISIONENERGY:  
Comment:  DB#=CCMSLIB00000845312; origin=GNPS
Num Peaks:  8
147.05052	110.0
150.99681	170.0
257.04312	120.0
269.04712	140.0
284.00873	170.0
284.04105	420.0
285.04788	850.0
447.09793	1000.0

NAME:  NCGC00381416-01![3-methyl-1-[3-methyl-1-oxo-1-(2,3,4,5,6-pentahydroxyhexoxy)pentan-2-yl]oxy-1-oxobutan-2-yl] 2-hydroxy-3-methylpentanoate
PRECURSORMZ:  555.26582933983
PRECURSORTYPE:  [M+FA-H]-
FORMULA:  C23H42O12
Ontology: Kingdom: Organic compounds;Superclass: Organic acids and derivatives;Class: Peptidomimetics;Subclass: Depsipeptides
INCHIKEY:  NJYYDRBRLSOFNG-UHFFFAOYNA-N
SMILES:  CCC(C)C(O)C(=O)OC(C(C)C)C(=O)OC(C(C)CC)C(=O)OCC(O)C(O)C(O)C(O)CO
RETENTIONTIME:  
CCS:  -1
IONMODE:  Negative
INSTRUMENTTYPE:  
INSTRUMENT:  Maxis II HD Q-TOF Bruker
COLLISIONENERGY:  
Comment:  DB#=CCMSLIB00000845314; origin=GNPS
Num Peaks:  7
116.89745	10.0
117.05544	180.0
131.07127	1000.0
231.12447	630.0
245.13126	10.0
245.16339	10.0
345.19382	150.0

NAME:  NCGC00380596-01!2-[3-[(2E)-3,7-dimethylocta-2,6-dienyl]-2,6-dihydroxybenzoyl]-5-formyl-3-hydroxybenzoic acid
PRECURSORMZ:  437.16057672483
PRECURSORTYPE:  [M-H]-
FORMULA:  C25H26O7
Ontology: Kingdom: Organic compounds;Superclass: Benzenoids;Class: Benzene and substituted derivatives;Subclass: Benzophenones
INCHIKEY:  HTPFCQBRMHUAEU-UHFFFAOYSA-N
SMILES:  CC(C)=CCCC(C)=CCC1=C(O)C(C(=O)C2=C(C=C(C=O)C=C2O)C(O)=O)=C(O)C=C1
RETENTIONTIME:  
CCS:  -1
IONMODE:  Negative
INSTRUMENTTYPE:  
INSTRUMENT:  Maxis II HD Q-TOF Bruker
COLLISIONENERGY:  
Comment:  DB#=CCMSLIB00000845316; origin=GNPS
Num Peaks:  32
107.85754	90.0
119.0103	90.0
121.02908	250.0
125.30994	50.0
147.00897	250.0
157.06152	60.0
159.08125	90.0
165.0177	500.0
191.00003	260.0
202.0609	70.0
221.1058	40.0
245.1617	140.0
263.12546	110.0
265.05722	70.0
269.82693	60.0
271.133	670.0
279.10577	60.0
289.14493	150.0
296.03204	60.0
303.04315	130.0
306.08359	120.0
349.07214	40.0
349.17447	60.0
350.08545	80.0
374.72504	20.0
375.15588	600.0
375.22321	60.0
391.15967	50.0
393.16428	70.0
419.09073	50.0
419.14557	280.0
437.15726	1000.0

NAME:  NCGC00380596-01!2-[3-[(2E)-3,7-dimethylocta-2,6-dienyl]-2,6-dihydroxybenzoyl]-5-formyl-3-hydroxybenzoic acid
PRECURSORMZ:  483.16605572483
PRECURSORTYPE:  [M+FA-H]-
FORMULA:  C25H26O7
Ontology: Kingdom: Organic compounds;Superclass: Benzenoids;Class: Benzene and substituted derivatives;Subclass: Benzophenones
INCHIKEY:  HTPFCQBRMHUAEU-UHFFFAOYSA-N
SMILES:  CC(C)=CCCC(C)=CCC1=C(O)C(C(=O)C2=C(C=C(C=O)C=C2O)C(O)=O)=C(O)C=C1
RETENTIONTIME:  
CCS:  -1
IONMODE:  Negative
INSTRUMENTTYPE:  
INSTRUMENT:  Maxis II HD Q-TOF Bruker
COLLISIONENERGY:  
Comment:  DB#=CCMSLIB00000845318; origin=GNPS
Num Peaks:  21
173.05937	90.0
174.06058	80.0
201.04834	60.0
213.05162	60.0
215.07083	90.0
225.06482	60.0
227.07225	70.0
237.12878	60.0
279.09164	30.0
280.12759	40.0
306.0827	60.0
322.40955	80.0
324.10507	80.0
325.14276	50.0
331.16376	100.0
349.17972	170.0
392.51837	40.0
393.17209	1000.0
395.75388	30.0
419.14825	30.0
437.15686	260.0

NAME:  NCGC00380474-01!5-hydroxy-2-(4-hydroxyphenyl)-7-[[(2R,3S)-3,5,8-trihydroxy-2-(4-hydroxyphenyl)-3,4-dihydro-2H-chromen-7-yl]oxy]chromen-4-one
PRECURSORMZ:  541.11402045583
PRECURSORTYPE:  [M-H]-
FORMULA:  C30H22O10
Ontology: Kingdom: Organic compounds;Superclass: Phenylpropanoids and polyketides;Class: Flavonoids;Subclass: Flavones
INCHIKEY:  JDRLMOFOBWKOPI-UHFFFAOYNA-N
SMILES:  OC1CC2=C(OC1C1=CC=C(O)C=C1)C(O)=C(OC1=CC(O)=C3C(=O)C=C(OC3=C1)C1=CC=C(O)C=C1)C=C2O
RETENTIONTIME:  
CCS:  -1
IONMODE:  Negative
INSTRUMENTTYPE:  
INSTRUMENT:  Maxis II HD Q-TOF Bruker
COLLISIONENERGY:  
Comment:  DB#=CCMSLIB00000845320; origin=GNPS
Num Peaks:  49
151.00291	980.0
169.00993	80.0
187.02974	60.0
188.17867	70.0
190.81439	30.0
203.02942	20.0
225.04787	80.0
227.03705	110.0
239.06819	90.0
240.04381	190.0
241.04936	170.0
253.06299	60.0
254.67505	120.0
270.04568	20.0
274.05399	90.0
279.07883	20.0
280.04178	110.0
282.05664	90.0
292.06528	70.0
293.08041	20.0
304.04062	70.0
306.05112	180.0
307.05679	150.0
309.04041	60.0
319.06036	40.0
319.09167	120.0
322.0217	40.0
322.0506	80.0
324.06125	60.0
337.06873	50.0
340.01828	60.0
345.11343	60.0
347.05103	130.0
348.0838	100.0
349.26416	150.0
356.35254	80.0
389.10135	500.0
411.12177	60.0
413.11542	70.0
427.13763	50.0
431.11298	430.0
447.07147	690.0
453.13947	40.0
453.1666	60.0
455.11273	200.0
469.12451	200.0
473.11063	310.0
497.12753	400.0
541.11591	1000.0

NAME:  NCGC00347585-02!(1,9,9b-trihydroxy-6,6,9a-trimethyl-3,5,5a,7,8,9-hexahydro-1H-benzo[e][2]benzofuran-5-yl) hexanoate
PRECURSORMZ:  427.23374136283
PRECURSORTYPE:  [M+FA-H]-
FORMULA:  C21H34O6
Ontology: Kingdom: Organic compounds;Superclass: Organoheterocyclic compounds;Class: Naphthofurans;
INCHIKEY:  GFMGOVRWOOAPMN-UHFFFAOYNA-N
SMILES:  CCCCCC(=O)OC1C=C2COC(O)C2(O)C2(C)C(O)CCC(C)(C)C12
RETENTIONTIME:  
CCS:  -1
IONMODE:  Negative
INSTRUMENTTYPE:  
INSTRUMENT:  Maxis II HD Q-TOF Bruker
COLLISIONENERGY:  
Comment:  DB#=CCMSLIB00000845322; origin=GNPS
Num Peaks:  8
115.07587	1000.0
123.31343	60.0
163.11072	60.0
191.10522	90.0
237.14902	820.0
265.14661	410.0
380.50909	30.0
380.77972	40.0

NAME:  NCGC00180205-02!5-hydroxy-7-[(2S,3R,4R,5R,6S)-3,4,5-trihydroxy-6-methyloxan-2-yl]oxy-3-[4-[(2S,3R,4R,5R,6S)-3,4,5-trihydroxy-6-methyloxan-2-yl]oxyphenyl]chromen-4-one
PRECURSORMZ:  607.16684357383
PRECURSORTYPE:  [M+FA-H]-
FORMULA:  C27H30O13
Ontology: Kingdom: Organic compounds;Superclass: Phenylpropanoids and polyketides;Class: Isoflavonoids;Subclass: Isoflavonoid O
INCHIKEY:  GJBRADPPUCQNGC-UHFFFAOYNA-N
SMILES:  CC1OC(OC2=CC=C(C=C2)C2=COC3=CC(OC4OC(C)C(O)C(O)C4O)=CC(O)=C3C2=O)C(O)C(O)C1O
RETENTIONTIME:  
CCS:  -1
IONMODE:  Negative
INSTRUMENTTYPE:  
INSTRUMENT:  Maxis II HD Q-TOF Bruker
COLLISIONENERGY:  
Comment:  DB#=CCMSLIB00000845324; origin=GNPS
Num Peaks:  8
224.04919	10.0
240.04463	10.0
268.03949	140.0
269.04974	30.0
415.10352	1000.0
416.11496	40.0
561.16309	250.0
1608.04114	10.0

NAME:  NCGC00385090-01!2-(4-hydroxyphenyl)-7-[(2S,3R,4S,5S,6R)-3,4,5-trihydroxy-6-(hydroxymethyl)oxan-2-yl]oxy-2,3-dihydrochromen-4-one
PRECURSORMZ:  417.11910583583
PRECURSORTYPE:  [M-H]-
FORMULA:  C21H22O9
Ontology: Kingdom: Organic compounds;Superclass: Phenylpropanoids and polyketides;Class: Flavonoids;Subclass: Flavonoid glycosides
INCHIKEY:  HJBUYKZTEBZNSH-UHFFFAOYNA-N
SMILES:  OCC1OC(OC2=CC3=C(C=C2)C(=O)CC(O3)C2=CC=C(O)C=C2)C(O)C(O)C1O
RETENTIONTIME:  
CCS:  219.7117126
IONMODE:  Negative
INSTRUMENTTYPE:  
INSTRUMENT:  Maxis II HD Q-TOF Bruker
COLLISIONENERGY:  
Comment:  DB#=CCMSLIB00000845326; origin=GNPS
Num Peaks:  6
119.0487	150.0
123.28719	70.0
252.09235	40.0
253.52007	80.0
255.06717	1000.0
417.11664	150.0

NAME:  NCGC00385090-01!2-(4-hydroxyphenyl)-7-[(2S,3R,4S,5S,6R)-3,4,5-trihydroxy-6-(hydroxymethyl)oxan-2-yl]oxy-2,3-dihydrochromen-4-one
PRECURSORMZ:  463.12458483583
PRECURSORTYPE:  [M+FA-H]-
FORMULA:  C21H22O9
Ontology: Kingdom: Organic compounds;Superclass: Phenylpropanoids and polyketides;Class: Flavonoids;Subclass: Flavonoid glycosides
INCHIKEY:  HJBUYKZTEBZNSH-UHFFFAOYNA-N
SMILES:  OCC1OC(OC2=CC3=C(C=C2)C(=O)CC(O3)C2=CC=C(O)C=C2)C(O)C(O)C1O
RETENTIONTIME:  
CCS:  -1
IONMODE:  Negative
INSTRUMENTTYPE:  
INSTRUMENT:  Maxis II HD Q-TOF Bruker
COLLISIONENERGY:  
Comment:  DB#=CCMSLIB00000845328; origin=GNPS
Num Peaks:  12
119.05154	180.0
135.00967	60.0
144.85655	10.0
146.21075	30.0
153.01945	60.0
254.05565	10.0
255.06836	1000.0
256.08389	20.0
271.02417	20.0
316.01422	20.0
417.11829	150.0
417.20319	10.0

NAME:  NCGC00163625-02!3,5,7-trihydroxy-2-[3-hydroxy-4-[(2S,3R,4S,5S,6R)-3,4,5-trihydroxy-6-(hydroxymethyl)oxan-2-yl]oxyphenyl]chromen-4-one
PRECURSORMZ:  463.08819963183
PRECURSORTYPE:  [M-H]-
FORMULA:  C21H20O12
Ontology: Kingdom: Organic compounds;Superclass: Phenylpropanoids and polyketides;Class: Flavonoids;Subclass: Flavonoid glycosides
INCHIKEY:  OIUBYZLTFSLSBY-UHFFFAOYNA-N
SMILES:  OCC1OC(OC2=C(O)C=C(C=C2)C2=C(O)C(=O)C3=C(O)C=C(O)C=C3O2)C(O)C(O)C1O
RETENTIONTIME:  
CCS:  218.6169489
IONMODE:  Negative
INSTRUMENTTYPE:  
INSTRUMENT:  Maxis II HD Q-TOF Bruker
COLLISIONENERGY:  
Comment:  DB#=CCMSLIB00000845330; origin=GNPS
Num Peaks:  10
143.63414	30.0
151.00056	140.0
178.99535	80.0
297.1655	10.0
297.82581	30.0
300.02878	130.0
301.0347	1000.0
303.51996	30.0
330.11414	30.0
463.08856	100.0

NAME:  NCGC00385085-01!5,7-dihydroxy-2-(4-hydroxyphenyl)-3-[(2S,3R,4S,5S,6R)-3,4,5-trihydroxy-6-[[(2S,3R,4S,5S)-3,4,5-trihydroxyoxan-2-yl]oxymethyl]oxan-2-yl]oxychromen-4-one
PRECURSORMZ:  579.13554374983
PRECURSORTYPE:  [M-H]-
FORMULA:  C26H28O15
Ontology: Kingdom: Organic compounds;Superclass: Phenylpropanoids and polyketides;Class: Flavonoids;Subclass: Flavonoid glycosides
INCHIKEY:  YJPZWZRYHLEDNA-UHFFFAOYNA-N
SMILES:  OC1COC(OCC2OC(OC3=C(OC4=CC(O)=CC(O)=C4C3=O)C3=CC=C(O)C=C3)C(O)C(O)C2O)C(O)C1O
RETENTIONTIME:  
CCS:  233.6914624
IONMODE:  Negative
INSTRUMENTTYPE:  
INSTRUMENT:  Maxis II HD Q-TOF Bruker
COLLISIONENERGY:  
Comment:  DB#=CCMSLIB00000845332; origin=GNPS
Num Peaks:  22
144.06053	20.0
151.00023	40.0
162.36018	40.0
224.62354	20.0
227.03781	140.0
229.04778	50.0
235.03026	30.0
255.02861	530.0
257.03864	50.0
266.16013	80.0
283.53894	20.0
284.03412	1000.0
284.21658	20.0
284.30112	20.0
284.63708	30.0
285.04126	270.0
285.11481	10.0
291.41882	30.0
321.50085	30.0
429.08801	20.0
578.18707	60.0
579.13947	670.0

NAME:  NCGC00385085-01!5,7-dihydroxy-2-(4-hydroxyphenyl)-3-[(2S,3R,4S,5S,6R)-3,4,5-trihydroxy-6-[[(2S,3R,4S,5S)-3,4,5-trihydroxyoxan-2-yl]oxymethyl]oxan-2-yl]oxychromen-4-one
PRECURSORMZ:  625.14102274983
PRECURSORTYPE:  [M+FA-H]-
FORMULA:  C26H28O15
Ontology: Kingdom: Organic compounds;Superclass: Phenylpropanoids and polyketides;Class: Flavonoids;Subclass: Flavonoid glycosides
INCHIKEY:  YJPZWZRYHLEDNA-UHFFFAOYNA-N
SMILES:  OC1COC(OCC2OC(OC3=C(OC4=CC(O)=CC(O)=C4C3=O)C3=CC=C(O)C=C3)C(O)C(O)C2O)C(O)C1O
RETENTIONTIME:  
CCS:  -1
IONMODE:  Negative
INSTRUMENTTYPE:  
INSTRUMENT:  Maxis II HD Q-TOF Bruker
COLLISIONENERGY:  
Comment:  DB#=CCMSLIB00000845334; origin=GNPS
Num Peaks:  24
178.99373	40.0
211.04295	50.0
227.0322	50.0
255.03214	230.0
256.04327	50.0
257.04724	60.0
283.29315	20.0
284.03134	680.0
285.00922	10.0
285.04163	140.0
339.04477	30.0
432.37448	20.0
433.01001	10.0
576.62671	10.0
576.81866	20.0
576.94867	10.0
578.35608	20.0
578.65112	10.0
578.72546	20.0
579.13531	1000.0
580.15472	50.0
583.82855	10.0
624.11072	20.0
1134.28174	30.0

NAME:  NCGC00347865-02!4-[7-acetyloxy-5-chloro-3-[(1E,3E)-3,5-dimethylhepta-1,3-dienyl]-7-methyl-6,8-dioxoisoquinolin-2-yl]-5-amino-5-oxopentanoic acid
PRECURSORMZ:  517.17470254783
PRECURSORTYPE:  [M-H]-
FORMULA:  C26H31ClN2O7
Ontology: Kingdom: Organic compounds;Superclass: Organoheterocyclic compounds;Class: Azaphilones;
INCHIKEY:  QARZACKHGQBZLP-UHFFFAOYNA-N
SMILES:  CCC(C)C=C(C)C=CC1=CC2=C(Cl)C(=O)C(C)(OC(C)=O)C(=O)C2=CN1C(CCC(O)=O)C(O)=N
RETENTIONTIME:  
CCS:  -1
IONMODE:  Negative
INSTRUMENTTYPE:  
INSTRUMENT:  Maxis II HD Q-TOF Bruker
COLLISIONENERGY:  
Comment:  DB#=CCMSLIB00000845336; origin=GNPS
Num Peaks:  27
120.69137	10.0
158.78249	10.0
173.0582	20.0
196.00278	30.0
204.99191	20.0
205.49541	10.0
219.00557	20.0
220.70782	20.0
298.05951	10.0
310.00189	20.0
310.13794	30.0
324.16428	20.0
327.12469	10.0
327.41107	30.0
328.11133	320.0
328.32104	10.0
329.12265	10.0
342.14453	20.0
346.11957	90.0
349.20355	10.0
350.73193	20.0
354.12039	40.0
370.12402	20.0
370.16068	60.0
388.13202	1000.0
413.16998	190.0
473.17416	10.0

NAME:  NCGC00386096-01!(9E,15E,19E)-3-(2-amino-2-oxoethyl)-11,13-dihydroxy-14,21-dimethoxy-8,10,12-trimethyl-7,21-dioxohenicosa-9,15,19-trienoic acid
PRECURSORMZ:  538.30215558083
PRECURSORTYPE:  [M-H]-
FORMULA:  C28H45NO9
Ontology: Kingdom: Organic compounds;Superclass: Lipids and lipid;Class: Fatty Acyls;Subclass: Eicosanoids
INCHIKEY:  RSNBAEGFNZIXPM-UHFFFAOYNA-N
SMILES:  COC(C=CCCC=CC(=O)OC)C(O)C(C)C(O)C(C)=CC(C)C(=O)CCCC(CC(O)=N)CC(O)=O
RETENTIONTIME:  
CCS:  -1
IONMODE:  Negative
INSTRUMENTTYPE:  
INSTRUMENT:  Maxis II HD Q-TOF Bruker
COLLISIONENERGY:  
Comment:  DB#=CCMSLIB00000845338; origin=GNPS
Num Peaks:  30
133.10501	100.0
136.07724	50.0
138.09158	70.0
180.06723	40.0
191.11264	190.0
207.13507	60.0
224.16371	80.0
232.14149	60.0
247.1684	70.0
249.44368	60.0
250.14514	270.0
250.45084	40.0
251.13647	120.0
268.15649	1000.0
269.11703	110.0
278.14456	80.0
290.18091	270.0
291.15875	100.0
291.19019	70.0
296.15109	110.0
308.19431	480.0
372.22632	60.0
377.21753	30.0
431.25143	40.0
461.24429	60.0
474.24506	40.0
488.26959	40.0
506.28378	110.0
517.6557	20.0
538.30176	720.0

NAME:  NCGC00386053-01!6-[4-(4-carboxy-3-hydroxy-5-methylphenoxy)carbonyl-3-hydroxy-5-pentadecylphenoxy]-3,4,5-trihydroxyoxane-2-carboxylic acid
PRECURSORMZ:  689.31786521783
PRECURSORTYPE:  [M-H]-
FORMULA:  C36H50O13
Ontology: Kingdom: Organic compounds;Superclass: Phenylpropanoids and polyketides;Class: Tannins;Subclass: Hydrolyzable tannins
INCHIKEY:  PNRVAHOSWLWYPO-UHFFFAOYNA-N
SMILES:  CCCCCCCCCCCCCCCC1=CC(OC2OC(C(O)C(O)C2O)C(O)=O)=CC(O)=C1C(=O)OC1=CC(O)=C(C(O)=O)C(C)=C1
RETENTIONTIME:  
CCS:  304.6211565
IONMODE:  Negative
INSTRUMENTTYPE:  
INSTRUMENT:  Maxis II HD Q-TOF Bruker
COLLISIONENERGY:  
Comment:  DB#=CCMSLIB00000845340; origin=GNPS
Num Peaks:  28
112.85406	30.0
113.02966	60.0
123.04713	100.0
129.02155	50.0
149.02498	150.0
165.90804	20.0
166.13892	40.0
166.29794	30.0
167.03497	780.0
167.15184	30.0
167.1898	50.0
167.85484	20.0
168.03786	90.0
173.15762	20.0
175.0231	280.0
301.2536	50.0
319.26608	50.0
345.24426	1000.0
346.26071	70.0
363.24808	80.0
425.32437	60.0
520.78442	20.0
521.28003	400.0
521.71582	20.0
522.27924	20.0
539.31555	150.0
645.33893	20.0
689.34534	20.0

NAME:  NCGC00386091-01!2,3,4,5,6-pentahydroxyhexyl 2-[2-[2-[2-(2-acetyloxy-3-methylbutanoyl)oxy-3-methylpentanoyl]oxy-3-methylpentanoyl]oxy-3-methylpentanoyl]oxy-3-methylpentanoate
PRECURSORMZ:  815.3837518609
PRECURSORTYPE:  [M+Cl]-
FORMULA:  C37H64O17
Ontology: Kingdom: Organic compounds;Superclass: Organic acids and derivatives;Class: Carboxylic acids and derivatives;Subclass: Hexacarboxylic acids and derivatives
INCHIKEY:  OXQSHEREUUUCEE-UHFFFAOYNA-N
SMILES:  CCC(C)C(OC(=O)C(OC(=O)C(OC(=O)C(OC(=O)C(OC(C)=O)C(C)C)C(C)CC)C(C)CC)C(C)CC)C(=O)OCC(O)C(O)C(O)C(O)CO
RETENTIONTIME:  
CCS:  -1
IONMODE:  Negative
INSTRUMENTTYPE:  
INSTRUMENT:  Maxis II HD Q-TOF Bruker
COLLISIONENERGY:  
Comment:  DB#=CCMSLIB00000845342; origin=GNPS
Num Peaks:  11
131.07185	450.0
172.36513	130.0
173.08197	1000.0
189.09352	120.0
287.15314	620.0
303.19965	140.0
321.16577	120.0
387.20422	440.0
401.22668	140.0
501.28165	230.0
1322.45996	80.0

NAME:  NCGC00386091-01!2,3,4,5,6-pentahydroxyhexyl 2-[2-[2-[2-(2-acetyloxy-3-methylbutanoyl)oxy-3-methylpentanoyl]oxy-3-methylpentanoyl]oxy-3-methylpentanoyl]oxy-3-methylpentanoate
PRECURSORMZ:  825.41255314883
PRECURSORTYPE:  [M+FA-H]-
FORMULA:  C37H64O17
Ontology: ;;;
INCHIKEY:  OXQSHEREUUUCEE-UHFFFAOYNA-N
SMILES:  CCC(C)C(OC(=O)C(OC(=O)C(OC(=O)C(OC(=O)C(OC(C)=O)C(C)C)C(C)CC)C(C)CC)C(C)CC)C(=O)OCC(O)C(O)C(O)C(O)CO
RETENTIONTIME:  
CCS:  -1
IONMODE:  Negative
INSTRUMENTTYPE:  
INSTRUMENT:  Maxis II HD Q-TOF Bruker
COLLISIONENERGY:  
Comment:  DB#=CCMSLIB00000845344; origin=GNPS
Num Peaks:  14
113.06013	50.0
131.07118	300.0
159.06464	20.0
173.08228	1000.0
273.13501	330.0
287.15094	480.0
288.15619	30.0
387.20386	310.0
388.21069	20.0
401.2186	300.0
402.22159	20.0
501.2746	170.0
515.28149	40.0
615.34155	40.0

NAME:  NCGC00380283-01!4-[5-[[4-[5-[acetyl(hydroxy)amino]pentylamino]-4-oxobutanoyl]-hydroxyamino]pentylamino]-4-oxobutanoic acid
PRECURSORMZ:  459.24603768283
PRECURSORTYPE:  [M-H]-
FORMULA:  C20H36N4O8
Ontology: Kingdom: Organic compounds;Superclass: Lipids and lipid;Class: Fatty Acyls;Subclass: Fatty amides
INCHIKEY:  VJQANBSDAGCDJE-UHFFFAOYSA-N
SMILES:  CC(=O)N(O)CCCCCN=C(O)CCC(=O)N(O)CCCCCN=C(O)CCC(O)=O
RETENTIONTIME:  
CCS:  -1
IONMODE:  Negative
INSTRUMENTTYPE:  
INSTRUMENT:  Maxis II HD Q-TOF Bruker
COLLISIONENERGY:  
Comment:  DB#=CCMSLIB00000845346; origin=GNPS
Num Peaks:  25
89.01403	40.0
98.02469	140.0
142.05476	60.0
153.10341	100.0
155.1161	90.0
163.0869	40.0
169.14818	30.0
171.10042	10.0
181.09558	470.0
183.11006	20.0
198.12448	50.0
199.10872	320.0
217.12006	550.0
223.10985	20.0
224.77245	30.0
225.12761	20.0
241.11922	360.0
241.19475	10.0
255.13643	30.0
259.12463	260.0
390.18207	20.0
400.24722	50.0
417.23792	40.0
441.24771	80.0
459.24576	1000.0

NAME:  NCGC00380322-01!2-[3,21-dihydroxy-20-[3,4,5-trihydroxy-6-(hydroxymethyl)oxan-2-yl]oxydocosan-2-yl]oxy-6-(hydroxymethyl)oxane-3,4,5-triol
PRECURSORMZ:  743.44345935283
PRECURSORTYPE:  [M+FA-H]-
FORMULA:  C34H66O14
Ontology: Kingdom: Organic compounds;Superclass: Lipids and lipid;Class: Fatty Acyls;Subclass: Fatty acyl glycosides
INCHIKEY:  LJMPEBJKUBHVKR-UHFFFAOYNA-N
SMILES:  CC(O)C(CCCCCCCCCCCCCCCCC(O)C(C)OC1OC(CO)C(O)C(O)C1O)OC1OC(CO)C(O)C(O)C1O
RETENTIONTIME:  
CCS:  -1
IONMODE:  Negative
INSTRUMENTTYPE:  
INSTRUMENT:  Maxis II HD Q-TOF Bruker
COLLISIONENERGY:  
Comment:  DB#=CCMSLIB00000845348; origin=GNPS
Num Peaks:  21
74.92036	10.0
85.02437	20.0
89.02322	30.0
112.60951	20.0
113.02311	40.0
119.03382	100.0
149.04149	20.0
161.0448	70.0
179.05389	130.0
332.13028	10.0
333.90256	10.0
373.33917	20.0
456.37042	10.0
486.35596	10.0
517.37708	40.0
535.38037	40.0
688.24316	10.0
696.4668	30.0
697.43854	1000.0
697.92535	10.0
698.43866	140.0

NAME:  NCGC00180155-02!3-(4-hydroxyphenyl)-1-[2-hydroxy-4-[(2S,3R,4S,5R,6R)-3,4,5-trihydroxy-6-(hydroxymethyl)oxan-2-yl]oxyphenyl]propan-1-one
PRECURSORMZ:  465.14023490083
PRECURSORTYPE:  [M+FA-H]-
FORMULA:  C21H24O9
Ontology: Kingdom: Organic compounds;Superclass: Phenylpropanoids and polyketides;Class: Flavonoids;Subclass: Flavonoid glycosides
INCHIKEY:  BIZAJDCIOZNYLQ-UHFFFAOYNA-N
SMILES:  OCC1OC(OC2=CC(O)=C(C=C2)C(=O)CCC2=CC=C(O)C=C2)C(O)C(O)C1O
RETENTIONTIME:  
CCS:  -1
IONMODE:  Negative
INSTRUMENTTYPE:  
INSTRUMENT:  Maxis II HD Q-TOF Bruker
COLLISIONENERGY:  
Comment:  DB#=CCMSLIB00000845350; origin=GNPS
Num Peaks:  9
136.00775	10.0
151.03883	370.0
152.832	20.0
163.85452	20.0
193.04745	20.0
194.05405	20.0
257.08289	1000.0
257.23273	20.0
419.15616	10.0

NAME:  NCGC00169402-02!2-(3,4-dihydroxyphenyl)-5,7-dihydroxy-6-[3,4,5-trihydroxy-6-(hydroxymethyl)oxan-2-yl]chromen-4-one
PRECURSORMZ:  447.09328501183
PRECURSORTYPE:  [M-H]-
FORMULA:  C21H20O11
Ontology: Kingdom: Organic compounds;Superclass: Phenylpropanoids and polyketides;Class: Flavonoids;Subclass: Flavonoid glycosides
INCHIKEY:  ODBRNZZJSYPIDI-UHFFFAOYNA-N
SMILES:  OCC1OC(C(O)C(O)C1O)C1=C(O)C2=C(OC(=CC2=O)C2=CC(O)=C(O)C=C2)C=C1O
RETENTIONTIME:  
CCS:  203.8924295
IONMODE:  Negative
INSTRUMENTTYPE:  
INSTRUMENT:  Maxis II HD Q-TOF Bruker
COLLISIONENERGY:  
Comment:  DB#=CCMSLIB00000845352; origin=GNPS
Num Peaks:  9
201.56653	80.0
285.04562	310.0
297.04144	180.0
326.54819	120.0
327.05688	1000.0
339.04657	70.0
357.05798	820.0
429.08084	90.0
447.09628	520.0

NAME:  NCGC00169402-02!2-(3,4-dihydroxyphenyl)-5,7-dihydroxy-6-[3,4,5-trihydroxy-6-(hydroxymethyl)oxan-2-yl]chromen-4-one
PRECURSORMZ:  483.0699627239
PRECURSORTYPE:  [M+Cl]-
FORMULA:  C21H20O11
Ontology: Kingdom: Organic compounds;Superclass: Phenylpropanoids and polyketides;Class: Flavonoids;Subclass: Flavonoid glycosides
INCHIKEY:  ODBRNZZJSYPIDI-UHFFFAOYNA-N
SMILES:  OCC1OC(C(O)C(O)C1O)C1=C(O)C2=C(OC(=CC2=O)C2=CC(O)=C(O)C=C2)C=C1O
RETENTIONTIME:  
CCS:  -1
IONMODE:  Negative
INSTRUMENTTYPE:  
INSTRUMENT:  Maxis II HD Q-TOF Bruker
COLLISIONENERGY:  
Comment:  DB#=CCMSLIB00000845354; origin=GNPS
Num Peaks:  19
95.51167	90.0
125.02477	120.0
137.02544	50.0
151.00287	80.0
168.45403	60.0
168.56383	20.0
168.92592	20.0
169.01566	290.0
169.48055	20.0
173.77283	20.0
201.72644	30.0
211.0249	100.0
271.04352	710.0
313.05942	240.0
331.06915	370.0
332.07004	50.0
439.09274	40.0
483.07938	1000.0
1952.43665	50.0

NAME:  NCGC00384929-01!(2S,3S)-3,5,7-trihydroxy-2-[4-hydroxy-3-[(2S,3R,4S,5S,6R)-3,4,5-trihydroxy-6-(hydroxymethyl)oxan-2-yl]oxyphenyl]-2,3-dihydrochromen-4-one
PRECURSORMZ:  465.10384969583
PRECURSORTYPE:  [M-H]-
FORMULA:  C21H22O12
Ontology: Kingdom: Organic compounds;Superclass: Phenylpropanoids and polyketides;Class: Flavonoids;Subclass: Flavonoid glycosides
INCHIKEY:  CZOXIGOPZRIBJM-UHFFFAOYNA-N
SMILES:  OCC1OC(OC2=C(O)C=CC(=C2)C2OC3=CC(O)=CC(O)=C3C(=O)C2O)C(O)C(O)C1O
RETENTIONTIME:  
CCS:  224.7456485
IONMODE:  Negative
INSTRUMENTTYPE:  
INSTRUMENT:  Maxis II HD Q-TOF Bruker
COLLISIONENERGY:  
Comment:  DB#=CCMSLIB00000845356; origin=GNPS
Num Peaks:  28
125.02471	130.0
133.03256	60.0
149.02133	50.0
150.99947	40.0
152.0119	140.0
153.01834	60.0
159.05142	30.0
169.00899	30.0
175.03539	30.0
178.99522	110.0
217.05626	80.0
231.06749	60.0
256.02274	20.0
257.03864	40.0
258.05457	30.0
259.06384	40.0
275.05612	190.0
284.02777	50.0
285.04163	230.0
303.05118	210.0
379.10266	60.0
421.10013	80.0
437.11081	400.0
447.08667	120.0
447.41028	20.0
465.10803	1000.0
469.47958	10.0
1190.75696	20.0

NAME:  NCGC00384957-01!8-[3,5-dihydroxy-6-(hydroxymethyl)-4-(3,4,5-trihydroxyoxan-2-yl)oxyoxan-2-yl]-5,7-dihydroxy-3-(4-hydroxyphenyl)chromen-4-one
PRECURSORMZ:  563.14062912983
PRECURSORTYPE:  [M-H]-
FORMULA:  C26H28O14
Ontology: Kingdom: Organic compounds;Superclass: Phenylpropanoids and polyketides;Class: Isoflavonoids;Subclass: Isoflavonoid C
INCHIKEY:  RUULGHDZDIUGRT-UHFFFAOYNA-N
SMILES:  OCC1OC(C(O)C(OC2OCC(O)C(O)C2O)C1O)C1=C(O)C=C(O)C2=C1OC=C(C2=O)C1=CC=C(O)C=C1
RETENTIONTIME:  
CCS:  -1
IONMODE:  Negative
INSTRUMENTTYPE:  
INSTRUMENT:  Maxis II HD Q-TOF Bruker
COLLISIONENERGY:  
Comment:  DB#=CCMSLIB00000845362; origin=GNPS
Num Peaks:  17
83.758	10.0
149.02357	20.0
168.92915	30.0
238.06158	10.0
281.04071	20.0
283.06104	280.0
308.6871	20.0
309.85483	20.0
310.99249	30.0
311.05609	1000.0
323.06021	30.0
329.88797	10.0
371.08426	20.0
413.08292	30.0
518.14984	20.0
563.14209	980.0
564.14062	10.0

NAME:  NCGC00384644-01!(E)-1-(2-hydroxy-3,4,5,6-tetramethoxyphenyl)-3-phenylprop-2-en-1-one
PRECURSORMZ:  343.11871191183
PRECURSORTYPE:  [M-H]-
FORMULA:  C19H20O6
Ontology: Kingdom: Organic compounds;Superclass: Phenylpropanoids and polyketides;Class: Linear ;Subclass: Chalcones and dihydrochalcones
INCHIKEY:  LETBAZLAGJPEIM-UHFFFAOYSA-N
SMILES:  COC1=C(OC)C(OC)=C(OC)C(C(=O)C=CC2=CC=CC=C2)=C1O
RETENTIONTIME:  
CCS:  202.1890124
IONMODE:  Negative
INSTRUMENTTYPE:  
INSTRUMENT:  Maxis II HD Q-TOF Bruker
COLLISIONENERGY:  
Comment:  DB#=CCMSLIB00000845364; origin=GNPS
Num Peaks:  8
227.03125	140.0
255.03331	430.0
270.04047	210.0
283.02036	120.0
298.04382	220.0
313.07358	1000.0
328.09091	740.0
343.11374	410.0

NAME:  NCGC00180451-03!(3S,4S)-5-[(3S,4S)-4,10-dihydroxy-7,9-dimethoxy-3-methyl-3,4-dihydro-1H-benzo[g]isochromen-5-yl]-7,9-dimethoxy-3-methyl-3,4-dihydro-1H-benzo[g]isochromene-4,10-diol
PRECURSORMZ:  577.20792084283
PRECURSORTYPE:  [M-H]-
FORMULA:  C32H34O10
Ontology: Kingdom: Organic compounds;Superclass: Lignans;Class: Arylnaphthalene lignans;
INCHIKEY:  AVAQRWVGWWNBIN-UHFFFAOYNA-N
SMILES:  COC1=CC2=C(C(OC)=C1)C(O)=C1COC(C)C(O)C1=C2C1=C2C(O)C(C)OCC2=C(O)C2=C1C=C(OC)C=C2OC
RETENTIONTIME:  
CCS:  250.573786
IONMODE:  Negative
INSTRUMENTTYPE:  
INSTRUMENT:  Maxis II HD Q-TOF Bruker
COLLISIONENERGY:  
Comment:  DB#=CCMSLIB00000845366; origin=GNPS
Num Peaks:  31
202.02657	70.0
223.03827	100.0
230.05988	60.0
245.07957	200.0
257.08212	70.0
258.0885	100.0
267.96454	60.0
273.07431	280.0
274.23114	60.0
358.07834	60.0
370.0802	60.0
383.05841	70.0
413.06912	80.0
439.08627	40.0
440.06494	130.0
445.11554	80.0
447.1347	90.0
473.17902	100.0
475.13068	160.0
487.15009	70.0
490.16205	270.0
503.09836	60.0
505.1824	100.0
518.16998	170.0
529.13226	130.0
533.13361	60.0
533.18481	710.0
562.17163	100.0
562.23083	60.0
575.18555	60.0
577.2085	1000.0

NAME:  NCGC00384507-01!
PRECURSORMZ:  639.17192925783
PRECURSORTYPE:  [M-H]-
FORMULA:  C32H32O14
Ontology: Kingdom: Organic compounds;Superclass: Organoheterocyclic compounds;Class: Naphthopyrans;Subclass: Naphthopyranones
INCHIKEY:  PONPPNYZKHNPKZ-UHFFFAOYNA-N
SMILES:  COC1C(O)C(C)OC(OC2C(O)C(O)C(C)OC2OC2=CC=CC3=C(O)C4=C5C(OC(=O)C6=C(C)C=CC(OC4=O)=C56)=C23)C1O
RETENTIONTIME:  
CCS:  232.9220061
IONMODE:  Negative
INSTRUMENTTYPE:  
INSTRUMENT:  Maxis II HD Q-TOF Bruker
COLLISIONENERGY:  
Comment:  DB#=CCMSLIB00000845367; origin=GNPS
Num Peaks:  16
165.40515	10.0
168.85098	20.0
237.05067	10.0
294.05905	10.0
304.03818	20.0
306.69241	10.0
329.2247	20.0
331.04175	20.0
332.03201	1000.0
333.04434	50.0
333.1998	10.0
357.03381	10.0
479.10748	10.0
639.17273	770.0
640.1889	20.0
1041.35449	10.0

NAME:  NCGC00384508-01!2-[2-[(5R,6R,7S,9S,11R,18S,19S)-19-amino-6-(3,4-dicarboxybutanoyloxy)-11,16,18-trihydroxy-5,9-dimethylicosan-7-yl]oxy-2-oxoethyl]butanedioic acid
PRECURSORMZ:  720.38119375183
PRECURSORTYPE:  [M-H]-
FORMULA:  C34H59NO15
Ontology: Kingdom: Organic compounds;Superclass: Organic acids and derivatives;Class: Carboxylic acids and derivatives;Subclass: Fumonisins
INCHIKEY:  UVBUBMSSQKOIBE-UHFFFAOYNA-N
SMILES:  CCCCC(C)C(OC(=O)CC(CC(O)=O)C(O)=O)C(CC(C)CC(O)CCCCC(O)CC(O)C(C)N)OC(=O)CC(CC(O)=O)C(O)=O
RETENTIONTIME:  
CCS:  268.8816137
IONMODE:  Negative
INSTRUMENTTYPE:  
INSTRUMENT:  Maxis II HD Q-TOF Bruker
COLLISIONENERGY:  
Comment:  DB#=CCMSLIB00000845370; origin=GNPS
Num Peaks:  8
113.02384	70.0
157.01378	1000.0
175.0255	30.0
562.35931	260.0
563.37518	30.0
702.36768	20.0
720.38049	220.0
721.3822	20.0

NAME:  NCGC00384508-01!2-[2-[(5R,6R,7S,9S,11R,18S,19S)-19-amino-6-(3,4-dicarboxybutanoyloxy)-11,16,18-trihydroxy-5,9-dimethylicosan-7-yl]oxy-2-oxoethyl]butanedioic acid
PRECURSORMZ:  702.37062907183
PRECURSORTYPE:  [M-H2O-H]-
FORMULA:  C34H59NO15
Ontology: Kingdom: Organic compounds;Superclass: Organic acids and derivatives;Class: Carboxylic acids and derivatives;Subclass: Fumonisins
INCHIKEY:  UVBUBMSSQKOIBE-UHFFFAOYNA-N
SMILES:  CCCCC(C)C(OC(=O)CC(CC(O)=O)C(O)=O)C(CC(C)CC(O)CCCCC(O)CC(O)C(C)N)OC(=O)CC(CC(O)=O)C(O)=O
RETENTIONTIME:  
CCS:  -1
IONMODE:  Negative
INSTRUMENTTYPE:  
INSTRUMENT:  Maxis II HD Q-TOF Bruker
COLLISIONENERGY:  
Comment:  DB#=CCMSLIB00000845371; origin=GNPS
Num Peaks:  20
80.53275	60.0
111.08073	80.0
112.04123	220.0
157.01382	980.0
157.04266	70.0
166.08914	40.0
175.02733	60.0
326.14059	20.0
354.40594	100.0
518.35797	20.0
526.3465	110.0
543.33643	30.0
543.79144	20.0
544.34186	650.0
639.16589	20.0
684.38019	70.0
702.36951	1000.0
703.36829	70.0
729.02576	40.0
907.33337	20.0

NAME:  NCGC00384651-01![(2R,3R,4S,5R,6R)-6-[2-(3,4-dihydroxyphenyl)ethoxy]-2-(hydroxymethyl)-4,5-bis[[(2S,3R,4R,5R,6S)-3,4,5-trihydroxy-6-methyloxan-2-yl]oxy]oxan-3-yl] (E)-3-(3,4-dihydroxyphenyl)prop-2-enoate
PRECURSORMZ:  769.25605280883
PRECURSORTYPE:  [M-H]-
FORMULA:  C35H46O19
Ontology: Kingdom: Organic compounds;Superclass: Organic oxygen compounds;Class: Organooxygen compounds;Subclass: Carbohydrates and carbohydrate conjugates
INCHIKEY:  IGQSSJMCEJLHAO-UHFFFAOYNA-N
SMILES:  CC1OC(OC2C(OCCC3=CC(O)=C(O)C=C3)OC(CO)C(OC(=O)C=CC3=CC(O)=C(O)C=C3)C2OC2OC(C)C(O)C(O)C2O)C(O)C(O)C1O
RETENTIONTIME:  
CCS:  251.1211811
IONMODE:  Negative
INSTRUMENTTYPE:  
INSTRUMENT:  Maxis II HD Q-TOF Bruker
COLLISIONENERGY:  
Comment:  DB#=CCMSLIB00000845373; origin=GNPS
Num Peaks:  15
105.03312	10.0
113.02376	60.0
133.02933	170.0
135.0442	50.0
153.0553	70.0
161.0239	1000.0
162.03287	10.0
179.04004	30.0
249.07748	10.0
315.1037	20.0
461.16605	80.0
589.21393	10.0
607.22406	220.0
769.25604	660.0
770.25702	80.0

NAME:  NCGC00380391-01!2-(4a,9,10a-trihydroxy-1-methyl-5,10-dioxo-3,4-dihydro-1H-benzo[g]isochromen-3-yl)acetic acid
PRECURSORMZ:  381.08272002283
PRECURSORTYPE:  [M+FA-H]-
FORMULA:  C16H16O8
Ontology: Kingdom: Organic compounds;Superclass: Organoheterocyclic compounds;Class: Naphthopyrans;Subclass: Naphthopyranones
INCHIKEY:  JJKCJXIYVNHIOS-UHFFFAOYNA-N
SMILES:  CC1OC(CC(O)=O)CC2(O)C(=O)C3=C(C(O)=CC=C3)C(=O)C12O
RETENTIONTIME:  
CCS:  -1
IONMODE:  Negative
INSTRUMENTTYPE:  
INSTRUMENT:  Maxis II HD Q-TOF Bruker
COLLISIONENERGY:  
Comment:  DB#=CCMSLIB00000845375; origin=GNPS
Num Peaks:  14
161.02026	420.0
163.83649	110.0
191.03522	170.0
191.06578	210.0
205.02271	170.0
206.01901	550.0
216.04202	120.0
219.06194	190.0
229.04742	1000.0
247.05902	400.0
258.18729	120.0
273.08408	230.0
278.03326	180.0
291.09552	210.0

NAME:  NCGC00380191-01![(2R,3S,4S,5R,6R)-3,4,5-trihydroxy-6-[(2R,3R,4S,5S,6R)-3,4,5-trihydroxy-6-(hydroxymethyl)oxan-2-yl]oxyoxan-2-yl]methyl 7-methyloctanoate
PRECURSORMZ:  527.23452921183
PRECURSORTYPE:  [M+FA-H]-
FORMULA:  C21H38O12
Ontology: Kingdom: Organic compounds;Superclass: Lipids and lipid;Class: Saccharolipids;
INCHIKEY:  MGQMHWZXSBFPMH-UHFFFAOYNA-N
SMILES:  CC(C)CCCCCC(=O)OCC1OC(OC2OC(CO)C(O)C(O)C2O)C(O)C(O)C1O
RETENTIONTIME:  
CCS:  -1
IONMODE:  Negative
INSTRUMENTTYPE:  
INSTRUMENT:  Maxis II HD Q-TOF Bruker
COLLISIONENERGY:  
Comment:  DB#=CCMSLIB00000845377; origin=GNPS
Num Peaks:  15
113.02517	110.0
125.02531	60.0
143.04207	20.0
157.12218	640.0
157.48097	20.0
161.04814	120.0
179.05055	20.0
181.11774	30.0
323.09888	1000.0
341.09512	60.0
341.15158	40.0
481.20596	70.0
481.23489	100.0
527.24292	40.0
1969.81067	40.0

NAME:  NCGC00380196-01!2-[5-chloro-7-(3,5-dihydroxyhexanoyloxy)-3-[(1E,3E,5E)-hepta-1,3,5-trienyl]-7-methyl-6,8-dioxoisoquinolin-2-yl]acetic acid
PRECURSORMZ:  504.14306814783
PRECURSORTYPE:  [M-H]-
FORMULA:  C25H28ClNO8
Ontology: Kingdom: Organic compounds;Superclass: Organoheterocyclic compounds;Class: Azaphilones;
INCHIKEY:  JFTUBAXWPXSZEH-UHFFFAOYNA-N
SMILES:  CC=CC=CC=CC1=CC2=C(Cl)C(=O)C(C)(OC(=O)CC(O)CC(C)O)C(=O)C2=CN1CC(O)=O
RETENTIONTIME:  
CCS:  -1
IONMODE:  Negative
INSTRUMENTTYPE:  
INSTRUMENT:  Maxis II HD Q-TOF Bruker
COLLISIONENERGY:  
Comment:  DB#=CCMSLIB00000845379; origin=GNPS
Num Peaks:  26
115.62011	80.0
147.0694	300.0
152.12659	60.0
178.05771	100.0
217.02475	100.0
220.03528	120.0
232.11092	80.0
251.05077	100.0
266.12738	140.0
273.05194	150.0
274.08133	110.0
274.12006	100.0
288.0798	150.0
297.04654	100.0
309.05023	60.0
311.37238	70.0
311.42313	50.0
311.62012	140.0
311.95514	40.0
312.07559	1000.0
336.10773	180.0
354.0928	250.0
372.09891	170.0
442.13696	50.0
1334.56787	110.0
1612.33948	30.0

NAME:  NCGC00380198-01!4-[5-chloro-7-(3,5-dihydroxyhexanoyloxy)-3-[(1E,3E,5E)-hepta-1,3,5-trienyl]-7-methyl-6,8-dioxoisoquinolin-2-yl]butanoic acid
PRECURSORMZ:  532.17436824783
PRECURSORTYPE:  [M-H]-
FORMULA:  C27H32ClNO8
Ontology: Kingdom: Organic compounds;Superclass: Organoheterocyclic compounds;Class: Azaphilones;
INCHIKEY:  LREHNMAHTSUHBC-UHFFFAOYNA-N
SMILES:  CC=CC=CC=CC1=CC2=C(Cl)C(=O)C(C)(OC(=O)CC(O)CC(C)O)C(=O)C2=CN1CCCC(O)=O
RETENTIONTIME:  
CCS:  -1
IONMODE:  Negative
INSTRUMENTTYPE:  
INSTRUMENT:  Maxis II HD Q-TOF Bruker
COLLISIONENERGY:  
Comment:  DB#=CCMSLIB00000845382; origin=GNPS
Num Peaks:  12
139.158	130.0
147.06767	470.0
152.5798	110.0
188.04407	140.0
235.09465	150.0
236.09885	70.0
254.11885	110.0
280.09833	1000.0
298.06586	990.0
384.13898	130.0
446.14227	530.0
1616.67981	110.0

NAME:  NCGC00380197-01!2-[[2-(1,3-dicarboxypropyl)-6,6,9a-trimethyl-5-[(2E,4E,6E)-octa-2,4,6-trienoyl]oxy-1-oxo-4,5,5a,7,8,9-hexahydro-3H-benzo[e]isoindol-4-yl]amino]pentanedioic acid
PRECURSORMZ:  625.27666911283
PRECURSORTYPE:  [M-H2O-H]-
FORMULA:  C33H44N2O11
Ontology: Kingdom: Organic compounds;Superclass: Organic acids and derivatives;Class: Carboxylic acids and derivatives;Subclass: Pentacarboxylic acids and derivatives
INCHIKEY:  QBDBVPLPOMHRPN-UHFFFAOYNA-N
SMILES:  CC=CC=CC=CC(=O)OC1C(NC(CCC(O)=O)C(O)=O)C2=C(C(=O)N(C2)C(CCC(O)=O)C(O)=O)C2(C)CCCC(C)(C)C12
RETENTIONTIME:  
CCS:  -1
IONMODE:  Negative
INSTRUMENTTYPE:  
INSTRUMENT:  Maxis II HD Q-TOF Bruker
COLLISIONENERGY:  
Comment:  DB#=CCMSLIB00000845383; origin=GNPS
Num Peaks:  28
128.03491	80.0
187.15126	30.0
213.11827	20.0
248.25838	10.0
259.1821	10.0
270.18591	40.0
272.20242	30.0
280.14413	10.0
287.20697	20.0
296.16843	10.0
297.15967	10.0
299.14847	10.0
313.19006	110.0
339.16382	20.0
339.19357	20.0
355.23804	10.0
381.21613	50.0
383.20001	20.0
399.22916	60.0
407.1965	10.0
424.39813	10.0
425.20966	150.0
443.21716	330.0
451.22928	10.0
469.20111	200.0
470.20898	10.0
487.20892	1000.0
488.21521	10.0

NAME:  NCGC00380193-01!16-[(2R,3R,4R,5S,6R)-5-[(2S,3R,4S,5R,6R)-4-acetyloxy-5-hydroxy-6-(hydroxymethyl)-3-(3-hydroxyoctanoyloxy)oxan-2-yl]oxy-6-(acetyloxymethyl)-3,4-dihydroxyoxan-2-yl]oxy-3,15-dihydroxyhexadecanoic acid
PRECURSORMZ:  853.44385358183
PRECURSORTYPE:  [M-H]-
FORMULA:  C40H70O19
Ontology: Kingdom: Organic compounds;Superclass: Lipids and lipid;Class: Saccharolipids;
INCHIKEY:  AERAMEUFSDVACO-UHFFFAOYNA-N
SMILES:  CCCCCC(O)CC(=O)OC1C(OC2C(COC(C)=O)OC(OCC(O)CCCCCCCCCCCC(O)CC(O)=O)C(O)C2O)OC(CO)C(O)C1OC(C)=O
RETENTIONTIME:  
CCS:  -1
IONMODE:  Negative
INSTRUMENTTYPE:  
INSTRUMENT:  Maxis II HD Q-TOF Bruker
COLLISIONENERGY:  
Comment:  DB#=CCMSLIB00000845386; origin=GNPS
Num Peaks:  118
73.03121	20.0
75.00897	10.0
81.03606	20.0
83.01614	10.0
85.02983	40.0
87.00815	30.0
95.01234	60.0
97.0297	20.0
107.0482	10.0
111.04527	20.0
113.02378	110.0
115.04205	10.0
119.03043	30.0
124.01697	50.0
125.02362	50.0
135.04089	10.0
139.03581	20.0
141.09045	20.0
143.03236	60.0
147.04224	20.0
159.0307	20.0
159.10312	100.0
161.04253	30.0
164.04202	10.0
179.05502	10.0
191.0218	10.0
203.06079	10.0
209.04262	10.0
213.18324	10.0
225.19043	10.0
239.20432	30.0
241.17844	10.0
243.19624	100.0
251.19835	10.0
259.23132	10.0
267.17581	10.0
285.20715	60.0
287.07495	10.0
288.2218	10.0
303.14413	10.0
303.21582	40.0
304.22043	10.0
313.21078	20.0
313.92117	20.0
323.22488	20.0
331.22198	30.0
339.2226	20.0
349.22696	20.0
351.21466	30.0
352.19589	20.0
357.22845	10.0
367.25058	10.0
385.13455	10.0
387.237	50.0
393.60855	10.0
403.2666	20.0
405.24606	110.0
411.23627	10.0
429.24924	50.0
431.26212	20.0
432.67291	10.0
445.27704	20.0
447.25049	50.0
447.39935	10.0
464.69821	20.0
465.26257	60.0
465.33771	10.0
468.58536	10.0
471.25107	10.0
489.26917	90.0
490.82233	10.0
502.27673	10.0
507.28021	100.0
508.26678	20.0
514.27356	10.0
531.28595	10.0
538.07892	10.0
549.29962	50.0
561.28046	10.0
563.31226	20.0
567.30859	40.0
573.30603	10.0
585.28424	10.0
591.30011	80.0
591.36353	20.0
592.30023	10.0
609.31415	110.0
610.30981	30.0
615.2981	30.0
627.30292	20.0
633.30652	50.0
634.31061	10.0
649.38727	20.0
651.32214	210.0
652.315	20.0
669.33484	130.0
670.32489	20.0
675.31152	10.0
693.34094	210.0
694.34039	10.0
711.3457	750.0
711.48462	10.0
712.34949	100.0
735.36688	10.0
752.88818	10.0
753.3562	240.0
754.37616	30.0
775.42657	20.0
793.41693	30.0
817.41565	10.0
835.43231	250.0
836.4519	40.0
852.72668	10.0
853.33685	10.0
853.44519	1000.0
854.44897	210.0
858.66711	10.0
1696.7876	20.0

NAME:  NCGC00347544-02!4-hydroxy-3-[(E)-7-hydroxy-3,7-dimethyl-4-oxooct-5-enyl]-5-(3-methylbut-2-enyl)benzoic acid
PRECURSORMZ:  373.20204761383
PRECURSORTYPE:  [M-H]-
FORMULA:  C22H30O5
Ontology: Kingdom: Organic compounds;Superclass: Benzenoids;Class: Benzene and substituted derivatives;Subclass: Benzoic acids and derivatives
INCHIKEY:  LQMRAHHWCLZHQD-UHFFFAOYNA-N
SMILES:  CC(CCC1=CC(=CC(CC=C(C)C)=C1O)C(O)=O)C(=O)C=CC(C)(C)O
RETENTIONTIME:  
CCS:  218.1049557
IONMODE:  Negative
INSTRUMENTTYPE:  
INSTRUMENT:  Maxis II HD Q-TOF Bruker
COLLISIONENERGY:  
Comment:  DB#=CCMSLIB00000845387; origin=GNPS
Num Peaks:  14
120.05466	70.0
123.08028	20.0
132.05721	60.0
138.03726	40.0
138.47592	60.0
175.10591	50.0
187.11302	160.0
231.09647	30.0
250.08549	80.0
272.78088	50.0
331.23257	30.0
373.20294	1000.0
389.68436	10.0
1570.08728	30.0

NAME:  NCGC00385785-01!(2R,3R,4S,5S,6R)-2-[[2-(3,4-dihydroxyphenyl)-5,7-dihydroxy-3,4-dihydro-2H-chromen-3-yl]oxy]-6-(hydroxymethyl)oxane-3,4,5-triol
PRECURSORMZ:  497.13006414083
PRECURSORTYPE:  [M+FA-H]-
FORMULA:  C21H24O11
Ontology: Kingdom: Organic compounds;Superclass: Phenylpropanoids and polyketides;Class: Flavonoids;Subclass: Flavonoid glycosides
INCHIKEY:  YOVYWMDLYSJYPO-UHFFFAOYNA-N
SMILES:  OCC1OC(OC2CC3=C(O)C=C(O)C=C3OC2C2=CC(O)=C(O)C=C2)C(O)C(O)C1O
RETENTIONTIME:  
CCS:  -1
IONMODE:  Negative
INSTRUMENTTYPE:  
INSTRUMENT:  Maxis II HD Q-TOF Bruker
COLLISIONENERGY:  
Comment:  DB#=CCMSLIB00000845390; origin=GNPS
Num Peaks:  24
125.02354	160.0
137.02383	1000.0
138.02399	50.0
144.147	20.0
145.02379	30.0
150.03447	90.0
151.03723	170.0
161.05859	30.0
166.02359	40.0
179.0343	30.0
185.06206	40.0
203.06966	30.0
253.05054	60.0
271.06015	270.0
288.97333	20.0
289.07278	50.0
313.09042	30.0
325.09821	40.0
329.09058	80.0
450.82361	20.0
450.90744	20.0
450.97849	20.0
451.0401	20.0
451.12766	870.0

NAME:  NCGC00385786-01!5,8-dihydroxy-2-(4-hydroxyphenyl)-7-methoxy-3-[(2S,3R,4R,5R,6S)-3,4,5-trihydroxy-6-methyloxan-2-yl]oxychromen-4-one
PRECURSORMZ:  507.11441407583
PRECURSORTYPE:  [M+FA-H]-
FORMULA:  C22H22O11
Ontology: Kingdom: Organic compounds;Superclass: Phenylpropanoids and polyketides;Class: Flavonoids;Subclass: Flavonoid glycosides
INCHIKEY:  SSVHQKZUFBBLJY-UHFFFAOYNA-N
SMILES:  COC1=C(O)C2=C(C(O)=C1)C(=O)C(OC1OC(C)C(O)C(O)C1O)=C(O2)C1=CC=C(O)C=C1
RETENTIONTIME:  
CCS:  -1
IONMODE:  Negative
INSTRUMENTTYPE:  
INSTRUMENT:  Maxis II HD Q-TOF Bruker
COLLISIONENERGY:  
Comment:  DB#=CCMSLIB00000845392; origin=GNPS
Num Peaks:  14
226.19116	20.0
243.03362	30.0
255.03009	40.0
265.60965	10.0
271.01993	80.0
272.03088	120.0
299.02182	210.0
300.0282	160.0
314.0423	400.0
315.05185	910.0
330.20288	10.0
357.06052	30.0
461.11179	1000.0
461.18234	50.0

NAME:  NCGC00385791-01!
PRECURSORMZ:  625.25017927583
PRECURSORTYPE:  [M+FA-H]-
FORMULA:  C29H40O12
Ontology: Kingdom: Organic compounds;Superclass: Lipids and lipid;Class: Steroids and steroid derivatives;Subclass: Steroidal glycosides
INCHIKEY:  XYUXECAMXQZDMY-UHFFFAOYNA-N
SMILES:  CC12CCC3C(CCC4(OC5OC(CO)C(O)C(O)C5O)C5OC5CCC34O)C1(O)CC(O)C2C1=COC(=O)C=C1
RETENTIONTIME:  
CCS:  -1
IONMODE:  Negative
INSTRUMENTTYPE:  
INSTRUMENT:  Maxis II HD Q-TOF Bruker
COLLISIONENERGY:  
Comment:  DB#=CCMSLIB00000845393; origin=GNPS
Num Peaks:  15
83.01469	10.0
113.02148	20.0
159.03104	10.0
161.04396	40.0
274.46152	20.0
309.1853	40.0
335.19894	10.0
337.18567	10.0
355.19397	40.0
373.20581	50.0
389.19302	20.0
413.20251	10.0
417.19354	100.0
535.25702	40.0
579.24591	1000.0

NAME:  NCGC00385209-01![2-(3,4-dihydroxyphenyl)-5-hydroxy-7-methoxy-4-oxo-3-[(2S,3R,4R,5R,6S)-3,4,5-trihydroxy-6-methyloxan-2-yl]oxychromen-8-yl] acetate
PRECURSORMZ:  519.11441438083
PRECURSORTYPE:  [M-H]-
FORMULA:  C24H24O13
Ontology: Kingdom: Organic compounds;Superclass: Phenylpropanoids and polyketides;Class: Flavonoids;Subclass: Flavonoid glycosides
INCHIKEY:  XCQNRWMPPLJRCM-UHFFFAOYNA-N
SMILES:  COC1=C(OC(C)=O)C2=C(C(O)=C1)C(=O)C(OC1OC(C)C(O)C(O)C1O)=C(O2)C1=CC(O)=C(O)C=C1
RETENTIONTIME:  
CCS:  224.4727
IONMODE:  Negative
INSTRUMENTTYPE:  
INSTRUMENT:  Maxis II HD Q-TOF Bruker
COLLISIONENERGY:  
Comment:  DB#=CCMSLIB00000845396; origin=GNPS
Num Peaks:  20
107.31007	40.0
163.03781	40.0
165.98863	40.0
181.63893	70.0
195.45474	20.0
206.99017	60.0
213.02094	40.0
217.01488	50.0
245.00246	20.0
270.01035	40.0
301.03629	50.0
315.01263	370.0
316.02725	120.0
330.03613	120.0
331.04086	80.0
357.01859	50.0
372.04663	1000.0
373.05768	920.0
477.10745	340.0
519.11096	430.0

NAME:  NCGC00385209-01![2-(3,4-dihydroxyphenyl)-5-hydroxy-7-methoxy-4-oxo-3-[(2S,3R,4R,5R,6S)-3,4,5-trihydroxy-6-methyloxan-2-yl]oxychromen-8-yl] acetate
PRECURSORMZ:  555.0910920929
PRECURSORTYPE:  [M+Cl]-
FORMULA:  C24H24O13
Ontology: Kingdom: Organic compounds;Superclass: Phenylpropanoids and polyketides;Class: Flavonoids;Subclass: Flavonoid glycosides
INCHIKEY:  XCQNRWMPPLJRCM-UHFFFAOYNA-N
SMILES:  COC1=C(OC(C)=O)C2=C(C(O)=C1)C(=O)C(OC1OC(C)C(O)C(O)C1O)=C(O2)C1=CC(O)=C(O)C=C1
RETENTIONTIME:  
CCS:  -1
IONMODE:  Negative
INSTRUMENTTYPE:  
INSTRUMENT:  Maxis II HD Q-TOF Bruker
COLLISIONENERGY:  
Comment:  DB#=CCMSLIB00000845397; origin=GNPS
Num Peaks:  12
222.01337	110.0
287.01407	130.0
329.08731	90.0
329.547	100.0
330.02954	120.0
372.04907	500.0
373.05054	200.0
464.24588	70.0
477.15475	220.0
516.7583	110.0
519.04468	60.0
519.1134	1000.0

NAME:  NCGC00385512-01!5-hydroxy-2-(3-hydroxy-4-methoxyphenyl)-3,6-dimethoxy-7-[(2S,3R,4S,5S,6R)-3,4,5-trihydroxy-6-(hydroxymethyl)oxan-2-yl]oxychromen-4-one
PRECURSORMZ:  521.13006444483
PRECURSORTYPE:  [M-H]-
FORMULA:  C24H26O13
Ontology: Kingdom: Organic compounds;Superclass: Phenylpropanoids and polyketides;Class: Flavonoids;Subclass: Flavonoid glycosides
INCHIKEY:  GGMCFLXPZMBJMV-UHFFFAOYNA-N
SMILES:  COC1=C(O)C=C(C=C1)C1=C(OC)C(=O)C2=C(O)C(OC)=C(OC3OC(CO)C(O)C(O)C3O)C=C2O1
RETENTIONTIME:  
CCS:  245.5929723
IONMODE:  Negative
INSTRUMENTTYPE:  
INSTRUMENT:  Maxis II HD Q-TOF Bruker
COLLISIONENERGY:  
Comment:  DB#=CCMSLIB00000845399; origin=GNPS
Num Peaks:  12
106.33875	130.0
179.58755	90.0
242.965	100.0
300.02783	250.0
301.03046	80.0
328.00803	170.0
343.04431	1000.0
346.27493	60.0
358.07825	100.0
359.07803	130.0
506.10809	820.0
521.1261	840.0

NAME:  NCGC00385512-01!5-hydroxy-2-(3-hydroxy-4-methoxyphenyl)-3,6-dimethoxy-7-[(2S,3R,4S,5S,6R)-3,4,5-trihydroxy-6-(hydroxymethyl)oxan-2-yl]oxychromen-4-one
PRECURSORMZ:  567.13554344483
PRECURSORTYPE:  [M+FA-H]-
FORMULA:  C24H26O13
Ontology: Kingdom: Organic compounds;Superclass: Phenylpropanoids and polyketides;Class: Flavonoids;Subclass: Flavonoid glycosides
INCHIKEY:  GGMCFLXPZMBJMV-UHFFFAOYNA-N
SMILES:  COC1=C(O)C=C(C=C1)C1=C(OC)C(=O)C2=C(O)C(OC)=C(OC3OC(CO)C(O)C(O)C3O)C=C2O1
RETENTIONTIME:  
CCS:  -1
IONMODE:  Negative
INSTRUMENTTYPE:  
INSTRUMENT:  Maxis II HD Q-TOF Bruker
COLLISIONENERGY:  
Comment:  DB#=CCMSLIB00000845402; origin=GNPS
Num Peaks:  20
283.02811	20.0
300.01941	60.0
328.01981	110.0
329.03043	30.0
343.04532	730.0
344.05148	40.0
345.0621	50.0
346.12311	20.0
359.07687	810.0
366.06488	30.0
371.05869	60.0
381.10132	50.0
401.0813	20.0
491.07779	60.0
506.11221	170.0
507.10657	30.0
517.45227	20.0
520.31378	20.0
521.13049	1000.0
525.815	20.0

NAME:  NCGC00385199-01!2-[3,4-bis[[(2S,3R,4S,5S,6R)-3,4,5-trihydroxy-6-(hydroxymethyl)oxan-2-yl]oxy]phenyl]-5,7-dihydroxychromen-4-one
PRECURSORMZ:  655.15158743383
PRECURSORTYPE:  [M+FA-H]-
FORMULA:  C27H30O16
Ontology: ;;;
INCHIKEY:  XKAYFELZCPZDEK-UHFFFAOYNA-N
SMILES:  OCC1OC(OC2=C(OC3OC(CO)C(O)C(O)C3O)C=C(C=C2)C2=CC(=O)C3=C(O)C=C(O)C=C3O2)C(O)C(O)C1O
RETENTIONTIME:  
CCS:  -1
IONMODE:  Negative
INSTRUMENTTYPE:  
INSTRUMENT:  Maxis II HD Q-TOF Bruker
COLLISIONENERGY:  
Comment:  DB#=CCMSLIB00000845407; origin=GNPS
Num Peaks:  13
133.03032	20.0
140.40976	20.0
151.04628	20.0
198.0313	10.0
217.05331	20.0
220.18227	10.0
284.03391	30.0
285.03918	910.0
285.80072	10.0
330.01697	10.0
360.71304	10.0
447.09335	1000.0
448.06519	20.0

NAME:  NCGC00385444-01!5-(3,4-dihydroxyphenyl)-6,7-dimethyl-5,6,7,8-tetrahydronaphthalene-2,3-diol
PRECURSORMZ:  345.13436167183
PRECURSORTYPE:  [M+FA-H]-
FORMULA:  C18H20O4
Ontology: Kingdom: Organic compounds;Superclass: Lignans;Class: Aryltetralin lignans;
INCHIKEY:  MUBLYIKZGKHTMF-UHFFFAOYNA-N
SMILES:  CC1CC2=CC(O)=C(O)C=C2C(C1C)C1=CC(O)=C(O)C=C1
RETENTIONTIME:  
CCS:  -1
IONMODE:  Negative
INSTRUMENTTYPE:  
INSTRUMENT:  Maxis II HD Q-TOF Bruker
COLLISIONENERGY:  
Comment:  DB#=CCMSLIB00000845409; origin=GNPS
Num Peaks:  4
148.07402	70.0
241.05635	80.0
299.12766	1000.0
301.97278	30.0

NAME:  NCGC00385443-01!(2S)-3-(3,4-dihydroxyphenyl)-2-[[(E)-3-(3,4-dihydroxyphenyl)prop-2-enoyl]amino]propanoic acid
PRECURSORMZ:  404.09870443883
PRECURSORTYPE:  [M+FA-H]-
FORMULA:  C18H17NO7
Ontology: Kingdom: Organic compounds;Superclass: Organic acids and derivatives;Class: Carboxylic acids and derivatives;Subclass: Amino acids
INCHIKEY:  GPZFXSWMDFBRGS-UHFFFAOYNA-N
SMILES:  OC(=O)C(CC1=CC(O)=C(O)C=C1)N=C(O)C=CC1=CC(O)=C(O)C=C1
RETENTIONTIME:  
CCS:  -1
IONMODE:  Negative
INSTRUMENTTYPE:  
INSTRUMENT:  Maxis II HD Q-TOF Bruker
COLLISIONENERGY:  
Comment:  DB#=CCMSLIB00000845411; origin=GNPS
Num Peaks:  11
135.04439	610.0
139.29172	80.0
160.03935	120.0
161.02344	350.0
178.05315	400.0
222.04643	600.0
230.25574	120.0
314.10184	90.0
358.09647	1000.0
361.26083	60.0
1371.64368	120.0

NAME:  NCGC00385468-01![(2R,3S,4S,5R,6S)-4-hydroxy-3,5,6-tris[(3,4,5-trihydroxybenzoyl)oxy]oxan-2-yl]methyl 3,4,5-trihydroxybenzoate
PRECURSORMZ:  787.09994608983
PRECURSORTYPE:  [M-H]-
FORMULA:  C34H28O22
Ontology: Kingdom: Organic compounds;Superclass: Phenylpropanoids and polyketides;Class: Tannins;
INCHIKEY:  YXZYFHXWEOAXLF-UHFFFAOYNA-N
SMILES:  OC1C(OC(=O)C2=CC(O)=C(O)C(O)=C2)C(COC(=O)C2=CC(O)=C(O)C(O)=C2)OC(OC(=O)C2=CC(O)=C(O)C(O)=C2)C1OC(=O)C1=CC(O)=C(O)C(O)=C1
RETENTIONTIME:  
CCS:  253.7423904
IONMODE:  Negative
INSTRUMENTTYPE:  
INSTRUMENT:  Maxis II HD Q-TOF Bruker
COLLISIONENERGY:  
Comment:  DB#=CCMSLIB00000845413; origin=GNPS
Num Peaks:  40
106.34493	10.0
123.01151	60.0
125.02567	190.0
139.00351	30.0
165.01875	10.0
166.99838	50.0
167.0266	10.0
168.00615	40.0
169.01486	630.0
189.05646	10.0
193.0139	40.0
194.01085	10.0
205.05333	10.0
207.02728	10.0
217.05759	10.0
233.04005	10.0
235.02686	10.0
249.04236	10.0
267.05487	10.0
271.03827	20.0
277.03534	40.0
279.04733	20.0
294.60266	10.0
295.04962	100.0
297.06296	60.0
301.0224	10.0
313.05215	30.0
344.95496	30.0
386.81116	20.0
423.05692	20.0
429.05203	10.0
447.06445	60.0
448.0632	20.0
449.07416	40.0
465.07123	150.0
617.08051	1000.0
618.0791	120.0
701.42529	10.0
787.10803	180.0
789.13367	10.0

NAME:  NCGC00385450-01!6-[(2S,3R,4S,5S,6R)-6-[[(2R,3R,4S,5R,6R)-3,5-dihydroxy-6-(hydroxymethyl)-4-[(2S,3R,4S,5S,6R)-3,4,5-trihydroxy-6-[[(2R,3R,4S,5S,6R)-3,4,5-trihydroxy-6-(hydroxymethyl)oxan-2-yl]oxymethyl]oxan-2-yl]oxyoxan-2-yl]oxymethyl]-3,4,5-trihydroxyoxan-2-yl]oxy-5-hydroxy-8-methoxy-2-methylbenzo[g]chromen-4-one
PRECURSORMZ:  919.27249072183
PRECURSORTYPE:  [M-H]-
FORMULA:  C39H52O25
Ontology: Kingdom: Organic compounds;Superclass: Organic oxygen compounds;Class: Organooxygen compounds;Subclass: Carbohydrates and carbohydrate conjugates
INCHIKEY:  HFJDWELARBQGBQ-UHFFFAOYNA-N
SMILES:  COC1=CC(OC2OC(COC3OC(CO)C(O)C(OC4OC(COC5OC(CO)C(O)C(O)C5O)C(O)C(O)C4O)C3O)C(O)C(O)C2O)=C2C(O)=C3C(=O)C=C(C)OC3=CC2=C1
RETENTIONTIME:  
CCS:  279.0946761
IONMODE:  Negative
INSTRUMENTTYPE:  
INSTRUMENT:  Maxis II HD Q-TOF Bruker
COLLISIONENERGY:  
Comment:  DB#=CCMSLIB00000845415; origin=GNPS
Num Peaks:  7
228.04091	20.0
256.0383	160.0
257.04486	10.0
271.0629	1000.0
272.06857	60.0
647.21069	20.0
919.28107	20.0

NAME:  NCGC00380577-01!3-[5,7-dihydroxy-2-(4-hydroxyphenyl)-4-oxochromen-8-yl]-5-hydroxy-2-(4-hydroxyphenyl)-7-methoxychromen-4-one
PRECURSORMZ:  597.10384939183
PRECURSORTYPE:  [M+FA-H]-
FORMULA:  C31H20O10
Ontology: Kingdom: Organic compounds;Superclass: Phenylpropanoids and polyketides;Class: Flavonoids;Subclass: Biflavonoids and polyflavonoids
INCHIKEY:  HDUZOHKOFFWLBU-UHFFFAOYSA-N
SMILES:  COC1=CC(O)=C2C(=O)C(=C(OC2=C1)C1=CC=C(O)C=C1)C1=C(O)C=C(O)C2=C1OC(=CC2=O)C1=CC=C(O)C=C1
RETENTIONTIME:  
CCS:  -1
IONMODE:  Negative
INSTRUMENTTYPE:  
INSTRUMENT:  Maxis II HD Q-TOF Bruker
COLLISIONENERGY:  
Comment:  DB#=CCMSLIB00000845417; origin=GNPS
Num Peaks:  20
97.62226	20.0
165.02075	130.0
183.05222	30.0
203.14378	10.0
224.62633	20.0
357.10425	20.0
360.05231	10.0
384.04813	10.0
385.07455	300.0
386.05798	10.0
397.0336	20.0
411.04419	10.0
432.08447	40.0
442.06281	10.0
456.05157	10.0
456.98911	10.0
457.05664	290.0
533.10034	10.0
551.09796	1000.0
555.73254	20.0

NAME:  NCGC00384615-01!3-[(2S,3R,4S,5R,6R)-4-[(2S,3R,4S,5S,6R)-4,5-dihydroxy-6-(hydroxymethyl)-3-[(2S,3R,4S,5R)-3,4,5-trihydroxyoxan-2-yl]oxyoxan-2-yl]oxy-3,5-dihydroxy-6-(hydroxymethyl)oxan-2-yl]oxy-2-(3,4-dihydroxyphenyl)-5,7-dihydroxychromen-4-one
PRECURSORMZ:  757.18328179183
PRECURSORTYPE:  [M-H]-
FORMULA:  C32H38O21
Ontology: Kingdom: Organic compounds;Superclass: Phenylpropanoids and polyketides;Class: Flavonoids;Subclass: Flavonoid glycosides
INCHIKEY:  RWMOXJYSVNRRGE-UHFFFAOYNA-N
SMILES:  OCC1OC(OC2C(O)C(CO)OC(OC3=C(OC4=CC(O)=CC(O)=C4C3=O)C3=CC(O)=C(O)C=C3)C2O)C(OC2OCC(O)C(O)C2O)C(O)C1O
RETENTIONTIME:  
CCS:  -1
IONMODE:  Negative
INSTRUMENTTYPE:  
INSTRUMENT:  Maxis II HD Q-TOF Bruker
COLLISIONENERGY:  
Comment:  DB#=CCMSLIB00000845419; origin=GNPS
Num Peaks:  18
151.00253	20.0
199.03793	10.0
227.03633	10.0
243.02881	50.0
255.03041	70.0
257.04501	10.0
271.02496	160.0
272.03293	20.0
299.01892	330.0
300.0275	1000.0
301.03769	90.0
462.08115	130.0
463.08524	10.0
595.12921	940.0
595.3443	10.0
596.13391	90.0
757.18188	190.0
758.18268	20.0

NAME:  NCGC00384615-01!3-[(2S,3R,4S,5R,6R)-4-[(2S,3R,4S,5S,6R)-4,5-dihydroxy-6-(hydroxymethyl)-3-[(2S,3R,4S,5R)-3,4,5-trihydroxyoxan-2-yl]oxyoxan-2-yl]oxy-3,5-dihydroxy-6-(hydroxymethyl)oxan-2-yl]oxy-2-(3,4-dihydroxyphenyl)-5,7-dihydroxychromen-4-one
PRECURSORMZ:  803.18876079183
PRECURSORTYPE:  [M+FA-H]-
FORMULA:  C32H38O21
Ontology: Kingdom: Organic compounds;Superclass: Phenylpropanoids and polyketides;Class: Flavonoids;Subclass: Flavonoid glycosides
INCHIKEY:  RWMOXJYSVNRRGE-UHFFFAOYNA-N
SMILES:  OCC1OC(OC2C(O)C(CO)OC(OC3=C(OC4=CC(O)=CC(O)=C4C3=O)C3=CC(O)=C(O)C=C3)C2O)C(OC2OCC(O)C(O)C2O)C(O)C1O
RETENTIONTIME:  
CCS:  -1
IONMODE:  Negative
INSTRUMENTTYPE:  
INSTRUMENT:  Maxis II HD Q-TOF Bruker
COLLISIONENERGY:  
Comment:  DB#=CCMSLIB00000845421; origin=GNPS
Num Peaks:  29
151.00262	60.0
178.99544	30.0
215.03386	20.0
243.0352	30.0
255.03059	40.0
271.02408	140.0
273.04303	20.0
299.01993	260.0
300.02411	920.0
301.03375	140.0
302.11267	10.0
329.0162	40.0
358.55359	10.0
445.07492	20.0
459.99146	10.0
462.08322	160.0
593.05139	20.0
595.13055	1000.0
595.61584	20.0
596.14758	80.0
599.45227	20.0
599.73395	10.0
755.57495	20.0
757.18481	530.0
758.2356	20.0
759.34827	20.0
761.76093	10.0
801.16882	20.0
802.17847	10.0

NAME:  NCGC00384600-01![(2S,3R,4S,5S,6R)-2-[3-[(2S,3R,4S,5S,6R)-4,5-dihydroxy-6-(hydroxymethyl)-3-[(2S,3R,4R,5R,6S)-3,4,5-trihydroxy-6-methyloxan-2-yl]oxyoxan-2-yl]oxy-5-hydroxy-2-(4-hydroxyphenyl)-4-oxochromen-7-yl]oxy-4,5-dihydroxy-6-(hydroxymethyl)oxan-3-yl] (E)-3-(4-hydroxyphenyl)prop-2-enoate
PRECURSORMZ:  901.24079666883
PRECURSORTYPE:  [M-H]-
FORMULA:  C42H46O22
Ontology: Kingdom: Organic compounds;Superclass: Phenylpropanoids and polyketides;Class: Flavonoids;Subclass: Flavonoid glycosides
INCHIKEY:  UDSPVVBVMAWQTL-UHFFFAOYNA-N
SMILES:  CC1OC(OC2C(OC3=C(OC4=CC(OC5OC(CO)C(O)C(O)C5OC(=O)C=CC5=CC=C(O)C=C5)=CC(O)=C4C3=O)C3=CC=C(O)C=C3)OC(CO)C(O)C2O)C(O)C(O)C1O
RETENTIONTIME:  
CCS:  314.3108252
IONMODE:  Negative
INSTRUMENTTYPE:  
INSTRUMENT:  Maxis II HD Q-TOF Bruker
COLLISIONENERGY:  
Comment:  DB#=CCMSLIB00000845424; origin=GNPS
Num Peaks:  16
145.02914	10.0
179.00291	20.0
227.03375	130.0
255.02914	250.0
256.03644	50.0
257.04385	20.0
283.02307	140.0
284.03247	1000.0
285.04013	130.0
429.09286	20.0
592.07019	10.0
592.12335	30.0
593.14996	630.0
594.15308	60.0
901.24219	180.0
902.24713	50.0

NAME:  NCGC00168898-03!4-hydroxy-7-methyl-2-[2-[3,4,5-trihydroxy-6-(hydroxymethyl)oxan-2-yl]oxypropan-2-yl]-2,3-dihydrofuro[3,2-g]chromen-5-one
PRECURSORMZ:  483.15079958483
PRECURSORTYPE:  [M+FA-H]-
FORMULA:  C21H26O10
Ontology: Kingdom: Organic compounds;Superclass: Organoheterocyclic compounds;Class: Benzopyrans;
INCHIKEY:  KHWKLNXMSVVKCH-UHFFFAOYNA-N
SMILES:  CC1=CC(=O)C2=C(O1)C=C1OC(CC1=C2O)C(C)(C)OC1OC(CO)C(O)C(O)C1O
RETENTIONTIME:  
CCS:  -1
IONMODE:  Negative
INSTRUMENTTYPE:  
INSTRUMENT:  Maxis II HD Q-TOF Bruker
COLLISIONENERGY:  
Comment:  DB#=CCMSLIB00000845426; origin=GNPS
Num Peaks:  7
101.0234	100.0
141.01877	130.0
257.08331	1000.0
275.091	300.0
282.08197	70.0
298.1275	70.0
437.14661	890.0

NAME:  NCGC00169854-03!4,4-bis(6,8-dihydroxy-3-methyl-1-oxoisochromen-7-yl)-2-methoxybutanoic acid
PRECURSORMZ:  497.10893507583
PRECURSORTYPE:  [M-H]-
FORMULA:  C25H22O11
Ontology: Kingdom: Organic compounds;Superclass: Phenylpropanoids and polyketides;Class: Isocoumarins and derivatives;
INCHIKEY:  DYFXVIVUWANJGN-UHFFFAOYNA-N
SMILES:  COC(CC(C1=C(O)C=C2C=C(C)OC(=O)C2=C1O)C1=C(O)C=C2C=C(C)OC(=O)C2=C1O)C(O)=O
RETENTIONTIME:  
CCS:  -1
IONMODE:  Negative
INSTRUMENTTYPE:  
INSTRUMENT:  Maxis II HD Q-TOF Bruker
COLLISIONENERGY:  
Comment:  DB#=CCMSLIB00000845428; origin=GNPS
Num Peaks:  27
146.69472	20.0
149.06479	20.0
187.03848	20.0
191.03505	950.0
201.05423	40.0
214.02998	20.0
215.03333	10.0
216.35255	20.0
217.05014	80.0
227.0325	20.0
229.05135	810.0
230.07057	20.0
231.06821	120.0
246.21809	10.0
250.04344	20.0
257.43832	20.0
261.07724	1000.0
272.83496	20.0
273.03842	410.0
305.06854	260.0
359.06494	30.0
377.06763	20.0
403.08408	80.0
465.08722	30.0
479.08963	10.0
497.05386	20.0
497.1102	810.0

NAME:  NCGC00380485-01!4-(3,4-dihydroxyphenyl)-7-hydroxy-5-[3,4,5-trihydroxy-6-[(3,4,5-trihydroxyoxan-2-yl)oxymethyl]oxan-2-yl]oxychromen-2-one
PRECURSORMZ:  579.13554374983
PRECURSORTYPE:  [M-H]-
FORMULA:  C26H28O15
Ontology: Kingdom: Organic compounds;Superclass: Phenylpropanoids and polyketides;Class: Coumarins and derivatives;Subclass: Coumarin glycosides
INCHIKEY:  XSUATNGSAZMWRU-UHFFFAOYNA-N
SMILES:  OC1COC(OCC2OC(OC3=CC(O)=CC4=C3C(=CC(=O)O4)C3=CC(O)=C(O)C=C3)C(O)C(O)C2O)C(O)C1O
RETENTIONTIME:  
CCS:  232.7334624
IONMODE:  Negative
INSTRUMENTTYPE:  
INSTRUMENT:  Maxis II HD Q-TOF Bruker
COLLISIONENERGY:  
Comment:  DB#=CCMSLIB00000845430; origin=GNPS
Num Peaks:  9
175.04207	30.0
177.02107	10.0
199.03766	20.0
201.01865	20.0
243.03316	10.0
257.05087	10.0
285.04022	1000.0
577.51495	10.0
579.13135	160.0

NAME:  NCGC00380485-01!4-(3,4-dihydroxyphenyl)-7-hydroxy-5-[3,4,5-trihydroxy-6-[(3,4,5-trihydroxyoxan-2-yl)oxymethyl]oxan-2-yl]oxychromen-2-one
PRECURSORMZ:  625.14102274983
PRECURSORTYPE:  [M+FA-H]-
FORMULA:  C26H28O15
Ontology: Kingdom: Organic compounds;Superclass: Phenylpropanoids and polyketides;Class: Coumarins and derivatives;Subclass: Coumarin glycosides
INCHIKEY:  XSUATNGSAZMWRU-UHFFFAOYNA-N
SMILES:  OC1COC(OCC2OC(OC3=CC(O)=CC4=C3C(=CC(=O)O4)C3=CC(O)=C(O)C=C3)C(O)C(O)C2O)C(O)C1O
RETENTIONTIME:  
CCS:  -1
IONMODE:  Negative
INSTRUMENTTYPE:  
INSTRUMENT:  Maxis II HD Q-TOF Bruker
COLLISIONENERGY:  
Comment:  DB#=CCMSLIB00000845432; origin=GNPS
Num Peaks:  14
215.03062	100.0
229.0573	490.0
239.09039	170.0
255.02986	320.0
261.07346	1000.0
273.04395	410.0
305.07153	100.0
319.07858	580.0
320.08463	90.0
388.56473	220.0
389.12335	50.0
549.13666	120.0
619.66467	40.0
625.14374	180.0

NAME:  NCGC00169308-03!5-[(3S,8R,10R,13R,14S,17R)-3-[(2R,3R,4R,5S,6R)-3,4-dihydroxy-6-(hydroxymethyl)-5-[(2S,3R,4R,5R,6S)-3,4,5-trihydroxy-6-methyloxan-2-yl]oxyoxan-2-yl]oxy-14-hydroxy-10,13-dimethyl-1,2,3,6,7,8,9,11,12,15,16,17-dodecahydrocyclopenta[a]phenanthren-17-yl]pyran-2-one
PRECURSORMZ:  737.33899428183
PRECURSORTYPE:  [M+FA-H]-
FORMULA:  C36H52O13
Ontology: ;;;
INCHIKEY:  KKOLMSSIDZXPLS-UHFFFAOYNA-N
SMILES:  CC1OC(OC2C(CO)OC(OC3CCC4(C)C5CCC6(C)C(CCC6(O)C5CCC4=C3)C3=COC(=O)C=C3)C(O)C2O)C(O)C(O)C1O
RETENTIONTIME:  
CCS:  -1
IONMODE:  Negative
INSTRUMENTTYPE:  
INSTRUMENT:  Maxis II HD Q-TOF Bruker
COLLISIONENERGY:  
Comment:  DB#=CCMSLIB00000845433; origin=GNPS
Num Peaks:  20
85.03243	30.0
93.03483	10.0
101.0263	40.0
113.02271	20.0
145.0531	10.0
161.04585	70.0
163.05777	10.0
179.05577	20.0
188.20911	10.0
221.06531	20.0
247.08499	10.0
297.18433	10.0
339.23746	20.0
350.25055	10.0
383.22427	110.0
529.27386	110.0
530.27625	10.0
690.10681	10.0
691.33453	1000.0
692.34424	80.0

NAME:  NCGC00169441-02!1-hydroxy-4-[(2S,3R,4S,5S,6R)-3,4,5-trihydroxy-6-(hydroxymethyl)oxan-2-yl]oxynaphthalene-2-carboxylic acid
PRECURSORMZ:  365.08780570783
PRECURSORTYPE:  [M-H]-
FORMULA:  C17H18O9
Ontology: Kingdom: Organic compounds;Superclass: Organic oxygen compounds;Class: Organooxygen compounds;Subclass: Carbohydrates and carbohydrate conjugates
INCHIKEY:  SGTNXGSCHXKQJX-UHFFFAOYNA-N
SMILES:  OCC1OC(OC2=CC(C(O)=O)=C(O)C3=CC=CC=C23)C(O)C(O)C1O
RETENTIONTIME:  
CCS:  186.0909869
IONMODE:  Negative
INSTRUMENTTYPE:  
INSTRUMENT:  Maxis II HD Q-TOF Bruker
COLLISIONENERGY:  
Comment:  DB#=CCMSLIB00000845436; origin=GNPS
Num Peaks:  8
158.0442	150.0
171.04616	160.0
183.23645	30.0
201.05463	130.0
202.02737	1000.0
223.243	130.0
244.15405	40.0
365.0918	590.0

NAME:  NCGC00380244-01!1,5,8-trihydroxy-4-methoxy-3-[(2S,3R,4S,5S,6R)-3,4,5-trihydroxy-6-(hydroxymethyl)oxan-2-yl]oxyxanthen-9-one
PRECURSORMZ:  451.08819963183
PRECURSORTYPE:  [M-H]-
FORMULA:  C20H20O12
Ontology: Kingdom: Organic compounds;Superclass: Organoheterocyclic compounds;Class: Benzopyrans;
INCHIKEY:  YLXVKDCXOBNAQO-UHFFFAOYNA-N
SMILES:  COC1=C(OC2OC(CO)C(O)C(O)C2O)C=C(O)C2=C1OC1=C(O)C=CC(O)=C1C2=O
RETENTIONTIME:  
CCS:  -1
IONMODE:  Negative
INSTRUMENTTYPE:  
INSTRUMENT:  Maxis II HD Q-TOF Bruker
COLLISIONENERGY:  
Comment:  DB#=CCMSLIB00000845438; origin=GNPS
Num Peaks:  12
115.69865	20.0
245.00645	120.0
272.9986	200.0
274.00272	20.0
289.03922	100.0
436.05972	250.0
449.0343	30.0
449.50259	20.0
451.09067	1000.0
452.54791	10.0
452.64581	20.0
453.27994	20.0

NAME:  NCGC00380385-01!methyl 4,10-diacetyloxy-5-hydroxy-1,4a-dimethyl-9-oxo-7-propan-2-yl-3,4,10,10a-tetrahydro-2H-phenanthrene-1-carboxylate
PRECURSORMZ:  459.20244153783
PRECURSORTYPE:  [M-H]-
FORMULA:  C25H32O8
Ontology: Kingdom: Organic compounds;Superclass: Lipids and lipid;Class: Prenol lipids;Subclass: Diterpenoids
INCHIKEY:  FQBKTTHDWBBWHB-UHFFFAOYNA-N
SMILES:  COC(=O)C1(C)CCC(OC(C)=O)C2(C)C1C(OC(C)=O)C(=O)C1=C2C(O)=CC(=C1)C(C)C
RETENTIONTIME:  
CCS:  -1
IONMODE:  Negative
INSTRUMENTTYPE:  
INSTRUMENT:  Maxis II HD Q-TOF Bruker
COLLISIONENERGY:  
Comment:  DB#=CCMSLIB00000845440; origin=GNPS
Num Peaks:  19
203.11052	30.0
213.09297	20.0
240.82213	30.0
257.1586	30.0
269.11499	40.0
291.86218	20.0
301.14343	120.0
329.13483	30.0
361.16592	70.0
371.17703	10.0
413.16592	30.0
415.17673	40.0
416.68146	40.0
417.19257	1000.0
418.32965	30.0
458.97928	10.0
459.19131	160.0
479.87646	20.0
503.74738	30.0

NAME:  NCGC00380385-01!methyl 4,10-diacetyloxy-5-hydroxy-1,4a-dimethyl-9-oxo-7-propan-2-yl-3,4,10,10a-tetrahydro-2H-phenanthrene-1-carboxylate
PRECURSORMZ:  505.20792053783
PRECURSORTYPE:  [M+FA-H]-
FORMULA:  C25H32O8
Ontology: Kingdom: Organic compounds;Superclass: Lipids and lipid;Class: Prenol lipids;Subclass: Diterpenoids
INCHIKEY:  FQBKTTHDWBBWHB-UHFFFAOYNA-N
SMILES:  COC(=O)C1(C)CCC(OC(C)=O)C2(C)C1C(OC(C)=O)C(=O)C1=C2C(O)=CC(=C1)C(C)C
RETENTIONTIME:  
CCS:  -1
IONMODE:  Negative
INSTRUMENTTYPE:  
INSTRUMENT:  Maxis II HD Q-TOF Bruker
COLLISIONENERGY:  
Comment:  DB#=CCMSLIB00000845441; origin=GNPS
Num Peaks:  21
171.16389	20.0
200.86314	10.0
213.09698	10.0
214.10522	20.0
220.91481	10.0
228.11806	20.0
268.63422	10.0
269.12146	70.0
286.12396	10.0
301.14767	20.0
324.69473	20.0
329.14059	20.0
355.14474	10.0
361.16742	70.0
398.18176	20.0
416.85721	20.0
417.19159	1000.0
418.19815	20.0
459.20316	330.0
462.84329	10.0
1004.07843	20.0

NAME:  NCGC00380383-01!methyl 4,10-diacetyloxy-5,9-dihydroxy-1,4a-dimethyl-7-propan-2-yl-2,3,4,9,10,10a-hexahydrophenanthrene-1-carboxylate
PRECURSORMZ:  461.21809160283
PRECURSORTYPE:  [M-H]-
FORMULA:  C25H34O8
Ontology: Kingdom: Organic compounds;Superclass: Lipids and lipid;Class: Prenol lipids;Subclass: Diterpenoids
INCHIKEY:  FEMTVABTBAWCEK-UHFFFAOYNA-N
SMILES:  COC(=O)C1(C)CCC(OC(C)=O)C2(C)C1C(OC(C)=O)C(O)C1=C2C(O)=CC(=C1)C(C)C
RETENTIONTIME:  
CCS:  216.9024037
IONMODE:  Negative
INSTRUMENTTYPE:  
INSTRUMENT:  Maxis II HD Q-TOF Bruker
COLLISIONENERGY:  
Comment:  DB#=CCMSLIB00000845444; origin=GNPS
Num Peaks:  9
111.04698	110.0
215.11049	100.0
271.13223	140.0
283.07544	110.0
285.14825	80.0
341.1702	100.0
359.18411	260.0
419.2066	1000.0
461.07141	130.0

NAME:  NCGC00380383-01!methyl 4,10-diacetyloxy-5,9-dihydroxy-1,4a-dimethyl-7-propan-2-yl-2,3,4,9,10,10a-hexahydrophenanthrene-1-carboxylate
PRECURSORMZ:  507.22357060283
PRECURSORTYPE:  [M+FA-H]-
FORMULA:  C25H34O8
Ontology: Kingdom: Organic compounds;Superclass: Lipids and lipid;Class: Prenol lipids;Subclass: Diterpenoids
INCHIKEY:  FEMTVABTBAWCEK-UHFFFAOYNA-N
SMILES:  COC(=O)C1(C)CCC(OC(C)=O)C2(C)C1C(OC(C)=O)C(O)C1=C2C(O)=CC(=C1)C(C)C
RETENTIONTIME:  
CCS:  -1
IONMODE:  Negative
INSTRUMENTTYPE:  
INSTRUMENT:  Maxis II HD Q-TOF Bruker
COLLISIONENERGY:  
Comment:  DB#=CCMSLIB00000845445; origin=GNPS
Num Peaks:  28
187.10493	20.0
215.10202	50.0
218.78658	20.0
231.17389	10.0
231.25282	40.0
253.12416	90.0
259.09573	20.0
265.12668	20.0
268.57034	20.0
268.81125	10.0
271.16772	20.0
285.14929	90.0
309.14856	10.0
309.18045	30.0
339.17056	20.0
341.18207	30.0
359.18658	380.0
363.17731	20.0
400.18317	10.0
401.19806	60.0
413.55667	10.0
418.59268	10.0
419.20987	1000.0
419.35571	10.0
429.72647	10.0
430.85538	30.0
443.22232	20.0
461.22031	340.0

NAME:  NCGC00380386-01!13-hydroxy-6-(1-hydroxyethyl)-12,14-dimethyl-3-methylidene-15-nonyl-9-propan-2-yl-1-oxa-4,7,10-triazacyclopentadecane-2,5,8,11-tetrone
PRECURSORMZ:  574.3264521899
PRECURSORTYPE:  [M+Cl]-
FORMULA:  C28H49N3O7
Ontology: Kingdom: Organic compounds;Superclass: Organic acids and derivatives;Class: Peptidomimetics;Subclass: Depsipeptides
INCHIKEY:  FVHOUXKYAQHQLA-UHFFFAOYNA-N
SMILES:  CCCCCCCCCC1OC(=O)C(=C)N=C(O)C(N=C(O)C(N=C(O)C(C)C(O)C1C)C(C)C)C(C)O
RETENTIONTIME:  
CCS:  -1
IONMODE:  Negative
INSTRUMENTTYPE:  
INSTRUMENT:  Maxis II HD Q-TOF Bruker
COLLISIONENERGY:  
Comment:  DB#=CCMSLIB00000845448; origin=GNPS
Num Peaks:  13
98.06258	310.0
125.03392	530.0
141.07123	230.0
143.04907	210.0
198.11246	530.0
280.13788	160.0
294.19031	1000.0
298.14264	150.0
313.07593	110.0
355.25226	180.0
450.34949	220.0
494.32874	750.0
538.35327	190.0

NAME:  NCGC00380386-01!13-hydroxy-6-(1-hydroxyethyl)-12,14-dimethyl-3-methylidene-15-nonyl-9-propan-2-yl-1-oxa-4,7,10-triazacyclopentadecane-2,5,8,11-tetrone
PRECURSORMZ:  584.35525347783
PRECURSORTYPE:  [M+FA-H]-
FORMULA:  C28H49N3O7
Ontology: Kingdom: Organic compounds;Superclass: Organic acids and derivatives;Class: Peptidomimetics;Subclass: Depsipeptides
INCHIKEY:  FVHOUXKYAQHQLA-UHFFFAOYNA-N
SMILES:  CCCCCCCCCC1OC(=O)C(=C)N=C(O)C(N=C(O)C(N=C(O)C(C)C(O)C1C)C(C)C)C(C)O
RETENTIONTIME:  
CCS:  -1
IONMODE:  Negative
INSTRUMENTTYPE:  
INSTRUMENT:  Maxis II HD Q-TOF Bruker
COLLISIONENERGY:  
Comment:  DB#=CCMSLIB00000845450; origin=GNPS
Num Peaks:  61
82.75551	20.0
98.02393	20.0
98.92334	20.0
99.06163	30.0
111.09345	10.0
112.07549	20.0
116.07263	30.0
125.03604	540.0
126.03864	10.0
128.07491	10.0
138.05417	30.0
138.08249	20.0
141.06583	60.0
142.01631	10.0
143.04425	30.0
154.08755	40.0
155.08281	30.0
169.0616	60.0
172.09735	40.0
180.11482	170.0
181.10234	10.0
187.0751	20.0
193.12903	10.0
194.12343	20.0
198.06323	10.0
198.12567	290.0
205.13684	10.0
211.14122	10.0
223.14891	10.0
224.10378	40.0
236.13977	60.0
251.17911	10.0
254.15196	40.0
263.1059	10.0
268.12283	10.0
280.13428	100.0
284.46414	10.0
294.1828	830.0
298.13638	50.0
338.1712	20.0
355.26266	170.0
365.28024	10.0
367.75314	10.0
368.28134	260.0
386.293	70.0
407.27463	10.0
407.30515	20.0
432.33139	20.0
433.30643	10.0
450.33936	50.0
451.33255	20.0
476.29749	10.0
476.33691	20.0
493.81223	10.0
494.24881	10.0
494.32587	1000.0
495.78885	10.0
520.33972	10.0
537.63708	10.0
538.3504	680.0
781.14703	10.0

NAME:  NCGC00380245-01!3-[(3S,10S,13R,16S,17R)-14,16-dihydroxy-3-[4-methoxy-6-methyl-5-[3,4,5-trihydroxy-6-[[3,4,5-trihydroxy-6-(hydroxymethyl)oxan-2-yl]oxymethyl]oxan-2-yl]oxyoxan-2-yl]oxy-10,13-dimethyl-1,2,3,4,5,6,7,8,9,11,12,15,16,17-tetradecahydrocyclopenta[a]phenanthren-17-yl]-2H-furan-5-one
PRECURSORMZ:  903.42311783283
PRECURSORTYPE:  [M+FA-H]-
FORMULA:  C42H66O18
Ontology: Kingdom: Organic compounds;Superclass: Lipids and lipid;Class: Steroids and steroid derivatives;Subclass: Steroid lactones
INCHIKEY:  BMHIJFUMNIBEFW-UHFFFAOYNA-N
SMILES:  COC1CC(OC2CCC3(C)C(CCC4C3CCC3(C)C(C(O)CC43O)C3=CC(=O)OC3)C2)OC(C)C1OC1OC(COC2OC(CO)C(O)C(O)C2O)C(O)C(O)C1O
RETENTIONTIME:  
CCS:  -1
IONMODE:  Negative
INSTRUMENTTYPE:  
INSTRUMENT:  Maxis II HD Q-TOF Bruker
COLLISIONENERGY:  
Comment:  DB#=CCMSLIB00000845452; origin=GNPS
Num Peaks:  53
71.01765	20.0
71.79344	10.0
85.03107	60.0
89.02571	20.0
95.0162	20.0
99.00681	20.0
101.02411	150.0
109.02924	40.0
111.01718	30.0
113.02607	140.0
113.05685	10.0
119.03553	50.0
120.03717	10.0
123.04092	10.0
125.02459	70.0
127.03896	350.0
139.00288	10.0
141.01996	10.0
143.03337	70.0
145.05602	30.0
155.06912	10.0
159.0282	60.0
159.06425	20.0
161.04465	350.0
167.03885	10.0
169.05014	10.0
179.05528	140.0
185.04546	30.0
205.06931	10.0
209.04526	10.0
221.06351	30.0
233.06769	50.0
245.06226	30.0
263.07632	90.0
323.09805	120.0
373.2587	10.0
451.15503	10.0
460.42749	10.0
483.2439	10.0
533.31189	130.0
693.34113	20.0
695.36469	130.0
696.38141	30.0
837.40924	20.0
855.4024	20.0
856.3067	10.0
856.40771	20.0
856.44684	20.0
857.42023	1000.0
858.4223	290.0
903.42542	30.0
904.42639	20.0
1815.94897	10.0

NAME:  NCGC00380316-01!(2Z)-2-[(E)-11-hydroxy-6-(hydroxymethyl)-2,4,8,10-tetramethyldodec-2-enylidene]-4-methylpentanedioic acid
PRECURSORMZ:  411.27521255583
PRECURSORTYPE:  [M-H]-
FORMULA:  C23H40O6
Ontology: Kingdom: Organic compounds;Superclass: Lipids and lipid;Class: Prenol lipids;Subclass: Diterpenoids
INCHIKEY:  YOSAXDOXINGSJA-UHFFFAOYNA-N
SMILES:  CC(O)C(C)CC(C)CC(CO)CC(C)C=C(C)C=C(CC(C)C(O)=O)C(O)=O
RETENTIONTIME:  
CCS:  -1
IONMODE:  Negative
INSTRUMENTTYPE:  
INSTRUMENT:  Maxis II HD Q-TOF Bruker
COLLISIONENERGY:  
Comment:  DB#=CCMSLIB00000845454; origin=GNPS
Num Peaks:  8
209.80412	30.0
231.24907	60.0
365.63528	60.0
367.27966	390.0
367.90451	40.0
410.68524	80.0
411.2749	1000.0
411.31738	280.0

NAME:  NCGC00380291-01![(2R,3S,4S,5R,6S)-6-(3,4-dihydroxybenzoyl)oxy-3,4,5-trihydroxyoxan-2-yl]methyl 3,4-dihydroxybenzoate
PRECURSORMZ:  451.08819963183
PRECURSORTYPE:  [M-H]-
FORMULA:  C20H20O12
Ontology: Kingdom: Organic compounds;Superclass: Benzenoids;Class: Benzene and substituted derivatives;Subclass: Benzoic acids and derivatives
INCHIKEY:  VNQNUULCMPXFER-UHFFFAOYNA-N
SMILES:  OC1C(O)C(COC(=O)C2=CC(O)=C(O)C=C2)OC(OC(=O)C2=CC(O)=C(O)C=C2)C1O
RETENTIONTIME:  
CCS:  -1
IONMODE:  Negative
INSTRUMENTTYPE:  
INSTRUMENT:  Maxis II HD Q-TOF Bruker
COLLISIONENERGY:  
Comment:  DB#=CCMSLIB00000845456; origin=GNPS
Num Peaks:  10
109.029	100.0
153.01765	1000.0
156.58549	30.0
177.55273	20.0
218.26576	30.0
225.03018	20.0
297.06281	420.0
300.27106	10.0
451.08469	200.0
1850.28918	10.0

NAME:  NCGC00380318-01![(2R,3S,4S,5R,6S)-3,4,5-trihydroxy-6-[(2S,3R,4S,5S,6R)-3,4,5-trihydroxy-6-(hydroxymethyl)oxan-2-yl]oxyoxan-2-yl]methyl 9-methyldecanoate
PRECURSORMZ:  555.26582933983
PRECURSORTYPE:  [M+FA-H]-
FORMULA:  C23H42O12
Ontology: Kingdom: Organic compounds;Superclass: Lipids and lipid;Class: Saccharolipids;
INCHIKEY:  VTEOBBGFBSSFNH-UHFFFAOYNA-N
SMILES:  CC(C)CCCCCCCC(=O)OCC1OC(OC2OC(CO)C(O)C(O)C2O)C(O)C(O)C1O
RETENTIONTIME:  
CCS:  -1
IONMODE:  Negative
INSTRUMENTTYPE:  
INSTRUMENT:  Maxis II HD Q-TOF Bruker
COLLISIONENERGY:  
Comment:  DB#=CCMSLIB00000845458; origin=GNPS
Num Peaks:  16
87.00607	20.0
101.02438	30.0
113.01904	10.0
125.01957	20.0
143.03389	40.0
177.25148	20.0
179.04393	10.0
185.15312	660.0
203.05554	30.0
227.18562	30.0
287.18274	10.0
323.09729	1000.0
340.64243	10.0
341.10547	110.0
509.26556	110.0
555.26611	10.0

NAME:  NCGC00381153-01![4,5-dihydroxy-3,4-bis(hydroxymethyl)-4a,8,8-trimethyl-5,6,7,8a-tetrahydro-1H-naphthalen-1-yl] octanoate
PRECURSORMZ:  457.28069155583
PRECURSORTYPE:  [M+FA-H]-
FORMULA:  C23H40O6
Ontology: Kingdom: Organic compounds;Superclass: Lipids and lipid;Class: Fatty Acyls;Subclass: Fatty acid esters
INCHIKEY:  ROWCOMZNXJCEGO-UHFFFAOYNA-N
SMILES:  CCCCCCCC(=O)OC1C=C(CO)C(O)(CO)C2(C)C(O)CCC(C)(C)C12
RETENTIONTIME:  
CCS:  -1
IONMODE:  Negative
INSTRUMENTTYPE:  
INSTRUMENT:  Maxis II HD Q-TOF Bruker
COLLISIONENERGY:  
Comment:  DB#=CCMSLIB00000845459; origin=GNPS
Num Peaks:  2
143.10785	1000.0
411.28207	20.0

NAME:  NCGC00381071-01!1,12-dihydroxy-1,6,12,17,23,28-hexazacyclotritriacontane-2,5,13,16,24,27-hexone
PRECURSORMZ:  583.34608607783
PRECURSORTYPE:  [M-H]-
FORMULA:  C27H48N6O8
Ontology: Kingdom: Organic compounds;Superclass: Phenylpropanoids and polyketides;Class: Macrolactams;
INCHIKEY:  ABHHIGWFFMCQOC-UHFFFAOYSA-N
SMILES:  ON1CCCCCN=C(O)CCC(O)=NCCCCCN=C(O)CCC(=O)N(O)CCCCCN=C(O)CCC1=O
RETENTIONTIME:  
CCS:  259.9493401
IONMODE:  Negative
INSTRUMENTTYPE:  
INSTRUMENT:  Maxis II HD Q-TOF Bruker
COLLISIONENERGY:  
Comment:  DB#=CCMSLIB00000845462; origin=GNPS
Num Peaks:  40
71.99946	20.0
73.57202	20.0
75.24139	30.0
98.02559	170.0
99.21607	20.0
117.4985	30.0
155.11557	40.0
163.08832	20.0
181.09946	300.0
183.1145	70.0
199.10471	110.0
201.12784	30.0
209.1246	30.0
216.13359	40.0
217.11835	70.0
237.12773	40.0
239.1378	40.0
265.12	210.0
267.1806	20.0
278.33405	10.0
282.15283	30.0
323.20874	50.0
329.19836	70.0
348.19742	20.0
363.19693	10.0
364.77228	20.0
365.21863	420.0
367.23572	40.0
383.23129	1000.0
384.2352	20.0
400.23807	30.0
401.24423	60.0
421.23993	20.0
510.29553	20.0
539.33905	20.0
547.37054	20.0
582.03229	10.0
582.57837	20.0
582.72974	10.0
583.34662	860.0

NAME:  NCGC00381071-01!1,12-dihydroxy-1,6,12,17,23,28-hexazacyclotritriacontane-2,5,13,16,24,27-hexone
PRECURSORMZ:  619.3227637899
PRECURSORTYPE:  [M+Cl]-
FORMULA:  C27H48N6O8
Ontology: Kingdom: Organic compounds;Superclass: Phenylpropanoids and polyketides;Class: Macrolactams;
INCHIKEY:  ABHHIGWFFMCQOC-UHFFFAOYSA-N
SMILES:  ON1CCCCCN=C(O)CCC(O)=NCCCCCN=C(O)CCC(=O)N(O)CCCCCN=C(O)CCC1=O
RETENTIONTIME:  
CCS:  -1
IONMODE:  Negative
INSTRUMENTTYPE:  
INSTRUMENT:  Maxis II HD Q-TOF Bruker
COLLISIONENERGY:  
Comment:  DB#=CCMSLIB00000845464; origin=GNPS
Num Peaks:  19
98.02408	380.0
99.02948	380.0
134.05975	270.0
163.08997	370.0
181.09534	380.0
199.10921	450.0
237.13031	390.0
250.99765	400.0
265.11929	1000.0
323.21555	230.0
365.21582	830.0
382.21817	540.0
383.23557	360.0
439.23434	470.0
583.34814	970.0
584.39673	220.0
600.32709	670.0
601.33441	210.0
619.35193	330.0

NAME:  NCGC00385134-01![(2R,3R,4S,5R,6S)-3-hydroxy-2-(hydroxymethyl)-5,6-bis[(3,4,5-trihydroxybenzoyl)oxy]oxan-4-yl] 3,4,5-trihydroxybenzoate
PRECURSORMZ:  635.08898748083
PRECURSORTYPE:  [M-H]-
FORMULA:  C27H24O18
Ontology: Kingdom: Organic compounds;Superclass: Phenylpropanoids and polyketides;Class: Tannins;
INCHIKEY:  MACFXELYCBWKGT-UHFFFAOYNA-N
SMILES:  OCC1OC(OC(=O)C2=CC(O)=C(O)C(O)=C2)C(OC(=O)C2=CC(O)=C(O)C(O)=C2)C(OC(=O)C2=CC(O)=C(O)C(O)=C2)C1O
RETENTIONTIME:  
CCS:  257.9436761
IONMODE:  Negative
INSTRUMENTTYPE:  
INSTRUMENT:  Maxis II HD Q-TOF Bruker
COLLISIONENERGY:  
Comment:  DB#=CCMSLIB00000845465; origin=GNPS
Num Peaks:  47
113.02278	50.0
124.0162	40.0
124.99075	30.0
125.02374	220.0
141.01422	20.0
143.03415	20.0
145.03226	20.0
149.02103	20.0
150.99664	40.0
161.01895	30.0
161.0423	30.0
165.03351	20.0
165.05743	20.0
166.99483	40.0
167.03604	20.0
168.00934	70.0
169.01389	1000.0
173.98602	10.0
179.03653	60.0
181.01541	20.0
189.02263	20.0
193.01189	60.0
199.4821	10.0
205.05478	30.0
207.02577	50.0
211.02399	20.0
218.0258	10.0
221.00404	40.0
223.02101	20.0
223.06537	10.0
241.04289	20.0
269.05878	30.0
271.04285	20.0
277.04462	30.0
288.86255	30.0
295.04538	130.0
312.98862	10.0
313.05643	570.0
405.06967	10.0
421.07568	150.0
463.34296	10.0
463.92471	20.0
464.40698	20.0
465.06787	770.0
468.84528	20.0
483.07074	110.0
635.08911	460.0

NAME:  NCGC00385127-01!3-[4,5-dihydroxy-6-(hydroxymethyl)-3-[(2S,3R,4R,5R,6S)-3,4,5-trihydroxy-6-methyloxan-2-yl]oxyoxan-2-yl]oxy-5-hydroxy-2-(4-hydroxyphenyl)-7-[3,4,5-trihydroxy-6-(hydroxymethyl)oxan-2-yl]oxychromen-4-one
PRECURSORMZ:  755.20401723583
PRECURSORTYPE:  [M-H]-
FORMULA:  C33H40O20
Ontology: Kingdom: Organic compounds;Superclass: Phenylpropanoids and polyketides;Class: Flavonoids;Subclass: Flavonoid glycosides
INCHIKEY:  IYFMBSVAOKIIHT-UHFFFAOYNA-N
SMILES:  CC1OC(OC2C(O)C(O)C(CO)OC2OC2=C(OC3=CC(OC4OC(CO)C(O)C(O)C4O)=CC(O)=C3C2=O)C2=CC=C(O)C=C2)C(O)C(O)C1O
RETENTIONTIME:  
CCS:  306.3590459
IONMODE:  Negative
INSTRUMENTTYPE:  
INSTRUMENT:  Maxis II HD Q-TOF Bruker
COLLISIONENERGY:  
Comment:  DB#=CCMSLIB00000845467; origin=GNPS
Num Peaks:  29
104.26335	10.0
113.48515	30.0
227.03821	90.0
239.04413	20.0
255.03291	130.0
283.02597	1000.0
284.03052	260.0
285.0379	200.0
296.03152	10.0
297.04645	30.0
309.03867	20.0
326.04202	20.0
327.06473	20.0
376.01602	20.0
405.1174	10.0
444.90994	10.0
445.7836	10.0
445.92422	20.0
446.08832	410.0
447.09641	40.0
448.10104	20.0
472.09933	10.0
593.15045	540.0
594.146	60.0
603.11597	20.0
617.19037	10.0
635.1463	20.0
755.1969	180.0
756.19855	20.0

NAME:  NCGC00385127-01!3-[4,5-dihydroxy-6-(hydroxymethyl)-3-[(2S,3R,4R,5R,6S)-3,4,5-trihydroxy-6-methyloxan-2-yl]oxyoxan-2-yl]oxy-5-hydroxy-2-(4-hydroxyphenyl)-7-[3,4,5-trihydroxy-6-(hydroxymethyl)oxan-2-yl]oxychromen-4-one
PRECURSORMZ:  801.20949623583
PRECURSORTYPE:  [M+FA-H]-
FORMULA:  C33H40O20
Ontology: Kingdom: Organic compounds;Superclass: Phenylpropanoids and polyketides;Class: Flavonoids;Subclass: Flavonoid glycosides
INCHIKEY:  IYFMBSVAOKIIHT-UHFFFAOYNA-N
SMILES:  CC1OC(OC2C(O)C(O)C(CO)OC2OC2=C(OC3=CC(OC4OC(CO)C(O)C(O)C4O)=CC(O)=C3C2=O)C2=CC=C(O)C=C2)C(O)C(O)C1O
RETENTIONTIME:  
CCS:  -1
IONMODE:  Negative
INSTRUMENTTYPE:  
INSTRUMENT:  Maxis II HD Q-TOF Bruker
COLLISIONENERGY:  
Comment:  DB#=CCMSLIB00000845469; origin=GNPS
Num Peaks:  26
103.20955	20.0
150.9978	20.0
229.05356	40.0
255.03139	170.0
283.02301	1000.0
284.03366	570.0
285.04919	160.0
286.10248	30.0
304.20813	30.0
318.84	30.0
326.04282	60.0
429.07751	90.0
444.85132	20.0
445.48322	10.0
446.08859	390.0
593.14984	900.0
594.16528	50.0
595.17554	40.0
635.08862	30.0
754.28052	40.0
754.92004	10.0
755.20135	360.0
755.28583	50.0
755.49597	10.0
755.65411	30.0
756.19812	70.0

NAME:  NCGC00347816-02!
PRECURSORMZ:  563.24978535183
PRECURSORTYPE:  [M+FA-H]-
FORMULA:  C28H38O9
Ontology: Kingdom: Organic compounds;Superclass: Organoheterocyclic compounds;Class: Naphthopyrans;
INCHIKEY:  CLYLZXCYEKJUEK-UHFFFAOYNA-N
SMILES:  CC1OC(=O)C2C3(C)C(CC4C(C)(C3CC(=C)C2(C)C1=O)C(CC(=O)OC4(C)C)OC(C)=O)OC(C)=O
RETENTIONTIME:  
CCS:  -1
IONMODE:  Negative
INSTRUMENTTYPE:  
INSTRUMENT:  Maxis II HD Q-TOF Bruker
COLLISIONENERGY:  
Comment:  DB#=CCMSLIB00000845472; origin=GNPS
Num Peaks:  13
102.40202	220.0
218.62109	150.0
219.8204	60.0
337.18912	210.0
397.20715	280.0
415.21704	480.0
416.23093	140.0
431.216	180.0
442.20728	160.0
457.23355	180.0
460.22656	180.0
475.23639	1000.0
517.25293	370.0

NAME:  NCGC00180141-02!2-[[7-hydroxy-1-(4-hydroxy-3,5-dimethoxyphenyl)-3-(hydroxymethyl)-6,8-dimethoxy-1,2,3,4-tetrahydronaphthalen-2-yl]methoxy]-6-(hydroxymethyl)oxane-3,4,5-triol
PRECURSORMZ:  627.22944383183
PRECURSORTYPE:  [M+FA-H]-
FORMULA:  C28H38O13
Ontology: Kingdom: Organic compounds;Superclass: Lignans;Class: Lignan glycosides;
INCHIKEY:  PQQRNPDHSJDAGV-UHFFFAOYNA-N
SMILES:  COC1=CC(=CC(OC)=C1O)C1C(COC2OC(CO)C(O)C(O)C2O)C(CO)CC2=CC(OC)=C(O)C(OC)=C12
RETENTIONTIME:  
CCS:  -1
IONMODE:  Negative
INSTRUMENTTYPE:  
INSTRUMENT:  Maxis II HD Q-TOF Bruker
COLLISIONENERGY:  
Comment:  DB#=CCMSLIB00000845473; origin=GNPS
Num Peaks:  42
85.0297	20.0
89.0237	20.0
111.01019	20.0
113.02654	20.0
119.02768	10.0
136.75638	10.0
138.03712	30.0
139.04379	20.0
153.05405	50.0
179.05435	40.0
187.30312	40.0
202.06235	30.0
203.07002	40.0
217.09644	30.0
218.05612	10.0
254.02295	20.0
311.0589	20.0
312.07318	10.0
325.12018	10.0
327.08405	10.0
355.1127	10.0
359.12119	10.0
371.12573	50.0
373.13461	40.0
375.1413	10.0
386.13629	60.0
389.09436	20.0
389.13055	20.0
401.1608	80.0
402.14667	20.0
403.81699	10.0
404.15253	50.0
405.16309	20.0
418.63174	10.0
419.17148	230.0
474.14362	20.0
535.16937	20.0
562.95721	20.0
566.20038	50.0
581.224	1000.0
582.24121	20.0
627.14124	10.0

NAME:  NCGC00169759-02![(2S,3R,4R,5S,6S)-2-[2-(3,4-dihydroxyphenyl)-5,7-dihydroxy-4-oxochromen-3-yl]oxy-3,5-dihydroxy-6-methyloxan-4-yl] 3,4,5-trihydroxybenzoate
PRECURSORMZ:  599.10424362083
PRECURSORTYPE:  [M-H]-
FORMULA:  C28H24O15
Ontology: Kingdom: Organic compounds;Superclass: Phenylpropanoids and polyketides;Class: Flavonoids;Subclass: Flavonoid glycosides
INCHIKEY:  JFLAOPHOUGDFGC-UHFFFAOYNA-N
SMILES:  CC1OC(OC2=C(OC3=CC(O)=CC(O)=C3C2=O)C2=CC(O)=C(O)C=C2)C(O)C(OC(=O)C2=CC(O)=C(O)C(O)=C2)C1O
RETENTIONTIME:  
CCS:  -1
IONMODE:  Negative
INSTRUMENTTYPE:  
INSTRUMENT:  Maxis II HD Q-TOF Bruker
COLLISIONENERGY:  
Comment:  DB#=CCMSLIB00000845475; origin=GNPS
Num Peaks:  16
121.03216	20.0
125.02297	20.0
151.0025	60.0
168.00586	40.0
169.01302	130.0
178.99777	70.0
255.02914	20.0
271.03088	10.0
273.04507	10.0
283.02267	20.0
297.06003	60.0
300.02533	50.0
301.03485	1000.0
447.09415	70.0
599.10535	390.0
600.10437	20.0

NAME:  NCGC00385542-01!3-oxo-3-[[(2R,3S,4S,5R,6S)-3,4,5-trihydroxy-6-[5-hydroxy-3-(4-hydroxyphenyl)-4-oxochromen-7-yl]oxyoxan-2-yl]methoxy]propanoic acid
PRECURSORMZ:  517.09876431583
PRECURSORTYPE:  [M-H]-
FORMULA:  C24H22O13
Ontology: Kingdom: Organic compounds;Superclass: Phenylpropanoids and polyketides;Class: Isoflavonoids;Subclass: Isoflavonoid O
INCHIKEY:  FRAUJUKWSKMNJY-UHFFFAOYNA-N
SMILES:  OC1C(O)C(COC(=O)CC(O)=O)OC(OC2=CC(O)=C3C(OC=C(C3=O)C3=CC=C(O)C=C3)=C2)C1O
RETENTIONTIME:  
CCS:  210.3070632
IONMODE:  Negative
INSTRUMENTTYPE:  
INSTRUMENT:  Maxis II HD Q-TOF Bruker
COLLISIONENERGY:  
Comment:  DB#=CCMSLIB00000845477; origin=GNPS
Num Peaks:  5
197.06509	50.0
268.04541	120.0
269.04517	1000.0
283.06671	50.0
291.06705	40.0

NAME:  NCGC00385539-01!
PRECURSORMZ:  605.33312105383
PRECURSORTYPE:  [M+FA-H]-
FORMULA:  C32H48O8
Ontology: Kingdom: Organic compounds;Superclass: Lipids and lipid;Class: Prenol lipids;Subclass: Diterpenoids
INCHIKEY:  SNFRINMTRPQQLE-UHFFFAOYNA-N
SMILES:  [H]C12OC3(CCCCCCCCCCC)OC1(CC(C)C1(O3)C3C=C(C)C(=O)C3(O)C(O)C3(CO)OC3C21)C(C)=C
RETENTIONTIME:  
CCS:  -1
IONMODE:  Negative
INSTRUMENTTYPE:  
INSTRUMENT:  Maxis II HD Q-TOF Bruker
COLLISIONENERGY:  
Comment:  DB#=CCMSLIB00000845480; origin=GNPS
Num Peaks:  34
100.94183	100.0
102.30644	80.0
135.08595	210.0
139.03665	620.0
189.0954	250.0
199.16931	1000.0
203.13669	190.0
209.14259	170.0
217.08345	700.0
219.05919	180.0
219.10632	330.0
225.12912	100.0
229.13075	180.0
239.13789	160.0
243.13899	110.0
253.13046	190.0
255.09737	150.0
257.15112	130.0
259.1377	90.0
265.1077	60.0
273.11444	220.0
283.13812	310.0
285.16208	190.0
293.11823	230.0
311.1282	110.0
329.13632	160.0
359.1409	100.0
365.31027	170.0
432.9852	160.0
461.27719	70.0
511.31116	100.0
607.91632	140.0
774.3772	330.0
774.54022	50.0

NAME:  NCGC00179823-03![14-hydroxy-3-[4-methoxy-6-methyl-5-[3,4,5-trihydroxy-6-[[3,4,5-trihydroxy-6-(hydroxymethyl)oxan-2-yl]oxymethyl]oxan-2-yl]oxyoxan-2-yl]oxy-10,13-dimethyl-17-(5-oxo-2H-furan-3-yl)-1,2,3,4,5,6,7,8,9,11,12,15,16,17-tetradecahydrocyclopenta[a]phenanthren-16-yl] acetate
PRECURSORMZ:  945.43368251783
PRECURSORTYPE:  [M+FA-H]-
FORMULA:  C44H68O19
Ontology: Kingdom: Organic compounds;Superclass: Lipids and lipid;Class: Steroids and steroid derivatives;Subclass: Steroid lactones
INCHIKEY:  PKZLCDIEFSFXDK-UHFFFAOYNA-N
SMILES:  COC1CC(OC2CCC3(C)C(CCC4C3CCC3(C)C(C(CC43O)OC(C)=O)C3=CC(=O)OC3)C2)OC(C)C1OC1OC(COC2OC(CO)C(O)C(O)C2O)C(O)C(O)C1O
RETENTIONTIME:  
CCS:  -1
IONMODE:  Negative
INSTRUMENTTYPE:  
INSTRUMENT:  Maxis II HD Q-TOF Bruker
COLLISIONENERGY:  
Comment:  DB#=CCMSLIB00000845482; origin=GNPS
Num Peaks:  72
71.0163	40.0
73.02782	10.0
81.04002	10.0
83.01366	20.0
85.02879	70.0
87.00697	10.0
89.02428	50.0
97.0303	30.0
99.00642	40.0
101.0247	170.0
111.00956	10.0
113.0238	300.0
119.03548	120.0
125.02347	190.0
127.00488	10.0
127.03941	40.0
131.03947	40.0
137.01802	20.0
141.0218	10.0
141.05544	30.0
143.03412	120.0
147.04941	10.0
151.04112	10.0
153.05913	20.0
159.02711	20.0
161.04543	410.0
163.0639	50.0
167.03822	40.0
179.05632	280.0
180.06201	30.0
189.05406	10.0
203.05901	30.0
205.07222	80.0
221.06837	150.0
227.05249	10.0
233.06966	20.0
245.06592	50.0
247.08551	40.0
263.07779	100.0
288.07434	20.0
305.08969	30.0
323.10025	210.0
324.10248	20.0
373.23227	30.0
405.35291	10.0
408.03796	10.0
450.8085	10.0
452.06146	10.0
475.14581	10.0
533.31042	170.0
534.30975	20.0
575.32507	50.0
575.37915	10.0
677.34119	20.0
678.36096	30.0
695.35999	120.0
696.36639	40.0
737.37354	40.0
738.41669	20.0
751.3938	10.0
753.40527	60.0
754.40924	20.0
791.40399	10.0
839.40509	200.0
840.40967	70.0
857.42371	490.0
858.42151	120.0
859.40436	10.0
899.44977	1000.0
900.4527	320.0
901.44354	30.0
945.44513	20.0

NAME:  NCGC00381018-01![3,4,5-trihydroxy-6-(hydroxymethyl)oxan-2-yl] 3-hydroxy-4,5-dimethoxybenzoate
PRECURSORMZ:  405.10384939183
PRECURSORTYPE:  [M+FA-H]-
FORMULA:  C15H20O10
Ontology: Kingdom: Organic compounds;Superclass: Phenylpropanoids and polyketides;Class: Tannins;Subclass: Hydrolyzable tannins
INCHIKEY:  CXFDTBRNJQYDLK-UHFFFAOYNA-N
SMILES:  COC1=CC(=CC(O)=C1OC)C(=O)OC1OC(CO)C(O)C(O)C1O
RETENTIONTIME:  
CCS:  -1
IONMODE:  Negative
INSTRUMENTTYPE:  
INSTRUMENT:  Maxis II HD Q-TOF Bruker
COLLISIONENERGY:  
Comment:  DB#=CCMSLIB00000845483; origin=GNPS
Num Peaks:  9
114.07381	30.0
166.99257	40.0
181.0108	80.0
182.02193	120.0
183.02605	30.0
197.04628	1000.0
344.07657	30.0
359.09073	40.0
789.77222	20.0

NAME:  NCGC00380980-01!methyl 3-(3,4-dihydroxy-2,2-dimethyl-1-oxo-3aH-imidazo[1,2-a]indol-4-yl)-2-(4-oxoquinazolin-3-yl)propanoate
PRECURSORMZ:  509.16778705683
PRECURSORTYPE:  [M+FA-H]-
FORMULA:  C24H24N4O6
Ontology: Kingdom: Organic compounds;Superclass: Organic acids and derivatives;Class: Carboxylic acids and derivatives;Subclass: Amino acids
INCHIKEY:  PDUNPLZHIQQDAD-UHFFFAOYNA-N
SMILES:  COC(=O)C(CC1(O)C2N(O)C(C)(C)C(=O)N2C2=CC=CC=C12)N1C=NC2=CC=CC=C2C1=O
RETENTIONTIME:  
CCS:  -1
IONMODE:  Negative
INSTRUMENTTYPE:  
INSTRUMENT:  Maxis II HD Q-TOF Bruker
COLLISIONENERGY:  
Comment:  DB#=CCMSLIB00000845485; origin=GNPS
Num Peaks:  34
132.04121	10.0
140.04613	10.0
141.05698	10.0
145.04024	1000.0
156.03735	10.0
156.07178	20.0
159.05588	80.0
170.10831	10.0
171.06067	40.0
171.09138	130.0
173.07156	20.0
176.57785	20.0
182.0484	20.0
185.04132	30.0
203.05165	40.0
213.06799	20.0
213.10011	70.0
215.04507	10.0
215.08051	50.0
224.08376	10.0
226.06708	10.0
229.06429	10.0
241.09763	10.0
284.39066	10.0
284.83377	10.0
285.08704	20.0
286.0939	20.0
287.0802	10.0
287.10077	10.0
288.11664	20.0
343.1499	20.0
387.14557	20.0
401.14099	60.0
431.13776	100.0

NAME:  NCGC00347764-02![4-[(2S,3R,4S,5S,6R)-3,4,5-trihydroxy-6-(hydroxymethyl)oxan-2-yl]oxyphenyl]methyl 2-[(E)-3-(4-hydroxyphenyl)prop-2-enoyl]oxy-3-methyl-3-[(2S,3R,4S,5S,6R)-3,4,5-trihydroxy-6-(hydroxymethyl)oxan-2-yl]oxybutanoate
PRECURSORMZ:  709.23492343983
PRECURSORTYPE:  [M-H]-
FORMULA:  C33H42O17
Ontology: Kingdom: Organic compounds;Superclass: Organic oxygen compounds;Class: Organooxygen compounds;Subclass: Carbohydrates and carbohydrate conjugates
INCHIKEY:  LZXXRASHAINSDN-UHFFFAOYNA-N
SMILES:  CC(C)(OC1OC(CO)C(O)C(O)C1O)C(OC(=O)C=CC1=CC=C(O)C=C1)C(=O)OCC1=CC=C(OC2OC(CO)C(O)C(O)C2O)C=C1
RETENTIONTIME:  
CCS:  -1
IONMODE:  Negative
INSTRUMENTTYPE:  
INSTRUMENT:  Maxis II HD Q-TOF Bruker
COLLISIONENERGY:  
Comment:  DB#=CCMSLIB00000845487; origin=GNPS
Num Peaks:  24
113.02415	30.0
117.03365	90.0
119.03457	40.0
123.04134	40.0
143.03331	20.0
145.02803	1000.0
149.04341	20.0
155.06779	20.0
163.03793	50.0
179.05714	40.0
189.08913	100.0
217.08591	340.0
243.06061	30.0
261.07831	100.0
277.09384	30.0
295.10318	470.0
319.11743	10.0
423.13019	50.0
441.14029	460.0
442.14166	20.0
529.17743	80.0
530.17651	10.0
709.23419	390.0
710.21735	30.0

NAME:  NCGC00347764-02![4-[(2S,3R,4S,5S,6R)-3,4,5-trihydroxy-6-(hydroxymethyl)oxan-2-yl]oxyphenyl]methyl 2-[(E)-3-(4-hydroxyphenyl)prop-2-enoyl]oxy-3-methyl-3-[(2S,3R,4S,5S,6R)-3,4,5-trihydroxy-6-(hydroxymethyl)oxan-2-yl]oxybutanoate
PRECURSORMZ:  745.2116011519
PRECURSORTYPE:  [M+Cl]-
FORMULA:  C33H42O17
Ontology: Kingdom: Organic compounds;Superclass: Organic oxygen compounds;Class: Organooxygen compounds;Subclass: Carbohydrates and carbohydrate conjugates
INCHIKEY:  LZXXRASHAINSDN-UHFFFAOYNA-N
SMILES:  CC(C)(OC1OC(CO)C(O)C(O)C1O)C(OC(=O)C=CC1=CC=C(O)C=C1)C(=O)OCC1=CC=C(OC2OC(CO)C(O)C(O)C2O)C=C1
RETENTIONTIME:  
CCS:  -1
IONMODE:  Negative
INSTRUMENTTYPE:  
INSTRUMENT:  Maxis II HD Q-TOF Bruker
COLLISIONENERGY:  
Comment:  DB#=CCMSLIB00000845490; origin=GNPS
Num Peaks:  11
85.02655	160.0
145.02721	1000.0
187.07867	150.0
259.10385	50.0
295.10345	630.0
362.61981	340.0
385.19022	80.0
401.03253	60.0
709.2334	590.0
710.20862	80.0
710.25519	160.0

NAME:  NCGC00386086-01![9-[(E)-3-acetyloxy-4-methylhex-4-en-2-yl]-12-hydroxy-3-(2-hydroxypropan-2-yl)-10-methoxy-6a,12b-dimethyl-8,11-dioxo-1,2,3,4a,5,6,12,12a-octahydropyrano[3,2-a]xanthen-1-yl] acetate
PRECURSORMZ:  617.29673584883
PRECURSORTYPE:  [M-H]-
FORMULA:  C33H46O11
Ontology: Kingdom: Organic compounds;Superclass: Organoheterocyclic compounds;Class: Oxanes;
INCHIKEY:  SOJLUKNFWGXUFS-UHFFFAOYNA-N
SMILES:  COC1=C(C(C)C(OC(C)=O)C(C)=CC)C(=O)C2=C(C(O)C3C(C)(CCC4OC(CC(OC(C)=O)C34C)C(C)(C)O)O2)C1=O
RETENTIONTIME:  
CCS:  -1
IONMODE:  Negative
INSTRUMENTTYPE:  
INSTRUMENT:  Maxis II HD Q-TOF Bruker
COLLISIONENERGY:  
Comment:  DB#=CCMSLIB00000845492; origin=GNPS
Num Peaks:  19
142.36407	130.0
204.87215	40.0
211.08469	180.0
260.06351	100.0
319.13544	120.0
343.12576	120.0
357.09363	90.0
368.93304	60.0
438.28616	90.0
442.28873	50.0
470.19467	120.0
515.2674	720.0
524.21014	100.0
542.26996	670.0
557.29089	420.0
575.26807	30.0
602.27094	460.0
617.29559	1000.0
678.5636	110.0

NAME:  NCGC00180410-02!3-[(2S,3R,4S,5S,6R)-6-[[(2R,3R,4R,5R,6S)-3-[(2S,3R,4R)-3,4-dihydroxy-4-(hydroxymethyl)oxolan-2-yl]oxy-4,5-dihydroxy-6-methyloxan-2-yl]oxymethyl]-3,4,5-trihydroxyoxan-2-yl]oxy-2-(3,4-dihydroxyphenyl)-5,7-dihydroxychromen-4-one
PRECURSORMZ:  741.18836717183
PRECURSORTYPE:  [M-H]-
FORMULA:  C32H38O20
Ontology: Kingdom: Organic compounds;Superclass: Phenylpropanoids and polyketides;Class: Flavonoids;Subclass: Flavonoid glycosides
INCHIKEY:  KZJQLAODESHSCC-UHFFFAOYNA-N
SMILES:  CC1OC(OCC2OC(OC3=C(OC4=CC(O)=CC(O)=C4C3=O)C3=CC(O)=C(O)C=C3)C(O)C(O)C2O)C(OC2OCC(O)(CO)C2O)C(O)C1O
RETENTIONTIME:  
CCS:  250.0044594
IONMODE:  Negative
INSTRUMENTTYPE:  
INSTRUMENT:  Maxis II HD Q-TOF Bruker
COLLISIONENERGY:  
Comment:  DB#=CCMSLIB00000845494; origin=GNPS
Num Peaks:  12
107.01526	10.0
151.00266	30.0
179.00177	30.0
226.02948	10.0
243.03279	30.0
255.03081	90.0
271.02362	130.0
299.02615	10.0
300.0289	1000.0
301.03632	50.0
741.18726	860.0
742.19934	50.0

NAME:  NCGC00168955-03![3-hydroxy-1-oxo-1-(2,3,4,5,6-pentahydroxyhexoxy)decan-5-yl] 3,5-dihydroxydecanoate
PRECURSORMZ:  535.31238591783
PRECURSORTYPE:  [M-H2O-H]-
FORMULA:  C26H50O12
Ontology: Kingdom: Organic compounds;Superclass: Lipids and lipid;Class: Fatty Acyls;Subclass: Fatty alcohols
INCHIKEY:  JPGYRFJJNVYGPI-UHFFFAOYNA-N
SMILES:  CCCCCC(O)CC(O)CC(=O)OC(CCCCC)CC(O)CC(=O)OCC(O)C(O)C(O)C(O)CO
RETENTIONTIME:  
CCS:  -1
IONMODE:  Negative
INSTRUMENTTYPE:  
INSTRUMENT:  Maxis II HD Q-TOF Bruker
COLLISIONENERGY:  
Comment:  DB#=CCMSLIB00000845496; origin=GNPS
Num Peaks:  8
163.14636	390.0
207.1378	480.0
239.127	50.0
251.12602	180.0
269.14114	1000.0
272.09024	50.0
427.16162	70.0
1101.29517	40.0

NAME:  NCGC00168955-03![3-hydroxy-1-oxo-1-(2,3,4,5,6-pentahydroxyhexoxy)decan-5-yl] 3,5-dihydroxydecanoate
PRECURSORMZ:  599.32842959783
PRECURSORTYPE:  [M+FA-H]-
FORMULA:  C26H50O12
Ontology: Kingdom: Organic compounds;Superclass: Lipids and lipid;Class: Fatty Acyls;Subclass: Fatty alcohols
INCHIKEY:  JPGYRFJJNVYGPI-UHFFFAOYNA-N
SMILES:  CCCCCC(O)CC(O)CC(=O)OC(CCCCC)CC(O)CC(=O)OCC(O)C(O)C(O)C(O)CO
RETENTIONTIME:  
CCS:  -1
IONMODE:  Negative
INSTRUMENTTYPE:  
INSTRUMENT:  Maxis II HD Q-TOF Bruker
COLLISIONENERGY:  
Comment:  DB#=CCMSLIB00000845497; origin=GNPS
Num Peaks:  14
149.03806	10.0
163.06163	170.0
167.10898	20.0
181.07143	470.0
185.11906	110.0
203.12744	1000.0
203.18146	20.0
207.00124	10.0
223.08006	90.0
245.13872	40.0
271.15445	20.0
371.20462	10.0
371.24704	30.0
389.25797	100.0

NAME:  NCGC00169102-02!2-[5-[2-[2-[5-[2-[2-[5-[2-[2-[5-(2-hydroxybutyl)oxolan-2-yl]propanoyloxy]propyl]oxolan-2-yl]propanoyloxy]propyl]oxolan-2-yl]propanoyloxy]propyl]oxolan-2-yl]propanoic acid
PRECURSORMZ:  767.45871579783
PRECURSORTYPE:  [M-H]-
FORMULA:  C41H68O13
Ontology: Kingdom: Organic compounds;Superclass: Organic acids and derivatives;Class: Carboxylic acids and derivatives;Subclass: Tetracarboxylic acids and derivatives
INCHIKEY:  VNBPNPCSBYXRNC-UHFFFAOYNA-N
SMILES:  CCC(O)CC1CCC(O1)C(C)C(=O)OC(C)CC1CCC(O1)C(C)C(=O)OC(C)CC1CCC(O1)C(C)C(=O)OC(C)CC1CCC(O1)C(C)C(O)=O
RETENTIONTIME:  
CCS:  -1
IONMODE:  Negative
INSTRUMENTTYPE:  
INSTRUMENT:  Maxis II HD Q-TOF Bruker
COLLISIONENERGY:  
Comment:  DB#=CCMSLIB00000845499; origin=GNPS
Num Peaks:  38
95.08502	50.0
101.05911	50.0
111.07967	80.0
114.87644	20.0
119.08525	30.0
121.0637	50.0
139.07558	50.0
139.1073	10.0
147.08049	30.0
155.05417	50.0
171.13913	310.0
183.10153	750.0
187.00049	20.0
197.11946	100.0
199.92963	10.0
200.8703	30.0
201.11185	370.0
215.12762	850.0
266.15799	30.0
353.2684	70.0
367.21011	70.0
367.23944	60.0
380.62231	20.0
381.11414	20.0
385.22351	150.0
386.22827	50.0
399.24069	630.0
400.24896	90.0
412.9906	20.0
551.33167	70.0
552.315	40.0
569.336	50.0
583.3504	520.0
584.36127	20.0
597.40002	10.0
767.45605	1000.0
768.46167	150.0
1130.62732	50.0

NAME:  NCGC00380083-01!(E)-3-[2,4-dihydroxy-5-(2-methylbut-3-en-2-yl)phenyl]-1-(4-methoxyphenyl)prop-2-en-1-one
PRECURSORMZ:  337.14453273583
PRECURSORTYPE:  [M-H]-
FORMULA:  C21H22O4
Ontology: Kingdom: Organic compounds;Superclass: Phenylpropanoids and polyketides;Class: Linear ;Subclass: Chalcones and dihydrochalcones
INCHIKEY:  TZHSNGXLLUGMMD-UHFFFAOYSA-N
SMILES:  COC1=CC=C(C=C1)C(=O)C=CC1=CC(=C(O)C=C1O)C(C)(C)C=C
RETENTIONTIME:  
CCS:  -1
IONMODE:  Negative
INSTRUMENTTYPE:  
INSTRUMENT:  Maxis II HD Q-TOF Bruker
COLLISIONENERGY:  
Comment:  DB#=CCMSLIB00000845501; origin=GNPS
Num Peaks:  5
108.02196	110.0
243.10678	80.0
305.09988	60.0
322.12128	30.0
337.14188	1000.0

NAME:  NCGC00380078-01!(12S,12aS,12bR)-4,9,12,12b-tetrahydroxy-2,11,12,12a-tetrahydro-1H-perylene-3,10-dione
PRECURSORMZ:  397.09289078283
PRECURSORTYPE:  [M+FA-H]-
FORMULA:  C20H16O6
Ontology: Kingdom: Organic compounds;Superclass: Benzenoids;Class: Perylenequinones;
INCHIKEY:  GJIALGLHOBXNAT-UHFFFAOYNA-N
SMILES:  OC1CC(=O)C2=C(O)C=CC3=C2C1C1(O)CCC(=O)C2=C(O)C=CC3=C12
RETENTIONTIME:  
CCS:  -1
IONMODE:  Negative
INSTRUMENTTYPE:  
INSTRUMENT:  Maxis II HD Q-TOF Bruker
COLLISIONENERGY:  
Comment:  DB#=CCMSLIB00000845504; origin=GNPS
Num Peaks:  6
263.07596	70.0
315.06537	1000.0
333.08478	550.0
351.08795	870.0
417.36572	170.0
1004.44824	40.0

NAME:  NCGC00384611-01!2-[2,6-dihydroxy-4-[(3R,4R)-3-[(4-hydroxybenzoyl)amino]azepan-4-yl]oxycarbonylbenzoyl]-3-hydroxybenzoic acid
PRECURSORMZ:  549.15146859283
PRECURSORTYPE:  [M-H]-
FORMULA:  C28H26N2O10
Ontology: Kingdom: Organic compounds;Superclass: Benzenoids;Class: Benzene and substituted derivatives;Subclass: Benzophenones
INCHIKEY:  XYUFCXJZFZPEJD-UHFFFAOYNA-N
SMILES:  OC(=O)C1=C(C(=O)C2=C(O)C=C(C=C2O)C(=O)OC2CCCNCC2NC(=O)C2=CC=C(O)C=C2)C(O)=CC=C1
RETENTIONTIME:  
CCS:  264.4211437
IONMODE:  Negative
INSTRUMENTTYPE:  
INSTRUMENT:  Maxis II HD Q-TOF Bruker
COLLISIONENERGY:  
Comment:  DB#=CCMSLIB00000845506; origin=GNPS
Num Peaks:  26
123.3162	40.0
134.05811	30.0
135.00896	20.0
153.02104	420.0
160.06734	20.0
161.02161	30.0
163.00258	1000.0
167.0462	30.0
179.00119	190.0
204.09926	30.0
211.04117	340.0
229.05078	590.0
231.11331	470.0
231.6174	30.0
232.93845	20.0
255.02982	970.0
273.05069	40.0
299.01941	80.0
302.18814	20.0
385.14789	20.0
411.10403	20.0
487.18219	20.0
505.15729	50.0
531.14508	100.0
535.40924	30.0
549.14746	30.0

NAME:  NCGC00169961-02!4-hydroxy-3-[(2E,6E)-4-hydroxy-3,7,11-trimethyldodeca-2,6,10-trienyl]benzoic acid
PRECURSORMZ:  357.20713299383
PRECURSORTYPE:  [M-H]-
FORMULA:  C22H30O4
Ontology: Kingdom: Organic compounds;Superclass: Lipids and lipid;Class: Prenol lipids;Subclass: Sesquiterpenoids
INCHIKEY:  LSQRGMPMJOCLHX-UHFFFAOYNA-N
SMILES:  CC(C)=CCCC(C)=CCC(O)C(C)=CCC1=CC(=CC=C1O)C(O)=O
RETENTIONTIME:  
CCS:  -1
IONMODE:  Negative
INSTRUMENTTYPE:  
INSTRUMENT:  Maxis II HD Q-TOF Bruker
COLLISIONENERGY:  
Comment:  DB#=CCMSLIB00000845508; origin=GNPS
Num Peaks:  12
106.04453	50.0
147.08125	480.0
150.02975	160.0
175.09091	110.0
182.02654	80.0
191.06827	420.0
216.08853	60.0
339.19934	290.0
355.76639	20.0
357.20651	1000.0
357.25739	150.0
948.71118	30.0

NAME:  NCGC00180317-02!1,7-bis(3,4-dihydroxyphenyl)heptan-3-yl acetate
PRECURSORMZ:  373.16566210483
PRECURSORTYPE:  [M-H]-
FORMULA:  C21H26O6
Ontology: Kingdom: Organic compounds;Superclass: Phenylpropanoids and polyketides;Class: Diarylheptanoids;Subclass: Linear diarylheptanoids
INCHIKEY:  UWNADLMLMRTPFL-UHFFFAOYNA-N
SMILES:  CC(=O)OC(CCCCC1=CC(O)=C(O)C=C1)CCC1=CC(O)=C(O)C=C1
RETENTIONTIME:  
CCS:  217.0760851
IONMODE:  Negative
INSTRUMENTTYPE:  
INSTRUMENT:  Maxis II HD Q-TOF Bruker
COLLISIONENERGY:  
Comment:  DB#=CCMSLIB00000845510; origin=GNPS
Num Peaks:  8
122.03537	230.0
286.15796	90.0
295.13297	150.0
310.98166	140.0
313.14423	980.0
313.74838	90.0
373.16452	1000.0
705.12549	40.0

NAME:  NCGC00179731-03!4-[5-[acetyl(hydroxy)amino]pentylamino]-2-[2-[5-[acetyl(hydroxy)amino]pentylamino]-2-oxoethyl]-2-hydroxy-4-oxobutanoic acid
PRECURSORMZ:  475.24095230283
PRECURSORTYPE:  [M-H]-
FORMULA:  C20H36N4O9
Ontology: Kingdom: Organic compounds;Superclass: Lipids and lipid;Class: Fatty Acyls;Subclass: Fatty acids and conjugates
INCHIKEY:  BPEXJHGGARTCIR-UHFFFAOYSA-N
SMILES:  CC(=O)N(O)CCCCCN=C(O)CC(O)(CC(O)=NCCCCCN(O)C(C)=O)C(O)=O
RETENTIONTIME:  
CCS:  228.3319871
IONMODE:  Negative
INSTRUMENTTYPE:  
INSTRUMENT:  Maxis II HD Q-TOF Bruker
COLLISIONENERGY:  
Comment:  DB#=CCMSLIB00000845512; origin=GNPS
Num Peaks:  22
110.027	50.0
133.83371	30.0
167.08276	30.0
187.1057	40.0
193.09668	80.0
193.24289	30.0
211.11372	40.0
228.75287	30.0
228.77831	30.0
228.99342	30.0
229.11972	530.0
231.65788	10.0
253.11951	920.0
255.08879	110.0
373.20166	30.0
413.23386	30.0
415.12802	50.0
415.22327	150.0
421.21063	10.0
439.22485	430.0
457.23138	50.0
475.24594	1000.0

NAME:  NCGC00179731-03!4-[5-[acetyl(hydroxy)amino]pentylamino]-2-[2-[5-[acetyl(hydroxy)amino]pentylamino]-2-oxoethyl]-2-hydroxy-4-oxobutanoic acid
PRECURSORMZ:  457.23038762283
PRECURSORTYPE:  [M-H2O-H]-
FORMULA:  C20H36N4O9
Ontology: Kingdom: Organic compounds;Superclass: Lipids and lipid;Class: Fatty Acyls;Subclass: Fatty acids and conjugates
INCHIKEY:  BPEXJHGGARTCIR-UHFFFAOYSA-N
SMILES:  CC(=O)N(O)CCCCCN=C(O)CC(O)(CC(O)=NCCCCCN(O)C(C)=O)C(O)=O
RETENTIONTIME:  
CCS:  -1
IONMODE:  Negative
INSTRUMENTTYPE:  
INSTRUMENT:  Maxis II HD Q-TOF Bruker
COLLISIONENERGY:  
Comment:  DB#=CCMSLIB00000845514; origin=GNPS
Num Peaks:  3
117.71021	50.0
253.11848	1000.0
439.21432	140.0

NAME:  NCGC00169586-02!7-methyl-1-[(2S,3R,4S,5S,6R)-3,4,5-trihydroxy-6-(hydroxymethyl)oxan-2-yl]oxy-1,4a,5,6,7,7a-hexahydrocyclopenta[c]pyran-4-carboxylic acid
PRECURSORMZ:  405.14023490083
PRECURSORTYPE:  [M+FA-H]-
FORMULA:  C16H24O9
Ontology: Kingdom: Organic compounds;Superclass: Lipids and lipid;Class: Prenol lipids;Subclass: Terpene glycosides
INCHIKEY:  DSXFHNSGLYXPNG-UHFFFAOYNA-N
SMILES:  CC1CCC2C1C(OC1OC(CO)C(O)C(O)C1O)OC=C2C(O)=O
RETENTIONTIME:  
CCS:  -1
IONMODE:  Negative
INSTRUMENTTYPE:  
INSTRUMENT:  Maxis II HD Q-TOF Bruker
COLLISIONENERGY:  
Comment:  DB#=CCMSLIB00000845515; origin=GNPS
Num Peaks:  7
99.29021	50.0
153.09685	560.0
181.07735	110.0
197.08148	570.0
359.14178	1000.0
1255.4812	430.0
1287.24084	80.0

NAME:  NCGC00386000-01!3-pentadecylbenzene-1,2-diol
PRECURSORMZ:  365.26973294683
PRECURSORTYPE:  [M+FA-H]-
FORMULA:  C21H36O2
Ontology: Kingdom: Organic compounds;Superclass: Benzenoids;Class: Phenols;Subclass: Benzenediols
INCHIKEY:  DQTMTQZSOJMZSF-UHFFFAOYSA-N
SMILES:  CCCCCCCCCCCCCCCC1=C(O)C(O)=CC=C1
RETENTIONTIME:  
CCS:  -1
IONMODE:  Negative
INSTRUMENTTYPE:  
INSTRUMENT:  Maxis II HD Q-TOF Bruker
COLLISIONENERGY:  
Comment:  DB#=CCMSLIB00000845518; origin=GNPS
Num Peaks:  5
319.2648	1000.0
322.63431	20.0
331.37115	20.0
364.2486	50.0
605.7851	60.0

NAME:  NCGC00347666-02!2,4-dihydroxy-6-methyl-3-[(2E,4E)-3-methyl-5-[(1R,2R,6R)-1,2,6-trimethyl-3-oxocyclohexyl]penta-2,4-dienyl]benzaldehyde
PRECURSORMZ:  369.20713299383
PRECURSORTYPE:  [M-H]-
FORMULA:  C23H30O4
Ontology: Kingdom: Organic compounds;Superclass: Organic oxygen compounds;Class: Organooxygen compounds;Subclass: Carbonyl compounds
INCHIKEY:  AQCKKGIVKOHRLM-UHFFFAOYNA-N
SMILES:  CC1CCC(=O)C(C)C1(C)C=CC(C)=CCC1=C(O)C=C(C)C(C=O)=C1O
RETENTIONTIME:  
CCS:  216.3059353
IONMODE:  Negative
INSTRUMENTTYPE:  
INSTRUMENT:  Maxis II HD Q-TOF Bruker
COLLISIONENERGY:  
Comment:  DB#=CCMSLIB00000845519; origin=GNPS
Num Peaks:  6
163.11182	60.0
175.03723	200.0
193.69736	10.0
201.05446	30.0
369.20795	1000.0
369.34613	70.0

NAME:  NCGC00179715-03!methyl 2-[[3-[(3,3-dimethyloxiran-2-yl)methyl]-4-hydroxyphenyl]methyl]-4-hydroxy-3-(4-hydroxyphenyl)-5-oxofuran-2-carboxylate
PRECURSORMZ:  485.14532028083
PRECURSORTYPE:  [M+FA-H]-
FORMULA:  C24H24O8
Ontology: Kingdom: Organic compounds;Superclass: Lipids and lipid;Class: Fatty Acyls;Subclass: Fatty acid esters
INCHIKEY:  FWHAYHIGJSFGKO-UHFFFAOYNA-N
SMILES:  COC(=O)C1(CC2=CC(CC3OC3(C)C)=C(O)C=C2)OC(=O)C(O)=C1C1=CC=C(O)C=C1
RETENTIONTIME:  
CCS:  -1
IONMODE:  Negative
INSTRUMENTTYPE:  
INSTRUMENT:  Maxis II HD Q-TOF Bruker
COLLISIONENERGY:  
Comment:  DB#=CCMSLIB00000845521; origin=GNPS
Num Peaks:  26
132.01462	70.0
145.02902	80.0
188.39954	30.0
189.0181	190.0
190.02368	30.0
199.47958	20.0
204.03961	220.0
236.0822	30.0
295.09244	30.0
308.07806	130.0
309.11893	30.0
349.14725	80.0
367.15579	160.0
377.14249	100.0
379.11911	1000.0
380.12646	990.0
380.30838	20.0
381.12332	30.0
383.44431	30.0
391.69443	30.0
395.15274	230.0
398.61099	50.0
412.11435	930.0
414.12149	20.0
439.13937	650.0
440.15259	20.0

NAME:  NCGC00384592-01!3-[(2S,3R,4S,5S,6R)-4,5-dihydroxy-6-(hydroxymethyl)-3-[(2S,3R,4S,5R)-3,4,5-trihydroxyoxan-2-yl]oxyoxan-2-yl]oxy-5,7-dihydroxy-2-(4-hydroxyphenyl)chromen-4-one
PRECURSORMZ:  579.13554374983
PRECURSORTYPE:  [M-H]-
FORMULA:  C26H28O15
Ontology: Kingdom: Organic compounds;Superclass: Phenylpropanoids and polyketides;Class: Flavonoids;Subclass: Flavonoid glycosides
INCHIKEY:  RXAXTTGJEMODPY-UHFFFAOYNA-N
SMILES:  OCC1OC(OC2=C(OC3=CC(O)=CC(O)=C3C2=O)C2=CC=C(O)C=C2)C(OC2OCC(O)C(O)C2O)C(O)C1O
RETENTIONTIME:  
CCS:  226.5006624
IONMODE:  Negative
INSTRUMENTTYPE:  
INSTRUMENT:  Maxis II HD Q-TOF Bruker
COLLISIONENERGY:  
Comment:  DB#=CCMSLIB00000845524; origin=GNPS
Num Peaks:  20
98.2348	50.0
145.02634	30.0
163.00691	40.0
164.43155	30.0
227.03503	100.0
228.04437	40.0
255.03444	140.0
256.03799	20.0
266.81857	30.0
281.59183	30.0
283.01749	30.0
283.04626	30.0
284.03491	1000.0
285.00204	10.0
285.03647	120.0
286.90353	20.0
393.69717	10.0
429.08679	30.0
579.13794	650.0
580.14502	20.0

NAME:  NCGC00384592-01!3-[(2S,3R,4S,5S,6R)-4,5-dihydroxy-6-(hydroxymethyl)-3-[(2S,3R,4S,5R)-3,4,5-trihydroxyoxan-2-yl]oxyoxan-2-yl]oxy-5,7-dihydroxy-2-(4-hydroxyphenyl)chromen-4-one
PRECURSORMZ:  625.14102274983
PRECURSORTYPE:  [M+FA-H]-
FORMULA:  C26H28O15
Ontology: Kingdom: Organic compounds;Superclass: Phenylpropanoids and polyketides;Class: Flavonoids;Subclass: Flavonoid glycosides
INCHIKEY:  RXAXTTGJEMODPY-UHFFFAOYNA-N
SMILES:  OCC1OC(OC2=C(OC3=CC(O)=CC(O)=C3C2=O)C2=CC=C(O)C=C2)C(OC2OCC(O)C(O)C2O)C(O)C1O
RETENTIONTIME:  
CCS:  -1
IONMODE:  Negative
INSTRUMENTTYPE:  
INSTRUMENT:  Maxis II HD Q-TOF Bruker
COLLISIONENERGY:  
Comment:  DB#=CCMSLIB00000845526; origin=GNPS
Num Peaks:  18
108.2143	20.0
163.00397	20.0
169.01303	30.0
172.60728	10.0
178.99767	20.0
186.69165	10.0
227.03551	110.0
229.71898	10.0
255.03482	60.0
256.03339	20.0
284.03528	770.0
285.03802	130.0
401.08289	10.0
429.08362	40.0
577.89435	10.0
579.13605	1000.0
580.13409	20.0
584.14246	10.0

NAME:  NCGC00347717-02!
PRECURSORMZ:  1077.57251675983
PRECURSORTYPE:  [M-H]-
FORMULA:  C51H82N8O17
Ontology: Kingdom: Organic compounds;Superclass: Organic acids and derivatives;Class: Carboxylic acids and derivatives;Subclass: Amino acids
INCHIKEY:  DFQUSLQYURJBIT-UHFFFAOYNA-N
SMILES:  CCC(C)CC(C)CCCCCCCCC(O)=NC1CC(O)C(O)N=C(O)C2C(O)C(C)CN2C(=O)C(N=C(O)C(N=C(O)C2CC(O)CN2C(=O)C(N=C1O)C(C)O)C(O)C(O)C1=CC=C(O)C=C1)C(O)CC(O)=N
RETENTIONTIME:  
CCS:  -1
IONMODE:  Negative
INSTRUMENTTYPE:  
INSTRUMENT:  Maxis II HD Q-TOF Bruker
COLLISIONENERGY:  
Comment:  DB#=CCMSLIB00000845528; origin=GNPS
Num Peaks:  230
73.04613	20.0
82.03091	30.0
83.03177	20.0
85.04598	40.0
86.02592	30.0
95.02745	70.0
96.04765	30.0
99.01814	120.0
110.02636	20.0
111.01965	20.0
112.05392	20.0
113.03671	100.0
121.04305	20.0
124.04185	160.0
125.03647	20.0
125.95985	20.0
128.04793	50.0
130.05968	240.0
133.06767	40.0
136.03418	20.0
138.01653	20.0
139.05147	30.0
142.05815	50.0
144.07465	20.0
150.01515	20.0
150.09439	20.0
151.03908	30.0
152.04457	20.0
153.03506	20.0
155.03087	30.0
156.03941	210.0
156.20291	20.0
157.05797	30.0
160.09334	20.0
164.03871	20.0
166.01215	10.0
166.05357	20.0
167.04468	90.0
168.0361	40.0
168.07346	30.0
169.06305	280.0
170.05461	30.0
172.07463	30.0
174.88309	20.0
178.03793	20.0
180.77997	10.0
181.06094	160.0
182.05229	50.0
182.10495	30.0
183.04688	30.0
184.07368	60.0
185.05658	10.0
186.04828	70.0
186.08994	190.0
186.15636	20.0
187.08063	140.0
190.06087	10.0
194.05531	20.0
195.04779	40.0
196.06998	20.0
197.06769	30.0
198.08876	20.0
200.10233	20.0
201.06961	20.0
201.11469	10.0
204.08159	20.0
207.04048	40.0
208.07286	60.0
209.06528	30.0
209.10367	20.0
210.0484	10.0
210.08206	30.0
212.0705	70.0
213.06149	320.0
214.05418	30.0
214.08595	70.0
217.06116	20.0
219.07802	40.0
220.0737	70.0
222.09106	20.0
224.06973	20.0
225.06348	80.0
225.10762	20.0
226.08517	80.0
229.0667	10.0
232.82292	30.0
234.00967	20.0
236.05336	20.0
237.08678	140.0
237.24231	40.0
238.09366	40.0
240.1064	20.0
242.07822	70.0
243.10822	160.0
245.08469	20.0
245.80807	30.0
251.08885	80.0
253.09427	50.0
257.12213	40.0
260.10162	20.0
260.4928	20.0
262.08261	30.0
262.98349	10.0
263.07016	10.0
263.49005	10.0
263.75824	20.0
265.1012	20.0
267.09726	30.0
269.08554	120.0
270.07837	20.0
271.10809	50.0
277.09387	60.0
280.10663	60.0
281.0881	90.0
282.06229	10.0
282.12048	130.0
283.11673	30.0
284.13135	20.0
286.08389	30.0
289.10114	30.0
294.11154	50.0
294.24014	40.0
295.10358	40.0
298.10492	110.0
299.1004	130.0
300.13211	990.0
301.1283	130.0
303.11884	20.0
304.10001	90.0
308.11664	40.0
310.17056	20.0
312.12228	20.0
320.09631	50.0
324.09171	10.0
326.11023	80.0
335.10056	10.0
336.09665	10.0
337.08197	30.0
337.11316	20.0
338.11023	40.0
339.14114	20.0
345.08163	10.0
352.16772	20.0
353.10614	40.0
353.17062	20.0
354.1095	20.0
355.12051	70.0
356.11197	60.0
357.14938	140.0
358.14413	30.0
362.29138	20.0
366.15604	20.0
368.42276	30.0
369.1499	10.0
370.12598	20.0
370.17224	40.0
373.22345	20.0
374.14172	10.0
383.13855	20.0
391.18121	20.0
405.1297	20.0
409.15109	20.0
410.16052	10.0
412.1398	10.0
414.12994	10.0
416.1459	40.0
423.16101	20.0
423.31921	30.0
428.19888	10.0
434.15836	20.0
434.83334	20.0
438.14679	10.0
439.15787	240.0
440.16095	10.0
442.1846	20.0
446.16986	30.0
451.159	210.0
464.19305	20.0
467.15494	10.0
469.16943	1000.0
470.17056	80.0
476.17017	20.0
485.17255	20.0
486.17178	10.0
486.21948	70.0
488.18646	10.0
496.15225	10.0
503.20135	10.0
504.19525	20.0
506.78342	20.0
509.22275	20.0
521.19757	120.0
521.26678	20.0
522.20325	30.0
534.34149	10.0
538.19525	30.0
539.2049	420.0
540.2168	40.0
552.43243	10.0
554.34271	10.0
556.20386	20.0
581.2179	20.0
603.1853	10.0
621.20325	20.0
655.23151	70.0
662.42462	10.0
691.27222	20.0
692.2821	10.0
703.26062	10.0
706.4079	30.0
714.44037	20.0
720.43365	10.0
723.39935	20.0
724.4328	190.0
725.42975	80.0
776.44574	20.0
792.41931	20.0
794.46625	240.0
794.57227	10.0
795.46997	60.0
841.43921	20.0
876.47577	10.0
910.46008	30.0
910.5072	30.0
944.49731	10.0
946.52649	80.0
947.17419	10.0
947.55347	10.0
963.5224	10.0
1033.54602	20.0

NAME:  NCGC00347717-02!
PRECURSORMZ:  1123.57799575983
PRECURSORTYPE:  [M+FA-H]-
FORMULA:  C51H82N8O17
Ontology: Kingdom: Organic compounds;Superclass: Organic acids and derivatives;Class: Carboxylic acids and derivatives;Subclass: Amino acids
INCHIKEY:  DFQUSLQYURJBIT-UHFFFAOYNA-N
SMILES:  CCC(C)CC(C)CCCCCCCCC(O)=NC1CC(O)C(O)N=C(O)C2C(O)C(C)CN2C(=O)C(N=C(O)C(N=C(O)C2CC(O)CN2C(=O)C(N=C1O)C(C)O)C(O)C(O)C1=CC=C(O)C=C1)C(O)CC(O)=N
RETENTIONTIME:  
CCS:  -1
IONMODE:  Negative
INSTRUMENTTYPE:  
INSTRUMENT:  Maxis II HD Q-TOF Bruker
COLLISIONENERGY:  
Comment:  DB#=CCMSLIB00000845529; origin=GNPS
Num Peaks:  231
72.68899	20.0
85.52771	10.0
95.02763	20.0
96.00858	20.0
96.04773	10.0
98.02586	10.0
99.02058	70.0
100.04685	20.0
108.05125	20.0
110.08669	10.0
111.01292	50.0
111.05501	20.0
113.03311	50.0
122.02558	20.0
124.03962	80.0
125.0337	40.0
126.05984	20.0
128.03918	10.0
129.06369	50.0
130.06052	70.0
138.02097	10.0
140.03534	30.0
148.0434	10.0
149.44901	10.0
150.02333	10.0
152.03354	10.0
152.8242	10.0
154.04953	10.0
155.04495	40.0
156.04179	150.0
157.06087	10.0
158.04623	10.0
158.77702	10.0
161.04228	10.0
161.07497	10.0
163.05421	40.0
165.06262	10.0
165.95488	10.0
167.04268	50.0
167.07202	20.0
167.10172	10.0
168.03278	110.0
168.07849	30.0
169.06801	180.0
170.05742	70.0
170.09337	10.0
172.04314	20.0
172.06525	30.0
180.07263	30.0
181.05942	50.0
184.07106	10.0
184.1057	10.0
185.05206	20.0
186.04831	30.0
186.08752	130.0
187.0838	120.0
188.03737	10.0
190.04037	20.0
193.06331	20.0
194.09705	20.0
197.06471	20.0
197.08838	20.0
201.0721	30.0
203.16267	10.0
204.09422	20.0
207.04597	20.0
207.07292	10.0
210.05008	10.0
210.58961	10.0
212.06993	30.0
213.06189	230.0
214.08868	20.0
220.07213	10.0
221.10809	20.0
222.05685	10.0
224.09502	20.0
224.17021	10.0
225.06714	20.0
225.09787	20.0
226.08058	60.0
227.08127	30.0
228.0618	30.0
230.04521	10.0
237.09029	90.0
238.09065	30.0
239.0793	10.0
239.1192	30.0
241.10211	20.0
242.07819	60.0
243.10901	180.0
244.78152	10.0
247.04277	20.0
251.47757	10.0
251.73483	10.0
253.09749	10.0
254.13545	20.0
255.11545	10.0
263.05664	40.0
266.07327	20.0
269.0835	70.0
271.09991	40.0
276.09091	20.0
277.0965	20.0
281.07993	100.0
282.07898	20.0
282.12152	110.0
283.10654	60.0
286.08643	10.0
294.24017	20.0
295.10184	30.0
298.10245	70.0
299.09891	90.0
299.38486	10.0
300.04828	10.0
300.13177	630.0
301.1333	20.0
302.06302	20.0
303.08661	20.0
304.09723	40.0
309.11603	20.0
310.11786	10.0
312.12299	10.0
320.09476	20.0
322.27808	20.0
325.11652	10.0
326.11917	10.0
327.10458	20.0
328.12195	10.0
330.0979	10.0
337.1091	20.0
338.10818	70.0
339.09186	10.0
339.12561	20.0
340.12845	10.0
351.10696	20.0
351.13898	10.0
352.159	20.0
353.10675	80.0
355.12048	30.0
355.15015	20.0
356.12015	40.0
357.15488	200.0
358.13135	20.0
358.15659	30.0
360.13409	10.0
361.29456	10.0
366.1543	10.0
366.27747	10.0
370.17651	100.0
373.15988	10.0
374.13141	20.0
377.11588	40.0
378.21216	10.0
385.13971	10.0
395.12756	40.0
396.14395	10.0
400.12094	20.0
403.13107	20.0
404.15628	20.0
405.14178	20.0
411.15878	10.0
421.14404	20.0
423.16351	10.0
428.15192	30.0
439.16055	270.0
440.16052	40.0
441.17487	60.0
443.23642	10.0
451.1557	120.0
452.16721	50.0
462.3158	20.0
468.49042	20.0
469.16946	1000.0
470.17361	160.0
471.18118	20.0
472.3497	10.0
486.19791	30.0
491.18036	20.0
492.37439	10.0
503.20251	20.0
521.19556	150.0
522.22131	50.0
530.17609	10.0
536.32208	10.0
537.18225	10.0
537.35345	10.0
539.20892	580.0
540.21136	110.0
543.21564	10.0
553.38147	10.0
579.25452	20.0
597.21716	10.0
655.23596	80.0
656.23071	20.0
675.21729	20.0
691.25793	20.0
691.29486	20.0
706.41791	20.0
718.5578	10.0
722.45276	10.0
724.42194	290.0
724.51245	10.0
725.35529	10.0
725.41339	30.0
776.46613	50.0
794.46735	430.0
795.47064	130.0
796.49768	10.0
816.68457	10.0
834.44989	10.0
840.44751	10.0
852.48108	20.0
853.46973	10.0
876.47729	20.0
877.45654	10.0
882.51337	10.0
910.49451	60.0
911.50366	50.0
912.50616	20.0
928.51721	10.0
946.51666	270.0
946.5929	20.0
947.50739	50.0
948.53766	30.0
951.70679	10.0
997.52625	10.0
1033.54626	30.0
1034.57422	10.0
1035.57214	20.0
1077.57007	10.0
1956.66016	20.0

NAME:  NCGC00180304-03!(E)-1-[2,4-dihydroxy-6-methoxy-3-(3-methylbut-2-enyl)phenyl]-3-(4-hydroxyphenyl)prop-2-en-1-one
PRECURSORMZ:  353.13944735583
PRECURSORTYPE:  [M-H]-
FORMULA:  C21H22O5
Ontology: Kingdom: Organic compounds;Superclass: Phenylpropanoids and polyketides;Class: Linear ;Subclass: Chalcones and dihydrochalcones
INCHIKEY:  ORXQGKIUCDPEAJ-UHFFFAOYSA-N
SMILES:  COC1=C(C(=O)C=CC2=CC=C(O)C=C2)C(O)=C(CC=C(C)C)C(O)=C1
RETENTIONTIME:  
CCS:  186.297841
IONMODE:  Negative
INSTRUMENTTYPE:  
INSTRUMENT:  Maxis II HD Q-TOF Bruker
COLLISIONENERGY:  
Comment:  DB#=CCMSLIB00000845531; origin=GNPS
Num Peaks:  8
119.0518	780.0
165.09035	240.0
175.04367	180.0
233.07915	610.0
251.09039	160.0
295.05289	170.0
352.43323	100.0
353.13843	1000.0

NAME:  NCGC00385511-01!3-[(2R,3S)-5-hydroxy-2,3,8,8-tetramethyl-4-oxo-2,3-dihydropyrano[2,3-h]chromen-6-yl]hexanoic acid
PRECURSORMZ:  387.18131216983
PRECURSORTYPE:  [M-H]-
FORMULA:  C22H28O6
Ontology: Kingdom: Organic compounds;Superclass: Organoheterocyclic compounds;Class: Benzopyrans;
INCHIKEY:  MXFUJXIOAUPXPT-UHFFFAOYNA-N
SMILES:  CCCC(CC(O)=O)C1=C(O)C2=C(OC(C)C(C)C2=O)C2=C1OC(C)(C)C=C2
RETENTIONTIME:  
CCS:  210.9711596
IONMODE:  Negative
INSTRUMENTTYPE:  
INSTRUMENT:  Maxis II HD Q-TOF Bruker
COLLISIONENERGY:  
Comment:  DB#=CCMSLIB00000845533; origin=GNPS
Num Peaks:  6
273.11792	30.0
341.81046	30.0
343.19141	240.0
369.17505	100.0
387.18219	1000.0
388.18045	30.0

NAME:  NCGC00179135-03![(2R,3R)-2-(3,4-dihydroxyphenyl)-5,7-dihydroxy-3,4-dihydro-2H-chromen-3-yl] 3,4,5-trihydroxybenzoate
PRECURSORMZ:  441.08272032783
PRECURSORTYPE:  [M-H]-
FORMULA:  C22H18O10
Ontology: Kingdom: Organic compounds;Superclass: Phenylpropanoids and polyketides;Class: Flavonoids;Subclass: Flavans
INCHIKEY:  LSHVYAFMTMFKBA-UHFFFAOYNA-N
SMILES:  OC1=CC(O)=C2CC(OC(=O)C3=CC(O)=C(O)C(O)=C3)C(OC2=C1)C1=CC(O)=C(O)C=C1
RETENTIONTIME:  
CCS:  202.3428546
IONMODE:  Negative
INSTRUMENTTYPE:  
INSTRUMENT:  Maxis II HD Q-TOF Bruker
COLLISIONENERGY:  
Comment:  DB#=CCMSLIB00000845536; origin=GNPS
Num Peaks:  15
125.02351	630.0
153.97112	130.0
168.00467	110.0
169.01616	1000.0
170.51079	70.0
174.49261	70.0
179.03526	170.0
185.05978	130.0
221.08421	170.0
243.06245	230.0
245.07417	40.0
271.05847	220.0
273.71054	80.0
289.07028	580.0
441.08212	190.0

NAME:  NCGC00179135-03![(2R,3R)-2-(3,4-dihydroxyphenyl)-5,7-dihydroxy-3,4-dihydro-2H-chromen-3-yl] 3,4,5-trihydroxybenzoate
PRECURSORMZ:  487.08819932783
PRECURSORTYPE:  [M+FA-H]-
FORMULA:  C22H18O10
Ontology: Kingdom: Organic compounds;Superclass: Phenylpropanoids and polyketides;Class: Flavonoids;Subclass: Flavans
INCHIKEY:  LSHVYAFMTMFKBA-UHFFFAOYNA-N
SMILES:  OC1=CC(O)=C2CC(OC(=O)C3=CC(O)=C(O)C(O)=C3)C(OC2=C1)C1=CC(O)=C(O)C=C1
RETENTIONTIME:  
CCS:  -1
IONMODE:  Negative
INSTRUMENTTYPE:  
INSTRUMENT:  Maxis II HD Q-TOF Bruker
COLLISIONENERGY:  
Comment:  DB#=CCMSLIB00000845538; origin=GNPS
Num Peaks:  24
87.10538	30.0
109.02679	70.0
123.00832	40.0
124.01539	70.0
125.0235	80.0
148.65294	10.0
159.04086	40.0
168.00743	30.0
169.01323	1000.0
193.01086	30.0
205.05943	60.0
245.0825	30.0
253.07111	40.0
259.05612	30.0
271.05917	20.0
289.07022	440.0
303.0495	30.0
437.1113	30.0
438.84708	10.0
441.07947	360.0
441.28589	10.0
441.92542	20.0
442.07477	20.0
444.10757	20.0

NAME:  NCGC00385204-01!5-hydroxy-2-[2-hydroxy-3-[(2S,3R,4S,5S,6R)-3,4,5-trihydroxy-6-(hydroxymethyl)oxan-2-yl]oxyphenyl]-7,8-dimethoxychromen-4-one
PRECURSORMZ:  491.11949976083
PRECURSORTYPE:  [M-H]-
FORMULA:  C23H24O12
Ontology: Kingdom: Organic compounds;Superclass: Phenylpropanoids and polyketides;Class: Flavonoids;Subclass: Flavonoid glycosides
INCHIKEY:  JCUIPEIMZRLNKQ-UHFFFAOYNA-N
SMILES:  COC1=C(OC)C2=C(C(O)=C1)C(=O)C=C(O2)C1=C(O)C(OC2OC(CO)C(O)C(O)C2O)=CC=C1
RETENTIONTIME:  
CCS:  234.4659996
IONMODE:  Negative
INSTRUMENTTYPE:  
INSTRUMENT:  Maxis II HD Q-TOF Bruker
COLLISIONENERGY:  
Comment:  DB#=CCMSLIB00000845539; origin=GNPS
Num Peaks:  28
124.99374	10.0
150.99931	20.0
173.16321	10.0
184.29976	20.0
193.0112	30.0
201.01802	80.0
213.03719	20.0
227.05124	20.0
237.02652	10.0
255.03227	20.0
257.04611	20.0
270.01929	10.0
271.02014	20.0
298.00888	20.0
299.01581	190.0
313.00836	20.0
314.04788	120.0
328.0546	50.0
328.59137	10.0
329.06656	1000.0
331.93298	20.0
341.67773	10.0
353.01776	20.0
353.06671	20.0
356.04593	10.0
476.09851	10.0
491.12119	430.0
1942.79956	40.0

NAME:  NCGC00385194-01!2-(3,4-dihydroxyphenyl)-5-hydroxy-7-[(2S,3R,4S,5S,6R)-3,4,5-trihydroxy-6-(hydroxymethyl)oxan-2-yl]oxy-3-[(2S,3R,4R,5R,6S)-3,4,5-trihydroxy-6-methyloxan-2-yl]oxychromen-4-one
PRECURSORMZ:  655.15158743383
PRECURSORTYPE:  [M+FA-H]-
FORMULA:  C27H30O16
Ontology: Kingdom: Organic compounds;Superclass: Phenylpropanoids and polyketides;Class: Flavonoids;Subclass: Flavonoid glycosides
INCHIKEY:  MCTZMXCUYPDYNE-UHFFFAOYNA-N
SMILES:  CC1OC(OC2=C(OC3=CC(OC4OC(CO)C(O)C(O)C4O)=CC(O)=C3C2=O)C2=CC(O)=C(O)C=C2)C(O)C(O)C1O
RETENTIONTIME:  
CCS:  -1
IONMODE:  Negative
INSTRUMENTTYPE:  
INSTRUMENT:  Maxis II HD Q-TOF Bruker
COLLISIONENERGY:  
Comment:  DB#=CCMSLIB00000845541; origin=GNPS
Num Peaks:  13
127.21577	170.0
173.01677	260.0
299.02258	460.0
300.02338	420.0
301.03229	900.0
447.10242	200.0
462.07986	430.0
463.0827	660.0
465.5762	150.0
482.58939	60.0
489.10312	110.0
609.15247	1000.0
610.1637	280.0

NAME:  NCGC00347387-02!1,3,6-trihydroxy-5-methoxy-2-[(2S,3R,4R,5S,6R)-3,4,5-trihydroxy-6-(hydroxymethyl)oxan-2-yl]xanthen-9-one
PRECURSORMZ:  435.09328501183
PRECURSORTYPE:  [M-H]-
FORMULA:  C20H20O11
Ontology: Kingdom: Organic compounds;Superclass: Organoheterocyclic compounds;Class: Benzopyrans;
INCHIKEY:  MTQVPZUZBBTLNO-UHFFFAOYNA-N
SMILES:  COC1=C(O)C=CC2=C1OC1=C(C(O)=C(C3OC(CO)C(O)C(O)C3O)C(O)=C1)C2=O
RETENTIONTIME:  
CCS:  200.7140319
IONMODE:  Negative
INSTRUMENTTYPE:  
INSTRUMENT:  Maxis II HD Q-TOF Bruker
COLLISIONENERGY:  
Comment:  DB#=CCMSLIB00000845544; origin=GNPS
Num Peaks:  19
259.04251	60.0
272.03345	510.0
282.01468	30.0
287.01862	90.0
300.0235	70.0
301.0484	20.0
315.05249	1000.0
315.24417	20.0
318.24005	30.0
327.05481	20.0
345.06601	310.0
357.06396	80.0
387.07468	50.0
389.09171	40.0
420.06635	30.0
434.96857	50.0
435.08826	210.0
436.09216	20.0
438.76932	40.0

NAME:  NCGC00385367-01!5,7-dihydroxy-2-(4-hydroxy-3-methoxyphenyl)-6-methoxy-3-[(2S,3R,4S,5S,6R)-3,4,5-trihydroxy-6-[[(2R,3R,4S,5S,6R)-3,4,5-trihydroxy-6-(hydroxymethyl)oxan-2-yl]oxymethyl]oxan-2-yl]oxychromen-4-one
PRECURSORMZ:  669.16723780283
PRECURSORTYPE:  [M-H]-
FORMULA:  C29H34O18
Ontology: Kingdom: Organic compounds;Superclass: Phenylpropanoids and polyketides;Class: Flavonoids;Subclass: Flavonoid glycosides
INCHIKEY:  ZZNVCZGRNCQHCQ-UHFFFAOYNA-N
SMILES:  COC1=C(O)C=CC(=C1)C1=C(OC2OC(COC3OC(CO)C(O)C(O)C3O)C(O)C(O)C2O)C(=O)C2=C(O1)C=C(O)C(OC)=C2O
RETENTIONTIME:  
CCS:  281.0218857
IONMODE:  Negative
INSTRUMENTTYPE:  
INSTRUMENT:  Maxis II HD Q-TOF Bruker
COLLISIONENERGY:  
Comment:  DB#=CCMSLIB00000845545; origin=GNPS
Num Peaks:  10
165.99423	260.0
166.05609	60.0
187.13556	110.0
258.0209	120.0
285.06018	180.0
287.02124	110.0
302.04636	110.0
329.04105	70.0
345.06168	1000.0
669.1701	400.0

NAME:  NCGC00180365-02![6-[2-(3,4-dihydroxyphenyl)ethoxy]-2-(hydroxymethyl)-4-(3,4,5-trihydroxy-6-methyloxan-2-yl)oxy-5-(3,4,5-trihydroxyoxan-2-yl)oxyoxan-3-yl] (E)-3-(3,4-dihydroxyphenyl)prop-2-enoate
PRECURSORMZ:  755.24040274483
PRECURSORTYPE:  [M-H]-
FORMULA:  C34H44O19
Ontology: Kingdom: Organic compounds;Superclass: Organic oxygen compounds;Class: Organooxygen compounds;Subclass: Carbohydrates and carbohydrate conjugates
INCHIKEY:  HZUURLOSYMEMET-UHFFFAOYNA-N
SMILES:  CC1OC(OC2C(OC(=O)C=CC3=CC(O)=C(O)C=C3)C(CO)OC(OCCC3=CC(O)=C(O)C=C3)C2OC2OCC(O)C(O)C2O)C(O)C(O)C1O
RETENTIONTIME:  
CCS:  279.6695212
IONMODE:  Negative
INSTRUMENTTYPE:  
INSTRUMENT:  Maxis II HD Q-TOF Bruker
COLLISIONENERGY:  
Comment:  DB#=CCMSLIB00000845547; origin=GNPS
Num Peaks:  23
89.02103	30.0
125.02287	30.0
132.02141	20.0
133.03032	160.0
134.0482	10.0
135.04424	100.0
149.04457	40.0
153.05476	40.0
161.02338	1000.0
162.02321	40.0
179.03438	20.0
191.05566	30.0
221.07124	10.0
243.06738	20.0
275.06992	20.0
315.11142	10.0
429.14291	20.0
447.15112	20.0
461.17114	30.0
593.20807	320.0
594.22119	10.0
755.23956	860.0
756.23804	110.0

NAME:  NCGC00380495-01!3-[(2S,3R,4S,5S,6R)-4,5-dihydroxy-3-[(2R,3R,4R,5R,6S)-3,4,5-trihydroxy-6-methyloxan-2-yl]oxy-6-[[(2R,3R,4R,5R,6S)-3,4,5-trihydroxy-6-methyloxan-2-yl]oxymethyl]oxan-2-yl]oxy-5,7-dihydroxy-2-(4-hydroxy-3-methoxyphenyl)-6-methoxychromen-4-one
PRECURSORMZ:  799.23023198483
PRECURSORTYPE:  [M-H]-
FORMULA:  C35H44O21
Ontology: Kingdom: Organic compounds;Superclass: Phenylpropanoids and polyketides;Class: Flavonoids;Subclass: Flavonoid glycosides
INCHIKEY:  SEYOLRVULPTURM-UHFFFAOYNA-N
SMILES:  COC1=C(O)C=CC(=C1)C1=C(OC2OC(COC3OC(C)C(O)C(O)C3O)C(O)C(O)C2OC2OC(C)C(O)C(O)C2O)C(=O)C2=C(O1)C=C(O)C(OC)=C2O
RETENTIONTIME:  
CCS:  -1
IONMODE:  Negative
INSTRUMENTTYPE:  
INSTRUMENT:  Maxis II HD Q-TOF Bruker
COLLISIONENERGY:  
Comment:  DB#=CCMSLIB00000845550; origin=GNPS
Num Peaks:  42
72.67668	10.0
109.99821	10.0
148.01654	10.0
165.98874	20.0
170.81105	10.0
176.00908	10.0
176.80995	10.0
178.99245	40.0
181.01349	10.0
199.04291	10.0
202.02576	10.0
209.0195	20.0
219.07379	10.0
242.02722	10.0
247.88464	10.0
258.01437	90.0
270.04196	10.0
272.035	10.0
274.24841	20.0
285.0444	20.0
286.01273	160.0
287.02148	50.0
301.03619	140.0
302.0437	50.0
314.00815	50.0
315.04559	10.0
317.05899	20.0
329.03265	770.0
330.03632	150.0
340.14902	10.0
343.03635	10.0
344.05502	920.0
345.06552	280.0
357.18112	10.0
381.26312	10.0
381.80978	10.0
386.07816	20.0
768.25989	20.0
784.22595	20.0
799.22919	1000.0
800.2475	120.0
946.37408	10.0

NAME:  NCGC00380496-01!7-[(2S,3R,4S,5S,6R)-4,5-dihydroxy-6-(hydroxymethyl)-3-[(2S,3R,4R,5R,6S)-3,4,5-trihydroxy-6-methyloxan-2-yl]oxyoxan-2-yl]oxy-5-hydroxy-2-(4-hydroxyphenyl)-3-[(2S,3R,4S,5S,6R)-3,4,5-trihydroxy-6-[[(2S,3R,4R,5R,6S)-3,4,5-trihydroxy-6-methyloxan-2-yl]oxymethyl]oxan-2-yl]oxychromen-4-one
PRECURSORMZ:  901.26192603783
PRECURSORTYPE:  [M-H]-
FORMULA:  C39H50O24
Ontology: Kingdom: Organic compounds;Superclass: Phenylpropanoids and polyketides;Class: Flavonoids;Subclass: Flavonoid glycosides
INCHIKEY:  UKLPMOHKLUPGON-UHFFFAOYNA-N
SMILES:  CC1OC(OCC2OC(OC3=C(OC4=CC(OC5OC(CO)C(O)C(O)C5OC5OC(C)C(O)C(O)C5O)=CC(O)=C4C3=O)C3=CC=C(O)C=C3)C(O)C(O)C2O)C(O)C(O)C1O
RETENTIONTIME:  
CCS:  -1
IONMODE:  Negative
INSTRUMENTTYPE:  
INSTRUMENT:  Maxis II HD Q-TOF Bruker
COLLISIONENERGY:  
Comment:  DB#=CCMSLIB00000845551; origin=GNPS
Num Peaks:  31
101.02573	20.0
169.01376	10.0
197.02937	10.0
199.03761	10.0
227.03326	80.0
253.05867	10.0
255.02861	100.0
256.02298	30.0
257.04205	20.0
258.05756	20.0
283.02527	470.0
284.03375	580.0
285.03632	220.0
286.02786	20.0
287.06033	10.0
296.50757	20.0
309.04419	30.0
327.04956	10.0
357.06396	10.0
387.49451	20.0
446.03671	20.0
446.08813	190.0
447.09418	60.0
575.13342	20.0
739.21252	1000.0
740.21124	190.0
744.49078	10.0
781.22711	10.0
901.25037	80.0
902.27441	30.0
903.25922	10.0

NAME:  NCGC00179860-02!6-[(3R,4S,5S,7R)-7-[(2S,3S,5S)-5-ethyl-5-[(2R,5R,6S)-5-ethyl-5-hydroxy-6-methyloxan-2-yl]-3-methyloxolan-2-yl]-4-hydroxy-3,5-dimethyl-6-oxononyl]-2-hydroxy-3-methylbenzoic acid
PRECURSORMZ:  589.37459224683
PRECURSORTYPE:  [M-H]-
FORMULA:  C34H54O8
Ontology: Kingdom: Organic compounds;Superclass: Lipids and lipid;Class: Prenol lipids;Subclass: Terpene glycosides
INCHIKEY:  BBMULGJBVDDDNI-UHFFFAOYNA-N
SMILES:  CCC(C1OC(CC)(CC1C)C1CCC(O)(CC)C(C)O1)C(=O)C(C)C(O)C(C)CCC1=C(C(O)=O)C(O)=C(C)C=C1
RETENTIONTIME:  
CCS:  269.9692175
IONMODE:  Negative
INSTRUMENTTYPE:  
INSTRUMENT:  Maxis II HD Q-TOF Bruker
COLLISIONENERGY:  
Comment:  DB#=CCMSLIB00000845553; origin=GNPS
Num Peaks:  16
99.08202	20.0
119.84342	10.0
121.06358	20.0
153.12511	20.0
157.06239	10.0
173.11121	20.0
189.09706	20.0
191.10706	120.0
235.09618	660.0
282.00992	10.0
327.23514	30.0
353.2561	10.0
353.29248	20.0
589.37329	1000.0
589.74042	10.0
589.90051	10.0

NAME:  NCGC00179935-02!(5S)-1,7-bis(3,4-dihydroxyphenyl)-5-[(2S,3R,4S,5R)-3,4,5-trihydroxyoxan-2-yl]oxyheptan-3-one
PRECURSORMZ:  477.17662071383
PRECURSORTYPE:  [M-H]-
FORMULA:  C24H30O10
Ontology: Kingdom: Organic compounds;Superclass: Phenylpropanoids and polyketides;Class: Diarylheptanoids;Subclass: Linear diarylheptanoids
INCHIKEY:  AQRNEKDRSXYJIN-UHFFFAOYNA-N
SMILES:  OC1COC(OC(CCC2=CC(O)=C(O)C=C2)CC(=O)CCC2=CC(O)=C(O)C=C2)C(O)C1O
RETENTIONTIME:  
CCS:  225.1051595
IONMODE:  Negative
INSTRUMENTTYPE:  
INSTRUMENT:  Maxis II HD Q-TOF Bruker
COLLISIONENERGY:  
Comment:  DB#=CCMSLIB00000845555; origin=GNPS
Num Peaks:  12
109.02827	10.0
121.03099	110.0
122.55554	20.0
128.09036	20.0
128.94623	20.0
131.1102	10.0
179.06857	20.0
205.09198	200.0
206.08257	20.0
257.91617	30.0
327.12549	1000.0
477.17746	170.0

NAME:  NCGC00385498-01!3-[[12-acetyloxy-17-(2,5-dihydroxy-6-methylhept-6-en-2-yl)-17-hydroxy-4,4,8,10,14-pentamethyl-1,2,3,5,6,7,9,11,12,13,15,16-dodecahydrocyclopenta[a]phenanthren-3-yl]oxy]-3-oxopropanoic acid
PRECURSORMZ:  619.38515693083
PRECURSORTYPE:  [M-H]-
FORMULA:  C35H56O9
Ontology: Kingdom: Organic compounds;Superclass: Lipids and lipid;Class: Prenol lipids;Subclass: Triterpenoids
INCHIKEY:  RSTYWOGTSWZRCI-UHFFFAOYNA-N
SMILES:  CC(=C)C(O)CCC(C)(O)C1(O)CCC2(C)C1C(CC1C3(C)CCC(OC(=O)CC(O)=O)C(C)(C)C3CCC21C)OC(C)=O
RETENTIONTIME:  
CCS:  264.8820375
IONMODE:  Negative
INSTRUMENTTYPE:  
INSTRUMENT:  Maxis II HD Q-TOF Bruker
COLLISIONENERGY:  
Comment:  DB#=CCMSLIB00000845557; origin=GNPS
Num Peaks:  12
365.27896	60.0
373.27176	20.0
393.3024	40.0
457.33688	30.0
491.38043	1000.0
491.6467	40.0
492.36545	40.0
505.44278	10.0
524.01038	20.0
533.38928	20.0
575.43121	20.0
686.2475	30.0

NAME:  NCGC00385498-01!3-[[12-acetyloxy-17-(2,5-dihydroxy-6-methylhept-6-en-2-yl)-17-hydroxy-4,4,8,10,14-pentamethyl-1,2,3,5,6,7,9,11,12,13,15,16-dodecahydrocyclopenta[a]phenanthren-3-yl]oxy]-3-oxopropanoic acid
PRECURSORMZ:  665.39063593083
PRECURSORTYPE:  [M+FA-H]-
FORMULA:  C35H56O9
Ontology: Kingdom: Organic compounds;Superclass: Lipids and lipid;Class: Prenol lipids;Subclass: Triterpenoids
INCHIKEY:  RSTYWOGTSWZRCI-UHFFFAOYNA-N
SMILES:  CC(=C)C(O)CCC(C)(O)C1(O)CCC2(C)C1C(CC1C3(C)CCC(OC(=O)CC(O)=O)C(C)(C)C3CCC21C)OC(C)=O
RETENTIONTIME:  
CCS:  -1
IONMODE:  Negative
INSTRUMENTTYPE:  
INSTRUMENT:  Maxis II HD Q-TOF Bruker
COLLISIONENERGY:  
Comment:  DB#=CCMSLIB00000845559; origin=GNPS
Num Peaks:  11
99.04783	10.0
125.10051	10.0
141.09169	10.0
255.30348	20.0
347.26294	30.0
353.26941	30.0
391.27896	20.0
457.34686	10.0
491.3754	1000.0
533.38007	40.0
575.39282	20.0

NAME:  NCGC00384996-01!
PRECURSORMZ:  427.10345577183
PRECURSORTYPE:  [M-H]-
FORMULA:  C22H20O9
Ontology: Kingdom: Organic compounds;Superclass: Organoheterocyclic compounds;Class: Benzopyrans;
INCHIKEY:  DTAYYQSEJFBYEB-UHFFFAOYNA-N
SMILES:  CC(C)(O)CC(O)C1=C2OC3=CC4=C(C(O)=C3C(=O)C2=C(O)C=C1)C1(O)C=COC1O4
RETENTIONTIME:  
CCS:  -1
IONMODE:  Negative
INSTRUMENTTYPE:  
INSTRUMENT:  Maxis II HD Q-TOF Bruker
COLLISIONENERGY:  
Comment:  DB#=CCMSLIB00000845562; origin=GNPS
Num Peaks:  15
307.07199	80.0
308.86316	20.0
309.0441	30.0
310.76624	20.0
323.05466	190.0
351.04938	140.0
367.08121	40.0
385.09698	50.0
399.1073	130.0
409.07986	110.0
420.95648	60.0
427.10422	1000.0
427.16553	60.0
430.27887	50.0
857.1394	30.0

NAME:  NCGC00385003-01!4-[3-methyl-5-(5,6,7-trihydroxy-1,2,4a,5-tetramethyl-3,4,6,7,8,8a-hexahydro-2H-naphthalen-1-yl)pentoxy]-4-oxobutanoic acid
PRECURSORMZ:  441.28577723983
PRECURSORTYPE:  [M-H]-
FORMULA:  C24H42O7
Ontology: Kingdom: Organic compounds;Superclass: Lipids and lipid;Class: Prenol lipids;Subclass: Diterpenoids
INCHIKEY:  DQOOFQPFNNGTHL-UHFFFAOYNA-N
SMILES:  CC(CCOC(=O)CCC(O)=O)CCC1(C)C(C)CCC2(C)C1CC(O)C(O)C2(C)O
RETENTIONTIME:  
CCS:  -1
IONMODE:  Negative
INSTRUMENTTYPE:  
INSTRUMENT:  Maxis II HD Q-TOF Bruker
COLLISIONENERGY:  
Comment:  DB#=CCMSLIB00000845564; origin=GNPS
Num Peaks:  8
92.77015	10.0
99.00871	100.0
227.52016	40.0
289.21402	30.0
320.91751	40.0
321.24341	20.0
385.26364	30.0
441.28702	1000.0

NAME:  NCGC00385016-01!8-[5-(5,7-dihydroxy-4-oxo-2,3-dihydrochromen-2-yl)-2-hydroxyphenyl]-5,7-dihydroxy-2-(4-hydroxyphenyl)chromen-4-one
PRECURSORMZ:  539.09837039183
PRECURSORTYPE:  [M-H]-
FORMULA:  C30H20O10
Ontology: Kingdom: Organic compounds;Superclass: Phenylpropanoids and polyketides;Class: Flavonoids;Subclass: Biflavonoids and polyflavonoids
INCHIKEY:  JVBCTBWKMWXQQO-UHFFFAOYNA-N
SMILES:  OC1=CC=C(C=C1)C1=CC(=O)C2=C(O)C=C(O)C(=C2O1)C1=C(O)C=CC(=C1)C1CC(=O)C2=C(O)C=C(O)C=C2O1
RETENTIONTIME:  
CCS:  240.9741031
IONMODE:  Negative
INSTRUMENTTYPE:  
INSTRUMENT:  Maxis II HD Q-TOF Bruker
COLLISIONENERGY:  
Comment:  DB#=CCMSLIB00000845566; origin=GNPS
Num Peaks:  20
93.03431	90.0
125.02504	70.0
161.02644	150.0
193.11989	60.0
225.05597	60.0
251.0334	70.0
251.0619	70.0
267.06808	80.0
269.04538	50.0
275.03558	50.0
289.65488	20.0
293.04599	90.0
319.10703	50.0
375.0401	50.0
387.08545	1000.0
413.06787	890.0
414.0744	90.0
419.06808	70.0
539.0954	680.0
1092.55139	30.0

NAME:  NCGC00385009-01!(1S,3R,4R,5R)-1,3-dihydroxy-4,5-bis[[(E)-3-(4-hydroxy-3-methoxyphenyl)prop-2-enoyl]oxy]cyclohexane-1-carboxylic acid
PRECURSORMZ:  543.15079988983
PRECURSORTYPE:  [M-H]-
FORMULA:  C27H28O12
Ontology: Kingdom: Organic compounds;Superclass: Organic oxygen compounds;Class: Organooxygen compounds;Subclass: Alcohols and polyols
INCHIKEY:  WCIDSNIXNCYSPH-UHFFFAOYNA-N
SMILES:  COC1=C(O)C=CC(C=CC(=O)OC2CC(O)(CC(O)C2OC(=O)C=CC2=CC(OC)=C(O)C=C2)C(O)=O)=C1
RETENTIONTIME:  
CCS:  -1
IONMODE:  Negative
INSTRUMENTTYPE:  
INSTRUMENT:  Maxis II HD Q-TOF Bruker
COLLISIONENERGY:  
Comment:  DB#=CCMSLIB00000845567; origin=GNPS
Num Peaks:  15
93.03463	20.0
134.036	160.0
134.54092	20.0
137.02325	160.0
149.06094	50.0
155.03163	70.0
160.01494	20.0
173.04472	1000.0
175.037	10.0
191.05325	30.0
192.22803	10.0
193.04843	380.0
223.20351	20.0
349.09067	150.0
367.10577	290.0

NAME:  NCGC00179757-02![(2R,3S,4S,5R,6S)-3,4,5-trihydroxy-6-(4-hydroxyphenoxy)oxan-2-yl]methyl 4-hydroxybenzoate
PRECURSORMZ:  437.10893477183
PRECURSORTYPE:  [M+FA-H]-
FORMULA:  C19H20O9
Ontology: Kingdom: Organic compounds;Superclass: Organic oxygen compounds;Class: Organooxygen compounds;Subclass: Carbohydrates and carbohydrate conjugates
INCHIKEY:  FTFZXPBVBBJTHV-UHFFFAOYNA-N
SMILES:  OC1C(O)C(COC(=O)C2=CC=C(O)C=C2)OC(OC2=CC=C(O)C=C2)C1O
RETENTIONTIME:  
CCS:  -1
IONMODE:  Negative
INSTRUMENTTYPE:  
INSTRUMENT:  Maxis II HD Q-TOF Bruker
COLLISIONENERGY:  
Comment:  DB#=CCMSLIB00000845570; origin=GNPS
Num Peaks:  7
93.0441	30.0
108.02195	40.0
109.02824	40.0
137.02426	70.0
221.04141	30.0
281.06665	250.0
391.1037	1000.0

NAME:  NCGC00384764-01!3-[(2R,3S,4S,5S)-3,4-dihydroxy-5-(hydroxymethyl)oxolan-2-yl]oxy-5,7-dihydroxy-2-(4-hydroxyphenyl)chromen-4-one
PRECURSORMZ:  417.08272032783
PRECURSORTYPE:  [M-H]-
FORMULA:  C20H18O10
Ontology: Kingdom: Organic compounds;Superclass: Phenylpropanoids and polyketides;Class: Flavonoids;Subclass: Flavonoid glycosides
INCHIKEY:  POQICXMTUPVZMX-UHFFFAOYNA-N
SMILES:  OCC1OC(OC2=C(OC3=CC(O)=CC(O)=C3C2=O)C2=CC=C(O)C=C2)C(O)C1O
RETENTIONTIME:  
CCS:  203.9972212
IONMODE:  Negative
INSTRUMENTTYPE:  
INSTRUMENT:  Maxis II HD Q-TOF Bruker
COLLISIONENERGY:  
Comment:  DB#=CCMSLIB00000845571; origin=GNPS
Num Peaks:  8
151.00471	160.0
163.00381	120.0
227.02748	170.0
255.1922	60.0
284.03543	490.0
285.04233	280.0
417.08914	1000.0
1609.16101	90.0

NAME:  NCGC00384775-01!(2R,3S)-2-[(3,4-dihydroxyphenyl)methyl]-2-hydroxy-3-[(E)-3-(4-hydroxy-3-methoxyphenyl)prop-2-enoyl]oxybutanedioic acid
PRECURSORMZ:  447.09328501183
PRECURSORTYPE:  [M-H]-
FORMULA:  C21H20O11
Ontology: Kingdom: Organic compounds;Superclass: Phenylpropanoids and polyketides;Class: Cinnamic acids and derivatives;Subclass: Hydroxycinnamic acids and derivatives
INCHIKEY:  LIJMMUDJSMCVDJ-UHFFFAOYNA-N
SMILES:  COC1=C(O)C=CC(C=CC(=O)OC(C(O)=O)C(O)(CC2=CC(O)=C(O)C=C2)C(O)=O)=C1
RETENTIONTIME:  
CCS:  210.2298295
IONMODE:  Negative
INSTRUMENTTYPE:  
INSTRUMENT:  Maxis II HD Q-TOF Bruker
COLLISIONENERGY:  
Comment:  DB#=CCMSLIB00000845573; origin=GNPS
Num Peaks:  19
109.03166	80.0
123.04372	60.0
134.03658	130.0
149.05371	50.0
165.0565	290.0
177.0126	70.0
181.05133	1000.0
189.02148	110.0
191.03555	480.0
195.03218	70.0
209.0453	120.0
235.02283	120.0
251.90443	60.0
252.37041	20.0
252.73964	50.0
253.03365	630.0
271.03711	90.0
447.11118	50.0
643.86749	20.0

NAME:  NCGC00347366-02!2,4,6-trihydroxy-5-[1-(4-hydroxy-1,1,4,7-tetramethyl-1a,2,3,4a,5,6,7a,7b-octahydrocyclopropa[h]azulen-7-yl)-3-methylbutyl]benzene-1,3-dicarbaldehyde
PRECURSORMZ:  471.27521255583
PRECURSORTYPE:  [M-H]-
FORMULA:  C28H40O6
Ontology: Kingdom: Organic compounds;Superclass: Lipids and lipid;Class: Prenol lipids;Subclass: Sesquiterpenoids
INCHIKEY:  IBLPTYJTKWQCDX-UHFFFAOYNA-N
SMILES:  CC(C)CC(C1=C(O)C(C=O)=C(O)C(C=O)=C1O)C1(C)CCC2C1C1C(CCC2(C)O)C1(C)C
RETENTIONTIME:  
CCS:  215.864398
IONMODE:  Negative
INSTRUMENTTYPE:  
INSTRUMENT:  Maxis II HD Q-TOF Bruker
COLLISIONENERGY:  
Comment:  DB#=CCMSLIB00000845576; origin=GNPS
Num Peaks:  7
207.03137	240.0
208.03175	10.0
222.05231	10.0
282.07928	10.0
443.28293	10.0
469.2449	10.0
471.27634	1000.0

NAME:  NCGC00347366-02!2,4,6-trihydroxy-5-[1-(4-hydroxy-1,1,4,7-tetramethyl-1a,2,3,4a,5,6,7a,7b-octahydrocyclopropa[h]azulen-7-yl)-3-methylbutyl]benzene-1,3-dicarbaldehyde
PRECURSORMZ:  453.26464787583
PRECURSORTYPE:  [M-H2O-H]-
FORMULA:  C28H40O6
Ontology: Kingdom: Organic compounds;Superclass: Lipids and lipid;Class: Prenol lipids;Subclass: Sesquiterpenoids
INCHIKEY:  IBLPTYJTKWQCDX-UHFFFAOYNA-N
SMILES:  CC(C)CC(C1=C(O)C(C=O)=C(O)C(C=O)=C1O)C1(C)CCC2C1C1C(CCC2(C)O)C1(C)C
RETENTIONTIME:  
CCS:  -1
IONMODE:  Negative
INSTRUMENTTYPE:  
INSTRUMENT:  Maxis II HD Q-TOF Bruker
COLLISIONENERGY:  
Comment:  DB#=CCMSLIB00000845577; origin=GNPS
Num Peaks:  8
193.01659	60.0
205.01762	30.0
207.03244	90.0
282.07303	10.0
451.25323	30.0
453.26709	1000.0
453.37259	10.0
454.27338	40.0

NAME:  NCGC00384771-01![(2R,3S,4S,5R,6S)-3,4,5-trihydroxy-6-[2-hydroxy-4,4,6,6-tetramethyl-2-(2-methylprop-1-enyl)-3,5-dioxocyclohexyl]oxyoxan-2-yl]methyl 3,4,5-trihydroxybenzoate
PRECURSORMZ:  567.20831476683
PRECURSORTYPE:  [M-H]-
FORMULA:  C27H36O13
Ontology: Kingdom: Organic compounds;Superclass: Benzenoids;Class: Benzene and substituted derivatives;Subclass: Benzoic acids and derivatives
INCHIKEY:  ZOEFIRUNMVHSJA-UHFFFAOYNA-N
SMILES:  CC(C)=CC1(O)C(OC2OC(COC(=O)C3=CC(O)=C(O)C(O)=C3)C(O)C(O)C2O)C(C)(C)C(=O)C(C)(C)C1=O
RETENTIONTIME:  
CCS:  222.1019913
IONMODE:  Negative
INSTRUMENTTYPE:  
INSTRUMENT:  Maxis II HD Q-TOF Bruker
COLLISIONENERGY:  
Comment:  DB#=CCMSLIB00000845584; origin=GNPS
Num Peaks:  24
107.00929	10.0
123.00983	40.0
125.02238	40.0
141.01376	20.0
149.04146	20.0
151.00386	30.0
151.09135	10.0
168.00763	20.0
169.01483	180.0
211.0248	40.0
227.06956	10.0
241.03851	10.0
247.52783	10.0
264.15918	20.0
269.01834	20.0
270.7886	10.0
271.04669	40.0
271.68066	20.0
297.052	10.0
313.0556	60.0
314.96796	10.0
385.1221	10.0
567.20959	1000.0
568.20502	10.0

NAME:  NCGC00384776-01![6-[5,7-dihydroxy-2-(4-hydroxyphenyl)-4-oxochromen-3-yl]oxy-3,4,5-trihydroxyoxan-2-yl]methyl 3,4,5-trihydroxybenzoate
PRECURSORMZ:  599.10424362083
PRECURSORTYPE:  [M-H]-
FORMULA:  C28H24O15
Ontology: Kingdom: Organic compounds;Superclass: Phenylpropanoids and polyketides;Class: Flavonoids;Subclass: Flavonoid glycosides
INCHIKEY:  STMNAPXMGWBZSF-UHFFFAOYNA-N
SMILES:  OC1C(O)C(COC(=O)C2=CC(O)=C(O)C(O)=C2)OC(OC2=C(OC3=CC(O)=CC(O)=C3C2=O)C2=CC=C(O)C=C2)C1O
RETENTIONTIME:  
CCS:  248.8713876
IONMODE:  Negative
INSTRUMENTTYPE:  
INSTRUMENT:  Maxis II HD Q-TOF Bruker
COLLISIONENERGY:  
Comment:  DB#=CCMSLIB00000845586; origin=GNPS
Num Peaks:  20
122.79247	10.0
125.0239	140.0
151.0052	60.0
157.05853	20.0
167.66502	30.0
169.01633	140.0
169.80313	20.0
211.02382	10.0
223.01038	40.0
226.05995	20.0
228.04269	20.0
255.02904	60.0
257.04572	30.0
284.03604	140.0
285.03891	150.0
313.05579	260.0
447.0954	50.0
599.10394	1000.0
599.15466	110.0
1314.8147	20.0

NAME:  NCGC00385042-01!3-hydroxy-2-[(E)-3-(4-hydroxyphenyl)prop-2-enoyl]oxy-3-methoxycarbonylpentanedioic acid
PRECURSORMZ:  367.06707026283
PRECURSORTYPE:  [M-H]-
FORMULA:  C16H16O10
Ontology: Kingdom: Organic compounds;Superclass: Phenylpropanoids and polyketides;Class: Cinnamic acids and derivatives;Subclass: Hydroxycinnamic acids and derivatives
INCHIKEY:  WOCSYFBKPNKGJB-UHFFFAOYNA-N
SMILES:  COC(=O)C(O)(CC(O)=O)C(OC(=O)C=CC1=CC=C(O)C=C1)C(O)=O
RETENTIONTIME:  
CCS:  -1
IONMODE:  Negative
INSTRUMENTTYPE:  
INSTRUMENT:  Maxis II HD Q-TOF Bruker
COLLISIONENERGY:  
Comment:  DB#=CCMSLIB00000845588; origin=GNPS
Num Peaks:  13
125.99059	1000.0
126.99909	360.0
140.85104	120.0
140.91357	130.0
141.01707	340.0
157.0659	250.0
161.06825	260.0
163.04138	720.0
203.01804	600.0
219.05908	270.0
221.05315	290.0
273.03479	140.0
917.11237	380.0

NAME:  NCGC00385022-01![3-hydroxy-4-[(2S,3R,4S,5S,6R)-3,4,5-trihydroxy-6-(hydroxymethyl)oxan-2-yl]oxyphenyl]methyl 3,4-dihydroxybenzoate
PRECURSORMZ:  437.10893507583
PRECURSORTYPE:  [M-H]-
FORMULA:  C20H22O11
Ontology: Kingdom: Organic compounds;Superclass: Organic oxygen compounds;Class: Organooxygen compounds;Subclass: Carbohydrates and carbohydrate conjugates
INCHIKEY:  MFOVLHFTNQGRLH-UHFFFAOYNA-N
SMILES:  OCC1OC(OC2=C(O)C=C(COC(=O)C3=CC(O)=C(O)C=C3)C=C2)C(O)C(O)C1O
RETENTIONTIME:  
CCS:  196.807259
IONMODE:  Negative
INSTRUMENTTYPE:  
INSTRUMENT:  Maxis II HD Q-TOF Bruker
COLLISIONENERGY:  
Comment:  DB#=CCMSLIB00000845589; origin=GNPS
Num Peaks:  5
109.02586	210.0
153.01843	1000.0
232.49661	20.0
437.10422	150.0
651.64319	110.0

NAME:  NCGC00385031-01!4-[(2S,3R,4S,5S,6R)-6-[(3,4-dihydroxybenzoyl)oxymethyl]-3,4,5-trihydroxyoxan-2-yl]oxy-3-methoxybenzoic acid
PRECURSORMZ:  465.10384969583
PRECURSORTYPE:  [M-H]-
FORMULA:  C21H22O12
Ontology: Kingdom: Organic compounds;Superclass: Phenylpropanoids and polyketides;Class: Tannins;Subclass: Hydrolyzable tannins
INCHIKEY:  SYXFLGVZXNKIOY-UHFFFAOYNA-N
SMILES:  COC1=C(OC2OC(COC(=O)C3=CC(O)=C(O)C=C3)C(O)C(O)C2O)C=CC(=C1)C(O)=O
RETENTIONTIME:  
CCS:  -1
IONMODE:  Negative
INSTRUMENTTYPE:  
INSTRUMENT:  Maxis II HD Q-TOF Bruker
COLLISIONENERGY:  
Comment:  DB#=CCMSLIB00000845592; origin=GNPS
Num Peaks:  15
86.3479	30.0
108.01704	70.0
109.02721	20.0
129.03328	50.0
149.79872	20.0
152.00995	200.0
153.0206	240.0
167.03105	140.0
225.03638	30.0
237.04025	30.0
258.65836	50.0
296.87747	40.0
297.0618	1000.0
464.13574	20.0
465.10461	610.0

NAME:  NCGC00385259-01!3-[(2S,3R,4R,5S)-3,4-dihydroxy-5-(hydroxymethyl)oxolan-2-yl]oxy-2-(3,4-dihydroxyphenyl)-5,7-dihydroxychromen-4-one
PRECURSORMZ:  433.07763494783
PRECURSORTYPE:  [M-H]-
FORMULA:  C20H18O11
Ontology: Kingdom: Organic compounds;Superclass: Phenylpropanoids and polyketides;Class: Flavonoids;Subclass: Flavonoid glycosides
INCHIKEY:  BDCDNTVZSILEOY-UHFFFAOYNA-N
SMILES:  OCC1OC(OC2=C(OC3=CC(O)=CC(O)=C3C2=O)C2=CC(O)=C(O)C=C2)C(O)C1O
RETENTIONTIME:  
CCS:  205.0777048
IONMODE:  Negative
INSTRUMENTTYPE:  
INSTRUMENT:  Maxis II HD Q-TOF Bruker
COLLISIONENERGY:  
Comment:  DB#=CCMSLIB00000845593; origin=GNPS
Num Peaks:  8
135.44049	20.0
170.85352	40.0
270.99908	90.0
298.07376	50.0
300.02606	1000.0
301.03885	350.0
433.08313	520.0
436.65417	60.0

NAME:  NCGC00180379-02![(2S,3R,4S,5R,6S)-6-[2-(3,5-dihydroxy-4-methoxyphenyl)-5,7-dihydroxy-4-oxochromen-3-yl]oxy-4,5-dihydroxy-2-methyloxan-3-yl] acetate
PRECURSORMZ:  565.11989338083
PRECURSORTYPE:  [M+FA-H]-
FORMULA:  C24H24O13
Ontology: Kingdom: Organic compounds;Superclass: Phenylpropanoids and polyketides;Class: Flavonoids;Subclass: Flavonoid glycosides
INCHIKEY:  SQTSPIMCWRYNFT-UHFFFAOYNA-N
SMILES:  COC1=C(O)C=C(C=C1O)C1=C(OC2OC(C)C(OC(C)=O)C(O)C2O)C(=O)C2=C(O)C=C(O)C=C2O1
RETENTIONTIME:  
CCS:  -1
IONMODE:  Negative
INSTRUMENTTYPE:  
INSTRUMENT:  Maxis II HD Q-TOF Bruker
COLLISIONENERGY:  
Comment:  DB#=CCMSLIB00000845595; origin=GNPS
Num Peaks:  20
124.01662	10.0
174.32481	20.0
232.04515	20.0
247.851	10.0
259.0202	20.0
259.05212	20.0
271.02145	10.0
287.02548	70.0
315.01593	510.0
316.02377	170.0
319.27444	10.0
329.0325	20.0
330.03928	100.0
331.04761	150.0
477.09573	10.0
504.09857	20.0
519.11389	1000.0
519.4632	10.0
520.12018	10.0
552.26495	10.0

NAME:  NCGC00180863-02!3-[5,7-dihydroxy-2-(4-hydroxyphenyl)-4-oxochromen-8-yl]-5,7-dihydroxy-2-(4-hydroxyphenyl)chromen-4-one
PRECURSORMZ:  583.08819932783
PRECURSORTYPE:  [M+FA-H]-
FORMULA:  C30H18O10
Ontology: Kingdom: Organic compounds;Superclass: Phenylpropanoids and polyketides;Class: Flavonoids;Subclass: Biflavonoids and polyflavonoids
INCHIKEY:  IQAMTZLKUHMPPE-UHFFFAOYSA-N
SMILES:  OC1=CC=C(C=C1)C1=CC(=O)C2=C(O1)C(=C(O)C=C2O)C1=C(OC2=CC(O)=CC(O)=C2C1=O)C1=CC=C(O)C=C1
RETENTIONTIME:  
CCS:  -1
IONMODE:  Negative
INSTRUMENTTYPE:  
INSTRUMENT:  Maxis II HD Q-TOF Bruker
COLLISIONENERGY:  
Comment:  DB#=CCMSLIB00000845598; origin=GNPS
Num Peaks:  25
107.02106	20.0
151.00381	490.0
159.04436	20.0
169.01591	10.0
195.08148	10.0
201.06442	20.0
251.27513	20.0
253.008	10.0
278.01855	10.0
309.06305	20.0
328.95248	10.0
355.08197	10.0
375.05536	30.0
375.16241	10.0
385.07626	180.0
397.06647	20.0
409.07788	10.0
417.07239	10.0
443.0011	20.0
443.0426	190.0
443.15759	10.0
451.09708	20.0
537.08508	1000.0
538.08069	10.0
538.54199	20.0

NAME:  NCGC00385249-01![(2R,3S,4S,5R,6S)-6-[(2S,3R,4R,5R,6S)-2-[5,7-dihydroxy-2-(4-hydroxyphenyl)-4-oxochromen-3-yl]oxy-4,5-dihydroxy-6-methyloxan-3-yl]oxy-3,4,5-trihydroxyoxan-2-yl]methyl (E)-3-(4-hydroxyphenyl)prop-2-enoate
PRECURSORMZ:  739.18797324683
PRECURSORTYPE:  [M-H]-
FORMULA:  C36H36O17
Ontology: Kingdom: Organic compounds;Superclass: Phenylpropanoids and polyketides;Class: Flavonoids;Subclass: Flavonoid glycosides
INCHIKEY:  KAJMZANRKFVVKV-UHFFFAOYNA-N
SMILES:  CC1OC(OC2=C(OC3=CC(O)=CC(O)=C3C2=O)C2=CC=C(O)C=C2)C(OC2OC(COC(=O)C=CC3=CC=C(O)C=C3)C(O)C(O)C2O)C(O)C1O
RETENTIONTIME:  
CCS:  265.1640702
IONMODE:  Negative
INSTRUMENTTYPE:  
INSTRUMENT:  Maxis II HD Q-TOF Bruker
COLLISIONENERGY:  
Comment:  DB#=CCMSLIB00000845599; origin=GNPS
Num Peaks:  49
105.17742	10.0
108.91257	20.0
119.05567	20.0
131.04935	10.0
144.37947	20.0
145.02721	50.0
149.04074	20.0
150.20236	10.0
151.00027	20.0
153.01648	10.0
159.77373	10.0
163.04109	50.0
179.00085	40.0
227.03305	100.0
228.04051	20.0
241.04813	40.0
255.03096	470.0
256.03906	100.0
257.0481	10.0
283.01721	50.0
284.03464	1000.0
285.03818	280.0
286.27789	20.0
287.09625	20.0
287.17526	20.0
295.06174	10.0
327.04861	10.0
345.40994	40.0
357.26645	10.0
358.86166	10.0
379.8378	10.0
413.09116	80.0
431.10941	30.0
453.14282	20.0
461.11707	20.0
489.11453	20.0
530.0415	10.0
531.29144	20.0
538.09399	40.0
575.1449	10.0
592.9455	10.0
593.15314	600.0
594.15466	50.0
635.14563	20.0
693.31964	20.0
739.03174	10.0
739.19238	960.0
740.19714	180.0
741.26532	10.0

NAME:  NCGC00384938-01!4-hydroxy-7-methoxy-2,3,8-trimethyl-3-(4-methylpent-3-enyl)-2H-benzo[g][1]benzofuran-6,9-dione
PRECURSORMZ:  369.17074748483
PRECURSORTYPE:  [M-H]-
FORMULA:  C22H26O5
Ontology: Kingdom: Organic compounds;Superclass: Organoheterocyclic compounds;Class: Naphthofurans;
INCHIKEY:  GDSPWZDWUUGKIM-UHFFFAOYNA-N
SMILES:  COC1=C(C)C(=O)C2=C3OC(C)C(C)(CCC=C(C)C)C3=C(O)C=C2C1=O
RETENTIONTIME:  
CCS:  208.8080567
IONMODE:  Negative
INSTRUMENTTYPE:  
INSTRUMENT:  Maxis II HD Q-TOF Bruker
COLLISIONENERGY:  
Comment:  DB#=CCMSLIB00000845601; origin=GNPS
Num Peaks:  6
157.50938	50.0
257.04727	100.0
271.05905	140.0
287.08536	80.0
369.12695	70.0
369.17032	1000.0

NAME:  NCGC00384922-01!(2R,3R,4S,5S,6R)-2-octoxy-6-[[(2S,3R,4S,5R)-3,4,5-trihydroxyoxan-2-yl]oxymethyl]oxane-3,4,5-triol
PRECURSORMZ:  469.22904990683
PRECURSORTYPE:  [M+FA-H]-
FORMULA:  C19H36O10
Ontology: Kingdom: Organic compounds;Superclass: Lipids and lipid;Class: Fatty Acyls;Subclass: Fatty acyl glycosides
INCHIKEY:  IBSNNVHJJNLMJW-UHFFFAOYNA-N
SMILES:  CCCCCCCCOC1OC(COC2OCC(O)C(O)C2O)C(O)C(O)C1O
RETENTIONTIME:  
CCS:  -1
IONMODE:  Negative
INSTRUMENTTYPE:  
INSTRUMENT:  Maxis II HD Q-TOF Bruker
COLLISIONENERGY:  
Comment:  DB#=CCMSLIB00000845604; origin=GNPS
Num Peaks:  6
113.02686	70.0
131.02766	60.0
149.04491	30.0
161.04358	80.0
291.18219	300.0
423.22659	1000.0

NAME:  NCGC00180643-03!2-[(2S,3S,4S)-3-[(1S)-1-acetyloxyethyl]-5-methoxycarbonyl-2-[(2S,3R,4S,5S,6R)-3,4,5-trihydroxy-6-(hydroxymethyl)oxan-2-yl]oxy-3,4-dihydro-2H-pyran-4-yl]acetic acid
PRECURSORMZ:  509.15119350983
PRECURSORTYPE:  [M+FA-H]-
FORMULA:  C19H28O13
Ontology: Kingdom: Organic compounds;Superclass: Lipids and lipid;Class: Prenol lipids;Subclass: Terpene glycosides
INCHIKEY:  OPKOYMHTMXJHRG-UHFFFAOYNA-N
SMILES:  COC(=O)C1=COC(OC2OC(CO)C(O)C(O)C2O)C(C(C)OC(C)=O)C1CC(O)=O
RETENTIONTIME:  
CCS:  -1
IONMODE:  Negative
INSTRUMENTTYPE:  
INSTRUMENT:  Maxis II HD Q-TOF Bruker
COLLISIONENERGY:  
Comment:  DB#=CCMSLIB00000845605; origin=GNPS
Num Peaks:  11
88.56105	100.0
89.7788	220.0
101.43745	120.0
108.02176	160.0
113.02657	330.0
131.0392	640.0
165.05579	350.0
179.05132	270.0
241.07729	1000.0
283.08173	190.0
463.14868	150.0

NAME:  NCGC00170023-02!
PRECURSORMZ:  481.11402045583
PRECURSORTYPE:  [M-H]-
FORMULA:  C25H22O10
Ontology: Kingdom: Organic compounds;Superclass: Phenylpropanoids and polyketides;Class: Flavonoids;Subclass: Flavans
INCHIKEY:  CYGIJEJDYJOUAN-UHFFFAOYNA-N
SMILES:  COC1=C(O)C=CC(=C1)C1C2COC3(O)C2C(=CC1C3=O)C1OC2=CC(O)=CC(O)=C2C(=O)C1O
RETENTIONTIME:  
CCS:  221.2001847
IONMODE:  Negative
INSTRUMENTTYPE:  
INSTRUMENT:  Maxis II HD Q-TOF Bruker
COLLISIONENERGY:  
Comment:  DB#=CCMSLIB00000845607; origin=GNPS
Num Peaks:  30
125.02155	250.0
147.00797	150.0
147.05006	200.0
151.00244	370.0
152.00584	90.0
152.69122	90.0
153.01683	200.0
168.00085	110.0
169.01497	110.0
177.02217	70.0
178.99863	670.0
181.01379	110.0
191.02696	90.0
193.01155	190.0
238.06068	110.0
273.03934	30.0
283.03104	140.0
296.62384	130.0
301.03793	100.0
306.05481	70.0
307.09802	60.0
311.1167	50.0
355.086	100.0
381.16556	130.0
393.10123	70.0
409.14307	110.0
435.1236	120.0
445.0946	30.0
453.12241	160.0
481.12091	1000.0

NAME:  NCGC00384970-01!7-[(2S,3R,4S,5S,6R)-6-[[(2R,3R,4R)-3,4-dihydroxy-4-(hydroxymethyl)oxolan-2-yl]oxymethyl]-3,4,5-trihydroxyoxan-2-yl]oxy-5-hydroxy-3-(4-hydroxyphenyl)chromen-4-one
PRECURSORMZ:  609.14610812983
PRECURSORTYPE:  [M+FA-H]-
FORMULA:  C26H28O14
Ontology: Kingdom: Organic compounds;Superclass: Phenylpropanoids and polyketides;Class: Isoflavonoids;Subclass: Isoflavonoid O
INCHIKEY:  UXJMURXRQMFKJC-UHFFFAOYNA-N
SMILES:  OCC1(O)COC(OCC2OC(OC3=CC(O)=C4C(=O)C(=COC4=C3)C3=CC=C(O)C=C3)C(O)C(O)C2O)C1O
RETENTIONTIME:  
CCS:  -1
IONMODE:  Negative
INSTRUMENTTYPE:  
INSTRUMENT:  Maxis II HD Q-TOF Bruker
COLLISIONENERGY:  
Comment:  DB#=CCMSLIB00000845609; origin=GNPS
Num Peaks:  3
269.04758	1000.0
270.05682	10.0
509.15463	10.0

NAME:  NCGC00169736-02!(3R,5R)-3,4,5-tris[[(E)-3-(3,4-dihydroxyphenyl)prop-2-enoyl]oxy]-1-hydroxycyclohexane-1-carboxylic acid
PRECURSORMZ:  677.15119381383
PRECURSORTYPE:  [M-H]-
FORMULA:  C34H30O15
Ontology: Kingdom: Organic compounds;Superclass: Organic oxygen compounds;Class: Organooxygen compounds;Subclass: Alcohols and polyols
INCHIKEY:  OAFXTKGAKYAFSI-UHFFFAOYNA-N
SMILES:  OC(=O)C1(O)CC(OC(=O)C=CC2=CC(O)=C(O)C=C2)C(OC(=O)C=CC2=CC(O)=C(O)C=C2)C(C1)OC(=O)C=CC1=CC(O)=C(O)C=C1
RETENTIONTIME:  
CCS:  285.8599226
IONMODE:  Negative
INSTRUMENTTYPE:  
INSTRUMENT:  Maxis II HD Q-TOF Bruker
COLLISIONENERGY:  
Comment:  DB#=CCMSLIB00000845611; origin=GNPS
Num Peaks:  19
111.0445	40.0
135.04518	230.0
137.02426	70.0
155.03586	120.0
161.0242	130.0
173.04633	280.0
179.03523	520.0
179.67673	20.0
191.05727	430.0
203.0296	40.0
250.41223	30.0
276.84674	10.0
335.07715	170.0
353.09137	690.0
495.36682	10.0
497.09372	20.0
499.38571	20.0
515.12122	1000.0
677.15045	90.0

NAME:  NCGC00380970-01!3-hydroxy-2-[[3-(3-hydroxy-6-methylheptanoyl)oxy-8-methylnonanoyl]amino]propanoic acid
PRECURSORMZ:  416.26537614783
PRECURSORTYPE:  [M-H]-
FORMULA:  C21H39NO7
Ontology: Kingdom: Organic compounds;Superclass: Organic acids and derivatives;Class: Carboxylic acids and derivatives;Subclass: Amino acids
INCHIKEY:  ZIMOUPHGHTXJRD-UHFFFAOYNA-N
SMILES:  CC(C)CCCCC(CC(O)=NC(CO)C(O)=O)OC(=O)CC(O)CCC(C)C
RETENTIONTIME:  
CCS:  -1
IONMODE:  Negative
INSTRUMENTTYPE:  
INSTRUMENT:  Maxis II HD Q-TOF Bruker
COLLISIONENERGY:  
Comment:  DB#=CCMSLIB00000845614; origin=GNPS
Num Peaks:  20
149.10126	40.0
159.09787	450.0
182.16496	160.0
192.40398	50.0
193.67088	40.0
194.15115	340.0
194.66037	80.0
208.15033	50.0
212.12459	90.0
224.94574	80.0
225.55981	50.0
226.14343	360.0
228.13	60.0
242.14218	70.0
254.54227	50.0
255.00711	60.0
255.7713	40.0
256.15546	1000.0
343.38074	60.0
416.26355	310.0

NAME:  NCGC00381030-01!2-(2-hydroxypropan-2-yl)-3-[(2R,3R,4S,5S,6R)-3,4,5-trihydroxy-6-(hydroxymethyl)oxan-2-yl]oxy-2,3-dihydrofuro[3,2-g]chromen-7-one
PRECURSORMZ:  469.13514952083
PRECURSORTYPE:  [M+FA-H]-
FORMULA:  C20H24O10
Ontology: Kingdom: Organic compounds;Superclass: Phenylpropanoids and polyketides;Class: Coumarins and derivatives;Subclass: Furanocoumarins
INCHIKEY:  HGHSJJSYVZPIAW-UHFFFAOYNA-N
SMILES:  CC(C)(O)C1OC2=C(C=C3C=CC(=O)OC3=C2)C1OC1OC(CO)C(O)C(O)C1O
RETENTIONTIME:  
CCS:  -1
IONMODE:  Negative
INSTRUMENTTYPE:  
INSTRUMENT:  Maxis II HD Q-TOF Bruker
COLLISIONENERGY:  
Comment:  DB#=CCMSLIB00000845615; origin=GNPS
Num Peaks:  14
89.02417	120.0
160.0125	30.0
185.02745	120.0
189.01508	150.0
199.08577	40.0
202.03131	70.0
203.03998	190.0
206.02333	80.0
215.07144	110.0
243.06641	760.0
245.08252	110.0
246.06975	80.0
261.07663	670.0
423.13065	1000.0

NAME:  NCGC00381021-01!8-(2,4-dihydroxy-6-pentylphenoxy)-6-hydroxy-3-pentylisochromen-1-one
PRECURSORMZ:  425.19696223383
PRECURSORTYPE:  [M-H]-
FORMULA:  C25H30O6
Ontology: Kingdom: Organic compounds;Superclass: Phenylpropanoids and polyketides;Class: Isocoumarins and derivatives;
INCHIKEY:  NXAFAINHPNBMLG-UHFFFAOYSA-N
SMILES:  CCCCCC1=CC2=CC(O)=CC(OC3=C(O)C=C(O)C=C3CCCCC)=C2C(=O)O1
RETENTIONTIME:  
CCS:  231.190443
IONMODE:  Negative
INSTRUMENTTYPE:  
INSTRUMENT:  Maxis II HD Q-TOF Bruker
COLLISIONENERGY:  
Comment:  DB#=CCMSLIB00000845618; origin=GNPS
Num Peaks:  22
178.02553	30.0
190.02504	60.0
213.06039	40.0
215.03516	40.0
218.09334	60.0
219.12273	20.0
245.14175	20.0
245.83556	10.0
246.09123	40.0
246.28522	10.0
247.0948	500.0
354.11676	20.0
361.61771	20.0
361.86627	10.0
362.61087	30.0
363.60852	20.0
381.20676	90.0
397.20148	30.0
410.8089	20.0
423.91098	30.0
425.1972	1000.0
428.91745	30.0

NAME:  NCGC00169618-03!6-[(6,8-dihydroxy-7-methoxy-3-methyl-1-oxo-3,4-dihydroisochromen-4-yl)oxy]-4,8-dihydroxy-7-methoxy-3-methyl-3,4-dihydroisochromen-1-one
PRECURSORMZ:  461.10893507583
PRECURSORTYPE:  [M-H]-
FORMULA:  C22H22O11
Ontology: Kingdom: Organic compounds;Superclass: Benzenoids;Class: Benzene and substituted derivatives;Subclass: Benzoic acids and derivatives
INCHIKEY:  WLSOGIGMSWCVID-UHFFFAOYNA-N
SMILES:  COC1=C(O)C=C2C(OC3=C(OC)C(O)=C4C(=O)OC(C)C(O)C4=C3)C(C)OC(=O)C2=C1O
RETENTIONTIME:  
CCS:  -1
IONMODE:  Negative
INSTRUMENTTYPE:  
INSTRUMENT:  Maxis II HD Q-TOF Bruker
COLLISIONENERGY:  
Comment:  DB#=CCMSLIB00000845619; origin=GNPS
Num Peaks:  9
114.00867	60.0
131.01405	60.0
151.04227	120.0
178.02786	130.0
206.02269	610.0
221.04538	660.0
224.0294	230.0
239.05623	1000.0
620.91779	20.0

NAME:  NCGC00169618-03!6-[(6,8-dihydroxy-7-methoxy-3-methyl-1-oxo-3,4-dihydroisochromen-4-yl)oxy]-4,8-dihydroxy-7-methoxy-3-methyl-3,4-dihydroisochromen-1-one
PRECURSORMZ:  497.0856127879
PRECURSORTYPE:  [M+Cl]-
FORMULA:  C22H22O11
Ontology: Kingdom: Organic compounds;Superclass: Benzenoids;Class: Benzene and substituted derivatives;Subclass: Benzoic acids and derivatives
INCHIKEY:  WLSOGIGMSWCVID-UHFFFAOYNA-N
SMILES:  COC1=C(O)C=C2C(OC3=C(OC)C(O)=C4C(=O)OC(C)C(O)C4=C3)C(C)OC(=O)C2=C1O
RETENTIONTIME:  
CCS:  -1
IONMODE:  Negative
INSTRUMENTTYPE:  
INSTRUMENT:  Maxis II HD Q-TOF Bruker
COLLISIONENERGY:  
Comment:  DB#=CCMSLIB00000845622; origin=GNPS
Num Peaks:  9
149.06169	90.0
206.02028	380.0
221.04301	860.0
224.03264	290.0
239.05133	1000.0
257.98969	90.0
275.03134	70.0
461.1033	160.0
620.79761	150.0

NAME:  NCGC00169618-03!6-[(6,8-dihydroxy-7-methoxy-3-methyl-1-oxo-3,4-dihydroisochromen-4-yl)oxy]-4,8-dihydroxy-7-methoxy-3-methyl-3,4-dihydroisochromen-1-one
PRECURSORMZ:  507.11441407583
PRECURSORTYPE:  [M+FA-H]-
FORMULA:  C22H22O11
Ontology: Kingdom: Organic compounds;Superclass: Benzenoids;Class: Benzene and substituted derivatives;Subclass: Benzoic acids and derivatives
INCHIKEY:  WLSOGIGMSWCVID-UHFFFAOYNA-N
SMILES:  COC1=C(O)C=C2C(OC3=C(OC)C(O)=C4C(=O)OC(C)C(O)C4=C3)C(C)OC(=O)C2=C1O
RETENTIONTIME:  
CCS:  -1
IONMODE:  Negative
INSTRUMENTTYPE:  
INSTRUMENT:  Maxis II HD Q-TOF Bruker
COLLISIONENERGY:  
Comment:  DB#=CCMSLIB00000845623; origin=GNPS
Num Peaks:  13
76.86565	20.0
136.43216	30.0
163.03419	20.0
177.01698	40.0
178.033	30.0
180.00218	20.0
193.05429	20.0
206.02315	370.0
221.04385	950.0
224.03087	210.0
238.72926	10.0
239.05629	1000.0
461.11331	110.0

NAME:  NCGC00347547-02!methyl 2-(4,5-dihydroxy-6-methoxy-3,6-dimethyl-2-oxocyclohex-3-en-1-yl)oxy-4-hydroxy-3,6-dimethylbenzoate
PRECURSORMZ:  379.13984128083
PRECURSORTYPE:  [M-H]-
FORMULA:  C19H24O8
Ontology: Kingdom: Organic compounds;Superclass: Benzenoids;Class: Benzene and substituted derivatives;Subclass: Benzoic acids and derivatives
INCHIKEY:  GJGRGJCMJUMZKN-UHFFFAOYNA-N
SMILES:  COC(=O)C1=C(OC2C(=O)C(C)=C(O)C(O)C2(C)OC)C(C)=C(O)C=C1C
RETENTIONTIME:  
CCS:  -1
IONMODE:  Negative
INSTRUMENTTYPE:  
INSTRUMENT:  Maxis II HD Q-TOF Bruker
COLLISIONENERGY:  
Comment:  DB#=CCMSLIB00000845632; origin=GNPS
Num Peaks:  10
119.04952	640.0
135.05	240.0
163.03777	780.0
183.06839	210.0
195.06747	840.0
240.09418	100.0
303.12091	1000.0
375.8118	40.0
377.41318	60.0
381.97321	60.0

NAME:  NCGC00180407-02!7-hydroxy-5-methyl-2-(2-oxopropyl)-8-[3,4,5-trihydroxy-6-(hydroxymethyl)oxan-2-yl]chromen-4-one
PRECURSORMZ:  393.11910583583
PRECURSORTYPE:  [M-H]-
FORMULA:  C19H22O9
Ontology: Kingdom: Organic compounds;Superclass: Organic oxygen compounds;Class: Organooxygen compounds;Subclass: Carbohydrates and carbohydrate conjugates
INCHIKEY:  HKIKAXXIWJHWLY-UHFFFAOYNA-N
SMILES:  CC(=O)CC1=CC(=O)C2=C(O1)C(C1OC(CO)C(O)C(O)C1O)=C(O)C=C2C
RETENTIONTIME:  
CCS:  195.8896681
IONMODE:  Negative
INSTRUMENTTYPE:  
INSTRUMENT:  Maxis II HD Q-TOF Bruker
COLLISIONENERGY:  
Comment:  DB#=CCMSLIB00000845633; origin=GNPS
Num Peaks:  8
72.26637	270.0
202.06906	160.0
231.088	100.0
245.08122	290.0
273.07388	1000.0
392.8306	190.0
393.11981	850.0
1067.12292	140.0

NAME:  NCGC00381010-01!5-[(3S,8R,10R,13R,14S,17R)-3-[4-[4,5-dihydroxy-6-(hydroxymethyl)-3-(3,4,5-trihydroxy-6-methyloxan-2-yl)oxyoxan-2-yl]oxy-3,5-dihydroxy-6-(hydroxymethyl)oxan-2-yl]oxy-14-hydroxy-10,13-dimethyl-1,2,3,6,7,8,9,11,12,15,16,17-dodecahydrocyclopenta[a]phenanthren-17-yl]pyran-2-one
PRECURSORMZ:  899.39181770383
PRECURSORTYPE:  [M+FA-H]-
FORMULA:  C42H62O18
Ontology: Kingdom: Organic compounds;Superclass: Lipids and lipid;Class: Steroids and steroid derivatives;Subclass: Steroid lactones
INCHIKEY:  BPWYDRTYBYRFDY-UHFFFAOYNA-N
SMILES:  CC1OC(OC2C(O)C(O)C(CO)OC2OC2C(O)C(CO)OC(OC3CCC4(C)C5CCC6(C)C(CCC6(O)C5CCC4=C3)C3=COC(=O)C=C3)C2O)C(O)C(O)C1O
RETENTIONTIME:  
CCS:  -1
IONMODE:  Negative
INSTRUMENTTYPE:  
INSTRUMENT:  Maxis II HD Q-TOF Bruker
COLLISIONENERGY:  
Comment:  DB#=CCMSLIB00000845635; origin=GNPS
Num Peaks:  33
89.02388	60.0
101.02379	140.0
113.0241	160.0
114.03329	10.0
115.03665	10.0
119.03369	140.0
125.02309	20.0
143.0322	30.0
145.05278	10.0
149.04803	40.0
161.04411	70.0
179.05617	110.0
180.05605	10.0
221.06538	30.0
263.07327	10.0
323.09338	10.0
339.2312	70.0
383.22208	180.0
406.98837	10.0
409.75671	20.0
467.28024	20.0
485.29913	20.0
511.27948	20.0
529.28241	80.0
530.28583	30.0
553.3028	10.0
673.32391	50.0
674.34729	10.0
691.33374	300.0
692.33264	30.0
850.38983	10.0
853.38867	1000.0
854.39117	220.0

NAME:  NCGC00180783-02!5,7-dihydroxy-2-(4-hydroxy-3-methoxyphenyl)-3,6-dimethoxychromen-4-one
PRECURSORMZ:  359.07724102283
PRECURSORTYPE:  [M-H]-
FORMULA:  C18H16O8
Ontology: Kingdom: Organic compounds;Superclass: Phenylpropanoids and polyketides;Class: Flavonoids;Subclass: O
INCHIKEY:  XUWTZJRCCPNNJR-UHFFFAOYSA-N
SMILES:  COC1=C(O)C=CC(=C1)C1=C(OC)C(=O)C2=C(O1)C=C(O)C(OC)=C2O
RETENTIONTIME:  
CCS:  201.9514015
IONMODE:  Negative
INSTRUMENTTYPE:  
INSTRUMENT:  Maxis II HD Q-TOF Bruker
COLLISIONENERGY:  
Comment:  DB#=CCMSLIB00000845638; origin=GNPS
Num Peaks:  9
77.9878	30.0
170.49821	80.0
176.79022	40.0
301.03201	70.0
314.00931	70.0
329.0325	260.0
344.05664	1000.0
344.29126	20.0
359.07343	290.0

NAME:  NCGC00180492-02![2-[(2S,3R,4S,5S,6R)-3,4,5-trihydroxy-6-(hydroxymethyl)oxan-2-yl]oxyphenyl]methyl 2-hydroxy-6-[(2S,3R,4S,5S,6R)-3,4,5-trihydroxy-6-(hydroxymethyl)oxan-2-yl]oxybenzoate
PRECURSORMZ:  583.16684387783
PRECURSORTYPE:  [M-H]-
FORMULA:  C26H32O15
Ontology: Kingdom: Organic compounds;Superclass: Organic oxygen compounds;Class: Organooxygen compounds;Subclass: Carbohydrates and carbohydrate conjugates
INCHIKEY:  BHHRYVYZZQIPGU-UHFFFAOYNA-N
SMILES:  OCC1OC(OC2=CC=CC=C2COC(=O)C2=C(O)C=CC=C2OC2OC(CO)C(O)C(O)C2O)C(O)C(O)C1O
RETENTIONTIME:  
CCS:  241.7004167
IONMODE:  Negative
INSTRUMENTTYPE:  
INSTRUMENT:  Maxis II HD Q-TOF Bruker
COLLISIONENERGY:  
Comment:  DB#=CCMSLIB00000845639; origin=GNPS
Num Peaks:  13
109.02502	70.0
123.0458	60.0
135.00664	430.0
137.02646	50.0
153.01881	1000.0
153.09406	60.0
185.67953	20.0
195.03175	70.0
297.06073	420.0
313.05945	50.0
315.07339	140.0
345.14182	80.0
421.14056	60.0

NAME:  NCGC00180492-02![2-[(2S,3R,4S,5S,6R)-3,4,5-trihydroxy-6-(hydroxymethyl)oxan-2-yl]oxyphenyl]methyl 2-hydroxy-6-[(2S,3R,4S,5S,6R)-3,4,5-trihydroxy-6-(hydroxymethyl)oxan-2-yl]oxybenzoate
PRECURSORMZ:  629.17232287783
PRECURSORTYPE:  [M+FA-H]-
FORMULA:  C26H32O15
Ontology: Kingdom: Organic compounds;Superclass: Organic oxygen compounds;Class: Organooxygen compounds;Subclass: Carbohydrates and carbohydrate conjugates
INCHIKEY:  BHHRYVYZZQIPGU-UHFFFAOYNA-N
SMILES:  OCC1OC(OC2=CC=CC=C2COC(=O)C2=C(O)C=CC=C2OC2OC(CO)C(O)C(O)C2O)C(O)C(O)C1O
RETENTIONTIME:  
CCS:  -1
IONMODE:  Negative
INSTRUMENTTYPE:  
INSTRUMENT:  Maxis II HD Q-TOF Bruker
COLLISIONENERGY:  
Comment:  DB#=CCMSLIB00000845641; origin=GNPS
Num Peaks:  15
91.01634	20.0
100.4111	20.0
109.02641	50.0
110.24271	10.0
113.03562	10.0
121.02654	10.0
135.00696	360.0
153.01837	870.0
179.041	20.0
235.06262	20.0
296.53812	10.0
297.06281	1000.0
297.12048	10.0
315.07437	130.0
421.11441	60.0

NAME:  NCGC00386080-01![3-methyl-1-[3-methyl-1-[3-methyl-1-[3-methyl-1-oxo-1-(2,3,4,5,6-pentahydroxyhexoxy)pentan-2-yl]oxy-1-oxopentan-2-yl]oxy-1-oxopentan-2-yl]oxy-1-oxopentan-2-yl] 2-hydroxy-3-methylpentanoate
PRECURSORMZ:  787.3888372409
PRECURSORTYPE:  [M+Cl]-
FORMULA:  C36H64O16
Ontology: Kingdom: Organic compounds;Superclass: Organic acids and derivatives;Class: Peptidomimetics;Subclass: Depsipeptides
INCHIKEY:  CPKXIKIVLSMABL-UHFFFAOYNA-N
SMILES:  CCC(C)C(O)C(=O)OC(C(C)CC)C(=O)OC(C(C)CC)C(=O)OC(C(C)CC)C(=O)OC(C(C)CC)C(=O)OCC(O)C(O)C(O)C(O)CO
RETENTIONTIME:  
CCS:  -1
IONMODE:  Negative
INSTRUMENTTYPE:  
INSTRUMENT:  Maxis II HD Q-TOF Bruker
COLLISIONENERGY:  
Comment:  DB#=CCMSLIB00000845643; origin=GNPS
Num Peaks:  11
74.47901	110.0
74.53034	40.0
131.07175	1000.0
135.97493	100.0
245.13837	170.0
325.12735	70.0
359.18192	90.0
359.21213	80.0
473.26758	440.0
474.24118	70.0
787.3941	80.0

NAME:  NCGC00386080-01![3-methyl-1-[3-methyl-1-[3-methyl-1-[3-methyl-1-oxo-1-(2,3,4,5,6-pentahydroxyhexoxy)pentan-2-yl]oxy-1-oxopentan-2-yl]oxy-1-oxopentan-2-yl]oxy-1-oxopentan-2-yl] 2-hydroxy-3-methylpentanoate
PRECURSORMZ:  797.41763852883
PRECURSORTYPE:  [M+FA-H]-
FORMULA:  C36H64O16
Ontology: Kingdom: Organic compounds;Superclass: Organic acids and derivatives;Class: Peptidomimetics;Subclass: Depsipeptides
INCHIKEY:  CPKXIKIVLSMABL-UHFFFAOYNA-N
SMILES:  CCC(C)C(O)C(=O)OC(C(C)CC)C(=O)OC(C(C)CC)C(=O)OC(C(C)CC)C(=O)OC(C(C)CC)C(=O)OCC(O)C(O)C(O)C(O)CO
RETENTIONTIME:  
CCS:  -1
IONMODE:  Negative
INSTRUMENTTYPE:  
INSTRUMENT:  Maxis II HD Q-TOF Bruker
COLLISIONENERGY:  
Comment:  DB#=CCMSLIB00000845646; origin=GNPS
Num Peaks:  10
131.07101	1000.0
132.07381	10.0
159.06729	10.0
245.13956	450.0
246.13921	10.0
359.20856	450.0
360.20517	20.0
473.27612	180.0
474.28503	10.0
587.34766	30.0

NAME:  NCGC00180648-02!(3R,4S)-6,8-dihydroxy-3,4,5-trimethyl-1-oxo-3,4-dihydroisochromene-7-carboxylic acid
PRECURSORMZ:  265.07176171883
PRECURSORTYPE:  [M-H]-
FORMULA:  C13H14O6
Ontology: Kingdom: Organic compounds;Superclass: Benzenoids;Class: Benzene and substituted derivatives;Subclass: Benzoic acids and derivatives
INCHIKEY:  VVVMDYGNIVXIIG-UHFFFAOYNA-N
SMILES:  CC1OC(=O)C2=C(O)C(C(O)=O)=C(O)C(C)=C2C1C
RETENTIONTIME:  
CCS:  165.7185261
IONMODE:  Negative
INSTRUMENTTYPE:  
INSTRUMENT:  Maxis II HD Q-TOF Bruker
COLLISIONENERGY:  
Comment:  DB#=CCMSLIB00000845647; origin=GNPS
Num Peaks:  10
83.04588	280.0
135.04811	240.0
159.03922	190.0
161.06046	120.0
177.05122	180.0
177.08984	140.0
221.08112	1000.0
221.1114	80.0
223.62195	40.0
265.06589	700.0

NAME:  NCGC00169400-02!methyl 4-(6,8-dihydroxy-3-methyl-1-oxoisochromen-7-yl)-2,4-dimethoxybutanoate
PRECURSORMZ:  351.10854115183
PRECURSORTYPE:  [M-H]-
FORMULA:  C17H20O8
Ontology: Kingdom: Organic compounds;Superclass: Phenylpropanoids and polyketides;Class: Isocoumarins and derivatives;
INCHIKEY:  TWSUSRQZTZUYSD-UHFFFAOYNA-N
SMILES:  COC(CC(OC)C1=C(O)C=C2C=C(C)OC(=O)C2=C1O)C(=O)OC
RETENTIONTIME:  
CCS:  -1
IONMODE:  Negative
INSTRUMENTTYPE:  
INSTRUMENT:  Maxis II HD Q-TOF Bruker
COLLISIONENERGY:  
Comment:  DB#=CCMSLIB00000845649; origin=GNPS
Num Peaks:  10
190.44043	250.0
205.09483	70.0
213.05373	160.0
215.03479	190.0
217.06238	180.0
227.03525	720.0
255.02792	250.0
318.04358	100.0
318.91669	190.0
319.08188	1000.0

NAME:  NCGC00347555-02!2-(21-amino-3,20-dihydroxydocosan-2-yl)oxy-6-(hydroxymethyl)oxane-3,4,5-triol
PRECURSORMZ:  580.40662034683
PRECURSORTYPE:  [M+FA-H]-
FORMULA:  C28H57NO8
Ontology: Kingdom: Organic compounds;Superclass: Lipids and lipid;Class: Fatty Acyls;Subclass: Fatty acyl glycosides
INCHIKEY:  FZSYYVOKNJZJTF-UHFFFAOYNA-N
SMILES:  CC(N)C(O)CCCCCCCCCCCCCCCCC(O)C(C)OC1OC(CO)C(O)C(O)C1O
RETENTIONTIME:  
CCS:  -1
IONMODE:  Negative
INSTRUMENTTYPE:  
INSTRUMENT:  Maxis II HD Q-TOF Bruker
COLLISIONENERGY:  
Comment:  DB#=CCMSLIB00000845654; origin=GNPS
Num Peaks:  10
97.03322	110.0
161.04379	110.0
261.90622	60.0
273.04288	80.0
286.57996	60.0
288.31937	20.0
372.34995	90.0
534.40363	1000.0
580.4071	40.0
751.51428	40.0

NAME:  NCGC00380623-01!
PRECURSORMZ:  571.12458514083
PRECURSORTYPE:  [M-H]-
FORMULA:  C31H24O11
Ontology: ;;;
INCHIKEY:  XCWGCTNGDUDAMO-UHFFFAOYNA-N
SMILES:  COC(=O)C12OC3=C(C(O)=C4C5C=CC6(CC4=C3)C(=O)C3=C(C(O)=CC(C)=C3)C(O)=C6C5=O)C(O)=C1C(=O)CCC2O
RETENTIONTIME:  
CCS:  -1
IONMODE:  Negative
INSTRUMENTTYPE:  
INSTRUMENT:  Maxis II HD Q-TOF Bruker
COLLISIONENERGY:  
Comment:  DB#=CCMSLIB00000845658; origin=GNPS
Num Peaks:  20
70.71539	110.0
127.04166	400.0
160.60411	400.0
186.11195	310.0
201.93515	240.0
357.08206	380.0
374.06918	220.0
374.11142	320.0
401.06473	1000.0
407.14371	210.0
410.76859	70.0
465.13034	300.0
467.0983	70.0
477.08994	310.0
493.08884	210.0
510.07043	280.0
511.10376	300.0
535.11572	170.0
553.10034	300.0
571.11902	400.0

NAME:  NCGC00165733-02!(3S,6S,9S,12R)-3-[(2S)-butan-2-yl]-6-[(1-methoxyindol-3-yl)methyl]-9-(6-oxooctyl)-1,4,7,10-tetrazabicyclo[10.4.0]hexadecane-2,5,8,11-tetrone
PRECURSORMZ:  658.3376855779
PRECURSORTYPE:  [M+Cl]-
FORMULA:  C34H49N5O6
Ontology: Kingdom: Organic compounds;Superclass: Organic acids and derivatives;Class: Carboxylic acids and derivatives;Subclass: Amino acids
INCHIKEY:  JWOGUUIOCYMBPV-UHFFFAOYNA-N
SMILES:  CCC(C)C1N=C(O)C(CC2=CN(OC)C3=CC=CC=C23)N=C(O)C(CCCCCC(=O)CC)N=C(O)C2CCCCN2C1=O
RETENTIONTIME:  
CCS:  -1
IONMODE:  Negative
INSTRUMENTTYPE:  
INSTRUMENT:  Maxis II HD Q-TOF Bruker
COLLISIONENERGY:  
Comment:  DB#=CCMSLIB00000845660; origin=GNPS
Num Peaks:  15
168.08981	90.0
200.082	70.0
209.13034	80.0
224.14333	110.0
252.13402	490.0
336.18091	80.0
339.37253	50.0
462.28299	1000.0
462.60254	40.0
463.29349	210.0
494.26459	220.0
495.27728	60.0
520.28857	60.0
592.34375	190.0
627.31061	170.0

NAME:  NCGC00165733-02!(3S,6S,9S,12R)-3-[(2S)-butan-2-yl]-6-[(1-methoxyindol-3-yl)methyl]-9-(6-oxooctyl)-1,4,7,10-tetrazabicyclo[10.4.0]hexadecane-2,5,8,11-tetrone
PRECURSORMZ:  668.36648686583
PRECURSORTYPE:  [M+FA-H]-
FORMULA:  C34H49N5O6
Ontology: Kingdom: Organic compounds;Superclass: Organic acids and derivatives;Class: Carboxylic acids and derivatives;Subclass: Amino acids
INCHIKEY:  JWOGUUIOCYMBPV-UHFFFAOYNA-N
SMILES:  CCC(C)C1N=C(O)C(CC2=CN(OC)C3=CC=CC=C23)N=C(O)C(CCCCCC(=O)CC)N=C(O)C2CCCCN2C1=O
RETENTIONTIME:  
CCS:  -1
IONMODE:  Negative
INSTRUMENTTYPE:  
INSTRUMENT:  Maxis II HD Q-TOF Bruker
COLLISIONENERGY:  
Comment:  DB#=CCMSLIB00000845661; origin=GNPS
Num Peaks:  54
73.98432	10.0
75.95017	10.0
94.31557	20.0
98.01772	10.0
99.01672	10.0
127.08318	10.0
128.18257	10.0
128.24048	20.0
154.08885	10.0
167.08084	10.0
167.99686	10.0
168.03937	10.0
169.09213	20.0
186.11687	10.0
200.07085	10.0
209.12558	100.0
223.14627	80.0
233.55853	10.0
237.13129	30.0
238.12517	10.0
238.48802	10.0
239.13217	10.0
240.17679	10.0
242.12849	30.0
252.13478	400.0
276.16183	20.0
278.17603	30.0
280.177	20.0
283.06537	10.0
292.13306	20.0
298.15891	20.0
307.17499	20.0
310.22055	10.0
349.18576	60.0
364.1824	20.0
368.17258	20.0
370.21851	10.0
392.27304	10.0
405.25232	20.0
417.29276	10.0
423.0459	10.0
433.25519	40.0
444.27109	20.0
461.27429	40.0
461.423	10.0
462.28363	1000.0
463.29279	90.0
475.30042	20.0
494.27158	480.0
564.34814	10.0
592.3476	270.0
593.36804	10.0
622.3576	130.0
623.3501	10.0

NAME:  NCGC00380888-01![(2R,3R,4R,5R,6R)-4-[(2S,3R,4R,5R,6S)-4,5-dihydroxy-6-methyl-3-[(2S,3R,4S,5S,6R)-3,4,5-trihydroxy-6-(hydroxymethyl)oxan-2-yl]oxyoxan-2-yl]oxy-6-[2-(3,4-dihydroxyphenyl)ethoxy]-5-hydroxy-2-(hydroxymethyl)oxan-3-yl] (E)-3-(3,4-dihydroxyphenyl)prop-2-enoate
PRECURSORMZ:  785.25096742883
PRECURSORTYPE:  [M-H]-
FORMULA:  C35H46O20
Ontology: Kingdom: Organic compounds;Superclass: Organic oxygen compounds;Class: Organooxygen compounds;Subclass: Carbohydrates and carbohydrate conjugates
INCHIKEY:  SDRRSTAVRUERNC-UHFFFAOYNA-N
SMILES:  CC1OC(OC2C(O)C(OCCC3=CC(O)=C(O)C=C3)OC(CO)C2OC(=O)C=CC2=CC(O)=C(O)C=C2)C(OC2OC(CO)C(O)C(O)C2O)C(O)C1O
RETENTIONTIME:  
CCS:  285.3150537
IONMODE:  Negative
INSTRUMENTTYPE:  
INSTRUMENT:  Maxis II HD Q-TOF Bruker
COLLISIONENERGY:  
Comment:  DB#=CCMSLIB00000845663; origin=GNPS
Num Peaks:  18
101.02483	20.0
113.02233	50.0
119.0354	20.0
133.02832	150.0
135.04546	80.0
143.03423	10.0
153.05682	10.0
161.02356	920.0
162.02396	20.0
179.0338	90.0
181.04875	10.0
221.06723	20.0
297.10455	20.0
315.10657	30.0
461.16257	60.0
623.21558	370.0
785.2536	1000.0
786.26001	130.0

NAME:  NCGC00381273-01!3-hydroxy-7-(4-hydroxyphenyl)-2-(2-hydroxypropan-2-yl)-2,3,6,7-tetrahydrofuro[3,2-g]chromen-5-one
PRECURSORMZ:  401.12419091183
PRECURSORTYPE:  [M+FA-H]-
FORMULA:  C20H20O6
Ontology: Kingdom: Organic compounds;Superclass: Phenylpropanoids and polyketides;Class: Flavonoids;Subclass: Flavans
INCHIKEY:  JVJTUAXBSFDCFS-UHFFFAOYNA-N
SMILES:  CC(C)(O)C1OC2=C(C=C3C(=O)CC(OC3=C2)C2=CC=C(O)C=C2)C1O
RETENTIONTIME:  
CCS:  -1
IONMODE:  Negative
INSTRUMENTTYPE:  
INSTRUMENT:  Maxis II HD Q-TOF Bruker
COLLISIONENERGY:  
Comment:  DB#=CCMSLIB00000845665; origin=GNPS
Num Peaks:  5
119.04793	660.0
131.01007	150.0
279.07651	250.0
355.12552	1000.0
991.20721	220.0

NAME:  NCGC00180160-02!2-(3,4-dimethoxyphenoxy)-6-[(3,4,5-trihydroxyoxan-2-yl)oxymethyl]oxane-3,4,5-triol
PRECURSORMZ:  493.15627888983
PRECURSORTYPE:  [M+FA-H]-
FORMULA:  C19H28O12
Ontology: Kingdom: Organic compounds;Superclass: Organic oxygen compounds;Class: Organooxygen compounds;Subclass: Carbohydrates and carbohydrate conjugates
INCHIKEY:  BUKNGVJDVSRYIT-UHFFFAOYNA-N
SMILES:  COC1=C(OC)C=C(OC2OC(COC3OCC(O)C(O)C3O)C(O)C(O)C2O)C=C1
RETENTIONTIME:  
CCS:  -1
IONMODE:  Negative
INSTRUMENTTYPE:  
INSTRUMENT:  Maxis II HD Q-TOF Bruker
COLLISIONENERGY:  
Comment:  DB#=CCMSLIB00000845667; origin=GNPS
Num Peaks:  11
99.00996	70.0
123.00778	60.0
125.02335	340.0
131.03259	80.0
138.03233	30.0
149.04654	100.0
191.05495	80.0
233.06589	470.0
293.08829	1000.0
315.104	30.0
447.16187	160.0

NAME:  NCGC00347791-02!2-[5-[[4-acetyloxy-5-(2,4-dioxopyrimidin-1-yl)-3-(4-hydroxy-2-methoxy-6-methylbenzoyl)oxyoxolan-2-yl]methoxycarbonyl]-2-hydroxyphenoxy]prop-2-enoic acid
PRECURSORMZ:  655.14169175783
PRECURSORTYPE:  [M-H]-
FORMULA:  C30H28N2O15
Ontology: Kingdom: Organic compounds;Superclass: Nucleosides;Class: Pyrimidine nucleosides;
INCHIKEY:  QPTBIDGWTVNLQQ-UHFFFAOYNA-N
SMILES:  COC1=C(C(=O)OC2C(COC(=O)C3=CC(OC(=C)C(O)=O)=C(O)C=C3)OC(C2OC(C)=O)N2C=CC(O)=NC2=O)C(C)=CC(O)=C1
RETENTIONTIME:  
CCS:  -1
IONMODE:  Negative
INSTRUMENTTYPE:  
INSTRUMENT:  Maxis II HD Q-TOF Bruker
COLLISIONENERGY:  
Comment:  DB#=CCMSLIB00000845669; origin=GNPS
Num Peaks:  91
105.03469	10.0
109.02993	40.0
111.01781	190.0
121.02966	30.0
121.72811	10.0
122.03539	30.0
126.01654	50.0
127.03729	30.0
135.02213	30.0
135.04195	170.0
136.04178	50.0
137.05875	100.0
138.0215	30.0
140.03616	70.0
143.03331	40.0
149.03299	70.0
149.48769	20.0
151.8353	20.0
152.03525	50.0
153.02615	50.0
154.02258	50.0
159.43968	10.0
163.02606	20.0
164.03865	230.0
177.02052	20.0
177.05049	30.0
178.03935	20.0
178.70056	20.0
179.03427	1000.0
180.05479	30.0
181.05122	290.0
181.14157	30.0
182.04633	20.0
182.06258	20.0
182.69438	20.0
186.05939	20.0
187.03534	20.0
195.03032	30.0
196.05893	20.0
205.01584	190.0
206.04726	50.0
221.04991	30.0
223.02692	20.0
225.03645	30.0
227.05858	30.0
233.04482	70.0
247.02972	20.0
248.05563	30.0
271.05667	20.0
274.07071	30.0
275.06067	40.0
282.07211	30.0
293.06631	80.0
296.08722	20.0
298.3959	20.0
300.12326	20.0
302.11731	20.0
308.25586	20.0
317.06906	10.0
328.08157	20.0
344.08243	150.0
362.09946	60.0
387.08936	180.0
388.10349	20.0
404.08426	40.0
405.09616	270.0
429.09021	50.0
431.11185	30.0
448.10886	20.0
457.1152	20.0
457.14874	20.0
464.13193	40.0
498.1442	20.0
499.12711	70.0
508.13312	100.0
525.11749	40.0
551.13318	80.0
568.14813	360.0
568.38678	30.0
577.11157	30.0
585.12915	70.0
585.2915	10.0
587.09973	10.0
594.11847	40.0
610.57092	20.0
611.14948	240.0
612.14307	70.0
637.13269	70.0
655.14301	150.0
655.19232	20.0
1864.26538	10.0

NAME:  NCGC00347791-02!2-[5-[[4-acetyloxy-5-(2,4-dioxopyrimidin-1-yl)-3-(4-hydroxy-2-methoxy-6-methylbenzoyl)oxyoxolan-2-yl]methoxycarbonyl]-2-hydroxyphenoxy]prop-2-enoic acid
PRECURSORMZ:  637.13112707783
PRECURSORTYPE:  [M-H2O-H]-
FORMULA:  C30H28N2O15
Ontology: Kingdom: Organic compounds;Superclass: Nucleosides;Class: Pyrimidine nucleosides;
INCHIKEY:  QPTBIDGWTVNLQQ-UHFFFAOYNA-N
SMILES:  COC1=C(C(=O)OC2C(COC(=O)C3=CC(OC(=C)C(O)=O)=C(O)C=C3)OC(C2OC(C)=O)N2C=CC(O)=NC2=O)C(C)=CC(O)=C1
RETENTIONTIME:  
CCS:  -1
IONMODE:  Negative
INSTRUMENTTYPE:  
INSTRUMENT:  Maxis II HD Q-TOF Bruker
COLLISIONENERGY:  
Comment:  DB#=CCMSLIB00000845672; origin=GNPS
Num Peaks:  16
111.01945	80.0
118.02963	90.0
122.02258	40.0
127.03449	70.0
136.03941	110.0
137.06775	90.0
146.59393	120.0
161.0209	240.0
162.0139	110.0
168.06801	70.0
205.01352	1000.0
216.06631	90.0
301.02979	60.0
388.10239	100.0
534.09583	40.0
594.10779	100.0

NAME:  NCGC00169899-02!5-hydroxy-7-(4-hydroxyphenyl)-2-methyl-2-[[(2R,3R,4S,5S,6R)-3,4,5-trihydroxy-6-[[(2R,3R,4R,5R,6S)-3,4,5-trihydroxy-6-methyloxan-2-yl]oxymethyl]oxan-2-yl]oxymethyl]pyrano[3,2-g]chromen-6-one
PRECURSORMZ:  659.19814400683
PRECURSORTYPE:  [M-H]-
FORMULA:  C32H36O15
Ontology: Kingdom: Organic compounds;Superclass: Phenylpropanoids and polyketides;Class: Isoflavonoids;Subclass: Isoflavans
INCHIKEY:  QXRUNNQSVHTDBO-UHFFFAOYNA-N
SMILES:  CC1OC(OCC2OC(OCC3(C)OC4=CC5=C(C(O)=C4C=C3)C(=O)C(=CO5)C3=CC=C(O)C=C3)C(O)C(O)C2O)C(O)C(O)C1O
RETENTIONTIME:  
CCS:  -1
IONMODE:  Negative
INSTRUMENTTYPE:  
INSTRUMENT:  Maxis II HD Q-TOF Bruker
COLLISIONENERGY:  
Comment:  DB#=CCMSLIB00000845673; origin=GNPS
Num Peaks:  9
205.06631	80.0
282.04657	140.0
333.07797	1000.0
347.10324	140.0
350.07068	270.0
393.10464	70.0
657.10541	160.0
659.19812	920.0
676.78223	80.0

NAME:  NCGC00169899-02!5-hydroxy-7-(4-hydroxyphenyl)-2-methyl-2-[[(2R,3R,4S,5S,6R)-3,4,5-trihydroxy-6-[[(2R,3R,4R,5R,6S)-3,4,5-trihydroxy-6-methyloxan-2-yl]oxymethyl]oxan-2-yl]oxymethyl]pyrano[3,2-g]chromen-6-one
PRECURSORMZ:  705.20362300683
PRECURSORTYPE:  [M+FA-H]-
FORMULA:  C32H36O15
Ontology: Kingdom: Organic compounds;Superclass: Phenylpropanoids and polyketides;Class: Isoflavonoids;Subclass: Isoflavans
INCHIKEY:  QXRUNNQSVHTDBO-UHFFFAOYNA-N
SMILES:  CC1OC(OCC2OC(OCC3(C)OC4=CC5=C(C(O)=C4C=C3)C(=O)C(=CO5)C3=CC=C(O)C=C3)C(O)C(O)C2O)C(O)C(O)C1O
RETENTIONTIME:  
CCS:  -1
IONMODE:  Negative
INSTRUMENTTYPE:  
INSTRUMENT:  Maxis II HD Q-TOF Bruker
COLLISIONENERGY:  
Comment:  DB#=CCMSLIB00000845676; origin=GNPS
Num Peaks:  25
143.03841	40.0
159.02621	20.0
163.05785	60.0
203.19226	10.0
205.08017	60.0
251.07036	20.0
268.03052	10.0
269.02875	20.0
281.0683	20.0
293.04114	40.0
311.27896	10.0
314.04715	30.0
318.05484	10.0
323.09381	50.0
325.18951	10.0
333.07626	250.0
336.06406	10.0
347.10269	20.0
350.08417	160.0
351.0954	230.0
363.07025	20.0
393.10089	20.0
656.54602	10.0
659.19678	1000.0
660.22241	10.0

NAME:  NCGC00169462-02!17-(2,6-dihydroxy-6-methyl-3-oxoheptan-2-yl)-2,16-dihydroxy-4,4,9,13,14-pentamethyl-3-[3,4,5-trihydroxy-6-(hydroxymethyl)oxan-2-yl]oxy-1,2,3,7,8,10,12,15,16,17-decahydrocyclopenta[a]phenanthren-11-one
PRECURSORMZ:  727.39102985583
PRECURSORTYPE:  [M+FA-H]-
FORMULA:  C36H58O12
Ontology: Kingdom: Organic compounds;Superclass: Lipids and lipid;Class: Steroids and steroid derivatives;Subclass: Steroidal glycosides
INCHIKEY:  MSHWJYPCLRLDEB-UHFFFAOYNA-N
SMILES:  CC(C)(O)CCC(=O)C(C)(O)C1C(O)CC2(C)C3CC=C4C(CC(O)C(OC5OC(CO)C(O)C(O)C5O)C4(C)C)C3(C)C(=O)CC12C
RETENTIONTIME:  
CCS:  -1
IONMODE:  Negative
INSTRUMENTTYPE:  
INSTRUMENT:  Maxis II HD Q-TOF Bruker
COLLISIONENERGY:  
Comment:  DB#=CCMSLIB00000845678; origin=GNPS
Num Peaks:  49
71.01562	30.0
101.02587	30.0
113.02553	90.0
115.07406	30.0
119.03582	10.0
125.02318	10.0
129.09465	20.0
143.0385	30.0
159.02946	20.0
161.04561	130.0
163.07388	10.0
173.11552	60.0
177.09445	20.0
179.0537	20.0
201.09004	10.0
205.03738	30.0
243.17142	20.0
291.16727	10.0
318.43985	10.0
327.12695	20.0
327.20377	10.0
336.84555	10.0
345.21683	30.0
369.23215	10.0
371.22363	50.0
383.5686	10.0
387.26465	20.0
414.24216	10.0
441.27661	10.0
457.28757	20.0
459.3096	20.0
489.24655	20.0
501.33005	40.0
502.30981	10.0
507.26572	20.0
521.2879	10.0
533.26062	10.0
545.31677	20.0
547.27881	10.0
549.31036	10.0
608.29047	20.0
619.3446	10.0
621.36768	10.0
663.37512	1000.0
664.37366	110.0
680.30371	10.0
681.38605	830.0
682.38568	110.0
727.38556	90.0

NAME:  NCGC00380746-01!1,7-bis(4-hydroxyphenyl)heptane-3,5-diol
PRECURSORMZ:  361.16566180083
PRECURSORTYPE:  [M+FA-H]-
FORMULA:  C19H24O4
Ontology: ;;;
INCHIKEY:  GZVIQGVWSNEONZ-UHFFFAOYNA-N
SMILES:  OC(CCC1=CC=C(O)C=C1)CC(O)CCC1=CC=C(O)C=C1
RETENTIONTIME:  
CCS:  -1
IONMODE:  Negative
INSTRUMENTTYPE:  
INSTRUMENT:  Maxis II HD Q-TOF Bruker
COLLISIONENERGY:  
Comment:  DB#=CCMSLIB00000845680; origin=GNPS
Num Peaks:  3
93.03077	90.0
149.06277	60.0
315.16125	1000.0

NAME:  NCGC00180444-02!(2R,3S,4S,5R,6R)-2-[[(2R,3R,4R)-3,4-dihydroxy-4-(hydroxymethyl)oxolan-2-yl]oxymethyl]-6-[2-(4-hydroxyphenyl)ethoxy]oxane-3,4,5-triol
PRECURSORMZ:  477.16136426983
PRECURSORTYPE:  [M+FA-H]-
FORMULA:  C19H28O11
Ontology: Kingdom: Organic compounds;Superclass: Organic oxygen compounds;Class: Organooxygen compounds;Subclass: Carbohydrates and carbohydrate conjugates
INCHIKEY:  IVRQZYXJBVMHCW-UHFFFAOYNA-N
SMILES:  OCC1(O)COC(OCC2OC(OCCC3=CC=C(O)C=C3)C(O)C(O)C2O)C1O
RETENTIONTIME:  
CCS:  -1
IONMODE:  Negative
INSTRUMENTTYPE:  
INSTRUMENT:  Maxis II HD Q-TOF Bruker
COLLISIONENERGY:  
Comment:  DB#=CCMSLIB00000845682; origin=GNPS
Num Peaks:  13
71.01481	20.0
101.02676	40.0
101.32279	20.0
119.04863	80.0
141.07405	30.0
149.04521	120.0
177.98822	30.0
191.05719	30.0
208.50801	20.0
251.06955	30.0
275.07697	30.0
299.12164	100.0
431.15472	1000.0

NAME:  NCGC00385740-01!(1R,3R,4S,5R)-3-[(E)-3-(3,4-dihydroxyphenyl)prop-2-enoyl]oxy-1,5-dihydroxy-4-[(E)-3-(3-hydroxy-4-methoxyphenyl)prop-2-enoyl]oxycyclohexane-1-carboxylic acid
PRECURSORMZ:  529.13514982483
PRECURSORTYPE:  [M-H]-
FORMULA:  C26H26O12
Ontology: Kingdom: Organic compounds;Superclass: Organic oxygen compounds;Class: Organooxygen compounds;Subclass: Alcohols and polyols
INCHIKEY:  KXSOUIKZMJRRKL-UHFFFAOYNA-N
SMILES:  COC1=C(O)C=C(C=CC(=O)OC2C(O)CC(O)(CC2OC(=O)C=CC2=CC(O)=C(O)C=C2)C(O)=O)C=C1
RETENTIONTIME:  
CCS:  -1
IONMODE:  Negative
INSTRUMENTTYPE:  
INSTRUMENT:  Maxis II HD Q-TOF Bruker
COLLISIONENERGY:  
Comment:  DB#=CCMSLIB00000845683; origin=GNPS
Num Peaks:  20
93.03352	20.0
109.02944	20.0
111.04585	20.0
133.02841	40.0
134.03371	20.0
135.04373	60.0
137.02237	20.0
155.03419	40.0
161.02711	140.0
173.04533	1000.0
175.0414	20.0
179.03337	130.0
191.06142	20.0
193.05048	150.0
258.45953	10.0
335.07394	60.0
349.10269	10.0
366.81021	10.0
367.10214	250.0
529.13385	50.0

NAME:  NCGC00347700-02!2-[4-[(3S,3aR,6S,6aR)-6-[3-methoxy-4-[3,4,5-trihydroxy-6-(hydroxymethyl)oxan-2-yl]oxyphenyl]-1,3,3a,4,6,6a-hexahydrofuro[3,4-c]furan-3-yl]-2-methoxyphenoxy]-6-(hydroxymethyl)oxane-3,4,5-triol
PRECURSORMZ:  727.24548781983
PRECURSORTYPE:  [M+FA-H]-
FORMULA:  C32H42O16
Ontology: Kingdom: Organic compounds;Superclass: Lignans;Class: Lignan glycosides;
INCHIKEY:  ZJSJQWDXAYNLNS-UHFFFAOYNA-N
SMILES:  COC1=C(OC2OC(CO)C(O)C(O)C2O)C=CC(=C1)C1OCC2C1COC2C1=CC(OC)=C(OC2OC(CO)C(O)C(O)C2O)C=C1
RETENTIONTIME:  
CCS:  -1
IONMODE:  Negative
INSTRUMENTTYPE:  
INSTRUMENT:  Maxis II HD Q-TOF Bruker
COLLISIONENERGY:  
Comment:  DB#=CCMSLIB00000845686; origin=GNPS
Num Peaks:  12
136.01605	100.0
143.04251	10.0
151.03914	320.0
161.04747	20.0
175.07683	20.0
311.12817	10.0
342.11258	50.0
355.84836	10.0
357.13504	1000.0
358.13846	50.0
519.18774	100.0
519.23749	20.0

NAME:  NCGC00385052-01![(2R,3R,4S,5S,6R)-4,5-dihydroxy-2-[5-hydroxy-2-(4-hydroxyphenyl)-4-oxo-7-[(2S,3R,4S,5S,6R)-3,4,5-trihydroxy-6-(hydroxymethyl)oxan-2-yl]oxychromen-3-yl]oxy-6-(hydroxymethyl)oxan-3-yl] (E)-3-(4-hydroxyphenyl)prop-2-enoate
PRECURSORMZ:  755.18288786683
PRECURSORTYPE:  [M-H]-
FORMULA:  C36H36O18
Ontology: Kingdom: Organic compounds;Superclass: Phenylpropanoids and polyketides;Class: Flavonoids;Subclass: Flavonoid glycosides
INCHIKEY:  SOPVQGCZAWJHCX-UHFFFAOYNA-N
SMILES:  OCC1OC(OC2=CC(O)=C3C(OC(C4=CC=C(O)C=C4)=C(OC4OC(CO)C(O)C(O)C4OC(=O)C=CC4=CC=C(O)C=C4)C3=O)=C2)C(O)C(O)C1O
RETENTIONTIME:  
CCS:  284.0087698
IONMODE:  Negative
INSTRUMENTTYPE:  
INSTRUMENT:  Maxis II HD Q-TOF Bruker
COLLISIONENERGY:  
Comment:  DB#=CCMSLIB00000845687; origin=GNPS
Num Peaks:  18
93.03604	10.0
120.01726	10.0
145.03117	30.0
163.00198	20.0
163.03857	20.0
169.01247	10.0
227.02983	30.0
229.04984	20.0
253.05322	10.0
267.0307	10.0
281.04803	20.0
284.02969	70.0
284.64621	10.0
285.04132	1000.0
286.04758	10.0
307.07895	100.0
447.0983	150.0
593.13318	240.0

NAME:  NCGC00385621-01!2-(hydroxymethyl)-1-methoxy-3-[(2S,3R,4S,5S,6R)-3,4,5-trihydroxy-6-[[(2S,3R,4S,5R)-3,4,5-trihydroxyoxan-2-yl]oxymethyl]oxan-2-yl]oxyanthracene-9,10-dione
PRECURSORMZ:  623.16175819383
PRECURSORTYPE:  [M+FA-H]-
FORMULA:  C27H30O14
Ontology: Kingdom: Organic compounds;Superclass: Benzenoids;Class: Anthracenes;Subclass: Anthraquinones
INCHIKEY:  XXKWBXGHSBIVHQ-UHFFFAOYNA-N
SMILES:  COC1=C2C(=O)C3=CC=CC=C3C(=O)C2=CC(OC2OC(COC3OCC(O)C(O)C3O)C(O)C(O)C2O)=C1CO
RETENTIONTIME:  
CCS:  -1
IONMODE:  Negative
INSTRUMENTTYPE:  
INSTRUMENT:  Maxis II HD Q-TOF Bruker
COLLISIONENERGY:  
Comment:  DB#=CCMSLIB00000845689; origin=GNPS
Num Peaks:  14
156.20172	10.0
210.0323	80.0
236.04987	20.0
237.05829	10.0
238.02786	80.0
251.03241	30.0
251.06534	10.0
253.04994	430.0
254.05684	10.0
264.04565	20.0
279.06671	50.0
281.04401	10.0
283.06183	1000.0
283.22189	20.0

NAME:  NCGC00385640-01!5-hydroxy-7-[(2S,3R,4S,5S,6R)-3,4,5-trihydroxy-6-[[(2R,3R,4R,5R,6S)-3,4,5-trihydroxy-6-methyloxan-2-yl]oxymethyl]oxan-2-yl]oxy-2-(3,4,5-trimethoxyphenyl)chromen-4-one
PRECURSORMZ:  697.19853762683
PRECURSORTYPE:  [M+FA-H]-
FORMULA:  C30H36O16
Ontology: Kingdom: Organic compounds;Superclass: Phenylpropanoids and polyketides;Class: Flavonoids;Subclass: Flavonoid glycosides
INCHIKEY:  QVXXLWMUTXHCGR-UHFFFAOYNA-N
SMILES:  COC1=CC(=CC(OC)=C1OC)C1=CC(=O)C2=C(O)C=C(OC3OC(COC4OC(C)C(O)C(O)C4O)C(O)C(O)C3O)C=C2O1
RETENTIONTIME:  
CCS:  -1
IONMODE:  Negative
INSTRUMENTTYPE:  
INSTRUMENT:  Maxis II HD Q-TOF Bruker
COLLISIONENERGY:  
Comment:  DB#=CCMSLIB00000845691; origin=GNPS
Num Peaks:  7
270.01147	20.0
285.04477	10.0
313.03668	110.0
327.05026	20.0
328.05975	80.0
343.08356	1000.0
1927.25623	10.0

NAME:  NCGC00385628-01![(2S,3S,4S,5R,6S)-6-[5,7-dihydroxy-2-(4-hydroxyphenyl)-4-oxochromen-3-yl]oxy-5-hydroxy-4-[(E)-3-(4-hydroxyphenyl)prop-2-enoyl]oxy-2-methyloxan-3-yl] (E)-3-(4-hydroxyphenyl)prop-2-enoate
PRECURSORMZ:  723.17192925783
PRECURSORTYPE:  [M-H]-
FORMULA:  C39H32O14
Ontology: Kingdom: Organic compounds;Superclass: Phenylpropanoids and polyketides;Class: Flavonoids;Subclass: Flavonoid glycosides
INCHIKEY:  RMHWAEFAOBGGBH-UHFFFAOYNA-N
SMILES:  CC1OC(OC2=C(OC3=CC(O)=CC(O)=C3C2=O)C2=CC=C(O)C=C2)C(O)C(OC(=O)C=CC2=CC=C(O)C=C2)C1OC(=O)C=CC1=CC=C(O)C=C1
RETENTIONTIME:  
CCS:  281.0077276
IONMODE:  Negative
INSTRUMENTTYPE:  
INSTRUMENT:  Maxis II HD Q-TOF Bruker
COLLISIONENERGY:  
Comment:  DB#=CCMSLIB00000845693; origin=GNPS
Num Peaks:  33
86.19929	20.0
107.01398	40.0
116.16436	40.0
117.03362	30.0
119.05039	50.0
145.02704	490.0
145.19862	30.0
151.00287	130.0
162.03943	20.0
163.00017	50.0
163.03252	20.0
165.0174	20.0
167.04103	30.0
211.07961	60.0
212.03766	30.0
213.04985	30.0
215.03094	30.0
227.03738	140.0
229.05205	80.0
230.59039	40.0
239.03015	50.0
255.03323	130.0
257.04608	100.0
273.07147	30.0
284.03174	940.0
285.04123	1000.0
286.04034	60.0
437.12329	120.0
559.12097	100.0
577.13159	120.0
723.17523	590.0
724.17981	80.0
729.1582	20.0

NAME:  NCGC00385628-01![(2S,3S,4S,5R,6S)-6-[5,7-dihydroxy-2-(4-hydroxyphenyl)-4-oxochromen-3-yl]oxy-5-hydroxy-4-[(E)-3-(4-hydroxyphenyl)prop-2-enoyl]oxy-2-methyloxan-3-yl] (E)-3-(4-hydroxyphenyl)prop-2-enoate
PRECURSORMZ:  769.17740825783
PRECURSORTYPE:  [M+FA-H]-
FORMULA:  C39H32O14
Ontology: ;;;
INCHIKEY:  RMHWAEFAOBGGBH-UHFFFAOYNA-N
SMILES:  CC1OC(OC2=C(OC3=CC(O)=CC(O)=C3C2=O)C2=CC=C(O)C=C2)C(O)C(OC(=O)C=CC2=CC=C(O)C=C2)C1OC(=O)C=CC1=CC=C(O)C=C1
RETENTIONTIME:  
CCS:  -1
IONMODE:  Negative
INSTRUMENTTYPE:  
INSTRUMENT:  Maxis II HD Q-TOF Bruker
COLLISIONENERGY:  
Comment:  DB#=CCMSLIB00000845696; origin=GNPS
Num Peaks:  47
114.86025	10.0
117.03246	80.0
119.05065	130.0
127.03707	40.0
145.02853	470.0
151.00226	30.0
151.85094	60.0
159.03348	30.0
162.03362	40.0
163.00331	50.0
163.04131	220.0
164.91997	20.0
169.01549	30.0
179.00114	30.0
200.05406	30.0
201.07816	20.0
211.03961	70.0
229.05144	260.0
239.03873	30.0
243.06952	40.0
254.18176	10.0
254.64491	10.0
255.02905	340.0
256.04755	40.0
283.38858	10.0
284.03305	760.0
285.03815	920.0
286.03735	30.0
287.18619	20.0
288.12317	10.0
291.07825	40.0
293.048	20.0
395.07474	20.0
413.08121	40.0
437.13211	120.0
459.11911	20.0
559.14423	210.0
577.13416	70.0
578.17688	20.0
599.09344	30.0
653.03693	20.0
719.90814	20.0
723.17316	1000.0
723.41736	10.0
724.16614	90.0
767.17816	20.0
1388.4895	40.0

NAME:  NCGC00385077-01![(2R,3S,4S,5R,6S)-3,4,5-trihydroxy-6-(4-hydroxyphenoxy)oxan-2-yl]methyl (E)-3-(3,4-dihydroxyphenyl)prop-2-enoate
PRECURSORMZ:  433.11402045583
PRECURSORTYPE:  [M-H]-
FORMULA:  C21H22O10
Ontology: Kingdom: Organic compounds;Superclass: Organic oxygen compounds;Class: Organooxygen compounds;Subclass: Carbohydrates and carbohydrate conjugates
INCHIKEY:  OONDLKCAZJZRCW-UHFFFAOYNA-N
SMILES:  OC1C(COC(=O)C=CC2=CC(O)=C(O)C=C2)OC(OC2=CC=C(O)C=C2)C(O)C1O
RETENTIONTIME:  
CCS:  198.398471
IONMODE:  Negative
INSTRUMENTTYPE:  
INSTRUMENT:  Maxis II HD Q-TOF Bruker
COLLISIONENERGY:  
Comment:  DB#=CCMSLIB00000845697; origin=GNPS
Num Peaks:  15
90.84561	20.0
95.77771	30.0
100.8793	50.0
109.02735	70.0
132.02203	40.0
133.02727	60.0
134.03435	50.0
135.04631	60.0
161.02124	1000.0
179.02901	200.0
203.04445	40.0
271.07254	40.0
323.07687	100.0
432.49576	20.0
433.1153	970.0

NAME:  NCGC00169550-02!(E)-3-(4-hydroxy-3-methoxyphenyl)-N-[2-(4-hydroxyphenyl)ethyl]prop-2-enamide
PRECURSORMZ:  358.12961064383
PRECURSORTYPE:  [M+FA-H]-
FORMULA:  C18H19NO4
Ontology: Kingdom: Organic compounds;Superclass: Phenylpropanoids and polyketides;Class: Cinnamic acids and derivatives;Subclass: Hydroxycinnamic acids and derivatives
INCHIKEY:  NPNNKDMSXVRADT-UHFFFAOYSA-N
SMILES:  COC1=C(O)C=CC(C=CC(O)=NCCC2=CC=C(O)C=C2)=C1
RETENTIONTIME:  
CCS:  -1
IONMODE:  Negative
INSTRUMENTTYPE:  
INSTRUMENT:  Maxis II HD Q-TOF Bruker
COLLISIONENERGY:  
Comment:  DB#=CCMSLIB00000845699; origin=GNPS
Num Peaks:  7
148.05063	230.0
150.02762	40.0
176.03229	80.0
190.05705	80.0
297.09665	50.0
312.12308	1000.0
1146.78284	160.0

NAME:  NCGC00380183-01!4-[[(2R,3S,4S,5R,6S)-6-[2-(3,4-dihydroxyphenyl)-5-hydroxy-4-oxo-3-[(2S,3R,4R,5R,6S)-3,4,5-trihydroxy-6-methyloxan-2-yl]oxychromen-7-yl]oxy-3,4,5-trihydroxyoxan-2-yl]methoxy]-3-[(E)-3-(4-hydroxyphenyl)prop-2-enoyl]oxy-4-oxobutanoic acid
PRECURSORMZ:  871.19384647583
PRECURSORTYPE:  [M-H]-
FORMULA:  C40H40O22
Ontology: Kingdom: Organic compounds;Superclass: Phenylpropanoids and polyketides;Class: Flavonoids;Subclass: Flavonoid glycosides
INCHIKEY:  JYNZPXSRTWSMPG-UHFFFAOYNA-N
SMILES:  CC1OC(OC2=C(OC3=CC(OC4OC(COC(=O)C(CC(O)=O)OC(=O)C=CC5=CC=C(O)C=C5)C(O)C(O)C4O)=CC(O)=C3C2=O)C2=CC(O)=C(O)C=C2)C(O)C(O)C1O
RETENTIONTIME:  
CCS:  -1
IONMODE:  Negative
INSTRUMENTTYPE:  
INSTRUMENT:  Maxis II HD Q-TOF Bruker
COLLISIONENERGY:  
Comment:  DB#=CCMSLIB00000845702; origin=GNPS
Num Peaks:  70
72.99432	20.0
110.22309	20.0
110.6639	20.0
113.0285	10.0
119.04986	20.0
147.7605	20.0
148.01624	10.0
151.00388	120.0
159.04309	20.0
161.01833	30.0
163.00104	40.0
163.04008	20.0
164.0386	10.0
174.99829	10.0
175.05142	20.0
176.01413	10.0
177.01526	40.0
178.99931	60.0
189.05678	10.0
193.00345	20.0
205.00888	20.0
227.03641	20.0
243.03192	40.0
254.01595	20.0
271.02383	210.0
272.03226	10.0
273.03625	10.0
277.05792	20.0
283.02936	30.0
291.82697	10.0
299.02023	1000.0
300.02725	590.0
301.03522	830.0
302.03311	10.0
302.11276	20.0
304.0451	10.0
334.49866	20.0
339.59802	20.0
367.07721	20.0
403.07379	10.0
411.06512	20.0
417.07394	20.0
429.08585	10.0
445.06305	20.0
447.09167	240.0
448.1048	50.0
462.07828	250.0
463.08728	230.0
504.09659	10.0
505.08917	20.0
505.11072	10.0
505.2034	10.0
516.09167	60.0
517.10498	60.0
560.07037	30.0
561.08557	220.0
563.06879	20.0
575.14539	20.0
578.09277	10.0
609.14697	580.0
610.14514	100.0
611.14453	10.0
651.16168	50.0
663.14899	50.0
679.14526	10.0
707.14941	380.0
708.15222	110.0
725.15234	510.0
726.16821	70.0
871.19049	60.0

NAME:  NCGC00180834-02!5,7-dihydroxy-2-(4-hydroxyphenyl)-3-[(2S,3R,4R,5R,6S)-3,4,5-trihydroxy-6-methyloxan-2-yl]oxychromen-4-one
PRECURSORMZ:  477.10384939183
PRECURSORTYPE:  [M+FA-H]-
FORMULA:  C21H20O10
Ontology: Kingdom: Organic compounds;Superclass: Phenylpropanoids and polyketides;Class: Flavonoids;Subclass: Flavonoid glycosides
INCHIKEY:  SOSLMHZOJATCCP-UHFFFAOYNA-N
SMILES:  CC1OC(OC2=C(OC3=CC(O)=CC(O)=C3C2=O)C2=CC=C(O)C=C2)C(O)C(O)C1O
RETENTIONTIME:  
CCS:  -1
IONMODE:  Negative
INSTRUMENTTYPE:  
INSTRUMENT:  Maxis II HD Q-TOF Bruker
COLLISIONENERGY:  
Comment:  DB#=CCMSLIB00000845703; origin=GNPS
Num Peaks:  12
206.56435	20.0
227.03766	20.0
254.6685	10.0
255.028	60.0
256.0415	10.0
284.03275	460.0
284.27243	10.0
284.74844	10.0
285.0408	1000.0
286.03687	20.0
418.31366	10.0
431.10028	870.0

NAME:  NCGC00385154-01!4-[3-[(2S,3R,4S,5S,6R)-6-[[(2R,3R,4R)-3,4-dihydroxy-4-(hydroxymethyl)oxolan-2-yl]oxymethyl]-3,4,5-trihydroxyoxan-2-yl]oxy-2-hydroxy-3-methylbutoxy]furo[3,2-g]chromen-7-one
PRECURSORMZ:  643.18797294283
PRECURSORTYPE:  [M+FA-H]-
FORMULA:  C27H34O15
Ontology: Kingdom: Organic compounds;Superclass: Phenylpropanoids and polyketides;Class: Coumarins and derivatives;Subclass: Furanocoumarins
INCHIKEY:  WHICJDPSYBJDEN-UHFFFAOYNA-N
SMILES:  CC(C)(OC1OC(COC2OCC(O)(CO)C2O)C(O)C(O)C1O)C(O)COC1=C2C=COC2=CC2=C1C=CC(=O)O2
RETENTIONTIME:  
CCS:  -1
IONMODE:  Negative
INSTRUMENTTYPE:  
INSTRUMENT:  Maxis II HD Q-TOF Bruker
COLLISIONENERGY:  
Comment:  DB#=CCMSLIB00000845706; origin=GNPS
Num Peaks:  1
201.01965	1000.0

NAME:  NCGC00180639-02!2-[[4-[4-(2,4-dimethoxy-6-methylbenzoyl)oxy-2-methyl-6-[(2S,3R,4S,5S,6R)-3,4,5-trihydroxy-6-(hydroxymethyl)oxan-2-yl]oxybenzoyl]oxy-2-hydroxy-6-methylbenzoyl]amino]propanoic acid
PRECURSORMZ:  728.21960772783
PRECURSORTYPE:  [M-H]-
FORMULA:  C35H39NO16
Ontology: Kingdom: Organic compounds;Superclass: Phenylpropanoids and polyketides;Class: Tannins;Subclass: Hydrolyzable tannins
INCHIKEY:  URBFANMWRODMRT-UHFFFAOYNA-N
SMILES:  COC1=CC(OC)=C(C(=O)OC2=CC(OC3OC(CO)C(O)C(O)C3O)=C(C(=O)OC3=CC(O)=C(C(O)=NC(C)C(O)=O)C(C)=C3)C(C)=C2)C(C)=C1
RETENTIONTIME:  
CCS:  -1
IONMODE:  Negative
INSTRUMENTTYPE:  
INSTRUMENT:  Maxis II HD Q-TOF Bruker
COLLISIONENERGY:  
Comment:  DB#=CCMSLIB00000845710; origin=GNPS
Num Peaks:  34
81.54797	10.0
88.03911	20.0
105.03027	10.0
114.0195	490.0
114.26395	10.0
123.04446	530.0
124.04581	10.0
132.04639	20.0
132.07925	20.0
148.0336	20.0
149.02278	150.0
165.05994	10.0
167.03548	20.0
176.07292	180.0
177.06247	10.0
183.97357	10.0
191.03413	10.0
194.08067	70.0
220.06367	120.0
237.11818	10.0
238.01334	10.0
238.07169	1000.0
239.04575	10.0
243.10155	20.0
280.08325	20.0
310.08908	10.0
311.07892	30.0
345.09927	10.0
492.18832	10.0
566.16638	220.0
567.16266	20.0
728.21576	370.0
729.21936	80.0
731.22137	10.0

NAME:  NCGC00385112-01!2-(3,4-dihydroxyphenyl)-3-[(2S,3R,4S,5S,6R)-4,5-dihydroxy-3-[(2R,3R,4R,5R,6S)-3,4,5-trihydroxy-6-methyloxan-2-yl]oxy-6-[[(2R,3R,4R,5R,6S)-3,4,5-trihydroxy-6-methyloxan-2-yl]oxymethyl]oxan-2-yl]oxy-5,7-dihydroxychromen-4-one
PRECURSORMZ:  755.20401723583
PRECURSORTYPE:  [M-H]-
FORMULA:  C33H40O20
Ontology: Kingdom: Organic compounds;Superclass: Phenylpropanoids and polyketides;Class: Flavonoids;Subclass: Flavonoid glycosides
INCHIKEY:  HKNBJSRIYRDSLB-UHFFFAOYNA-N
SMILES:  CC1OC(OCC2OC(OC3=C(OC4=CC(O)=CC(O)=C4C3=O)C3=CC(O)=C(O)C=C3)C(OC3OC(C)C(O)C(O)C3O)C(O)C2O)C(O)C(O)C1O
RETENTIONTIME:  
CCS:  254.5206459
IONMODE:  Negative
INSTRUMENTTYPE:  
INSTRUMENT:  Maxis II HD Q-TOF Bruker
COLLISIONENERGY:  
Comment:  DB#=CCMSLIB00000845711; origin=GNPS
Num Peaks:  14
108.02063	10.0
151.00487	20.0
178.99966	10.0
243.02701	30.0
244.03647	20.0
255.03065	90.0
271.0257	230.0
272.02841	10.0
299.01849	20.0
300.02859	1000.0
301.03519	90.0
343.04922	10.0
755.20343	660.0
756.20782	50.0

NAME:  NCGC00347555-02!2-(21-amino-3,20-dihydroxydocosan-2-yl)oxy-6-(hydroxymethyl)oxane-3,4,5-triol
PRECURSORMZ:  580.40662034683
PRECURSORTYPE:  [M+FA-H]-
FORMULA:  C28H57NO8
Ontology: Kingdom: Organic compounds;Superclass: Lipids and lipid;Class: Fatty Acyls;Subclass: Fatty acyl glycosides
INCHIKEY:  FZSYYVOKNJZJTF-UHFFFAOYNA-N
SMILES:  CC(N)C(O)CCCCCCCCCCCCCCCCC(O)C(C)OC1OC(CO)C(O)C(O)C1O
RETENTIONTIME:  
CCS:  -1
IONMODE:  Negative
INSTRUMENTTYPE:  
INSTRUMENT:  Maxis II HD Q-TOF Bruker
COLLISIONENERGY:  
Comment:  DB#=CCMSLIB00000845713; origin=GNPS
Num Peaks:  10
101.023	320.0
143.04063	140.0
161.04065	30.0
179.05634	190.0
272.17337	70.0
356.32422	170.0
372.341	130.0
534.40216	1000.0
534.45203	90.0
1305.39392	160.0

NAME:  NCGC00380208-01!bis[[4-[(2S,3R,4S,5S,6R)-3,4,5-trihydroxy-6-(hydroxymethyl)oxan-2-yl]oxyphenyl]methyl] 3-hydroxy-3-methylpentanedioate
PRECURSORMZ:  743.24040243983
PRECURSORTYPE:  [M+FA-H]-
FORMULA:  C32H42O17
Ontology: Kingdom: Organic compounds;Superclass: Organic oxygen compounds;Class: Organooxygen compounds;Subclass: Carbohydrates and carbohydrate conjugates
INCHIKEY:  HIVUDBSYRZRZSH-UHFFFAOYNA-N
SMILES:  CC(O)(CC(=O)OCC1=CC=C(OC2OC(CO)C(O)C(O)C2O)C=C1)CC(=O)OCC1=CC=C(OC2OC(CO)C(O)C(O)C2O)C=C1
RETENTIONTIME:  
CCS:  -1
IONMODE:  Negative
INSTRUMENTTYPE:  
INSTRUMENT:  Maxis II HD Q-TOF Bruker
COLLISIONENERGY:  
Comment:  DB#=CCMSLIB00000845718; origin=GNPS
Num Peaks:  9
99.04551	90.0
101.01992	10.0
123.04491	30.0
125.02191	10.0
161.04425	90.0
221.0658	50.0
261.09619	70.0
429.13968	1000.0
430.14258	40.0

NAME:  NCGC00380211-01!10-[6-[[3,5-dihydroxy-4-(3,4,5-trihydroxyoxan-2-yl)oxyoxan-2-yl]oxymethyl]-3,4-dihydroxy-5-(3,4,5-trihydroxyoxan-2-yl)oxyoxan-2-yl]oxy-1,6a,6b,9,9,12a-hexamethyl-2-methylidene-1,3,4,5,6,6a,7,8,8a,10,11,12,13,14b-tetradecahydropicene-4a-carboxylic acid
PRECURSORMZ:  1011.51701852383
PRECURSORTYPE:  [M-H]-
FORMULA:  C51H80O20
Ontology: Kingdom: Organic compounds;Superclass: Lipids and lipid;Class: Prenol lipids;Subclass: Terpene glycosides
INCHIKEY:  QSBIUKCZJBBYIL-UHFFFAOYNA-N
SMILES:  CC1C2C3=CCC4C5(C)CCC(OC6OC(COC7OCC(O)C(OC8OCC(O)C(O)C8O)C7O)C(OC7OCC(O)C(O)C7O)C(O)C6O)C(C)(C)C5CCC4(C)C3(C)CCC2(CCC1=C)C(O)=O
RETENTIONTIME:  
CCS:  -1
IONMODE:  Negative
INSTRUMENTTYPE:  
INSTRUMENT:  Maxis II HD Q-TOF Bruker
COLLISIONENERGY:  
Comment:  DB#=CCMSLIB00000845719; origin=GNPS
Num Peaks:  56
71.01791	20.0
75.42648	20.0
85.03217	10.0
89.02393	100.0
95.01235	20.0
97.02827	10.0
101.02312	40.0
111.00606	20.0
113.02448	130.0
115.04378	30.0
117.0207	10.0
125.0276	30.0
131.03423	100.0
137.02521	20.0
139.03741	30.0
143.03409	70.0
191.05457	50.0
204.05266	10.0
215.05627	20.0
233.05577	30.0
275.08395	40.0
391.29065	20.0
407.1445	10.0
451.28772	10.0
453.33856	590.0
454.34265	70.0
481.31891	10.0
507.16901	10.0
507.34961	30.0
523.33368	10.0
549.35052	10.0
557.15332	10.0
565.37402	10.0
577.97839	10.0
579.36914	20.0
597.37238	100.0
598.37354	10.0
615.3949	50.0
616.38885	30.0
685.43793	30.0
729.40796	50.0
747.44067	60.0
786.31201	10.0
861.45776	90.0
862.45959	20.0
879.48486	120.0
880.48584	60.0
992.22162	20.0
1010.12872	20.0
1010.49097	20.0
1011.20123	20.0
1011.51721	1000.0
1011.90234	10.0
1012.5249	330.0
1013.52478	50.0
1014.52136	10.0

NAME:  NCGC00380211-01!10-[6-[[3,5-dihydroxy-4-(3,4,5-trihydroxyoxan-2-yl)oxyoxan-2-yl]oxymethyl]-3,4-dihydroxy-5-(3,4,5-trihydroxyoxan-2-yl)oxyoxan-2-yl]oxy-1,6a,6b,9,9,12a-hexamethyl-2-methylidene-1,3,4,5,6,6a,7,8,8a,10,11,12,13,14b-tetradecahydropicene-4a-carboxylic acid
PRECURSORMZ:  1057.52249752383
PRECURSORTYPE:  [M+FA-H]-
FORMULA:  C51H80O20
Ontology: Kingdom: Organic compounds;Superclass: Lipids and lipid;Class: Prenol lipids;Subclass: Terpene glycosides
INCHIKEY:  QSBIUKCZJBBYIL-UHFFFAOYNA-N
SMILES:  CC1C2C3=CCC4C5(C)CCC(OC6OC(COC7OCC(O)C(OC8OCC(O)C(O)C8O)C7O)C(OC7OCC(O)C(O)C7O)C(O)C6O)C(C)(C)C5CCC4(C)C3(C)CCC2(CCC1=C)C(O)=O
RETENTIONTIME:  
CCS:  -1
IONMODE:  Negative
INSTRUMENTTYPE:  
INSTRUMENT:  Maxis II HD Q-TOF Bruker
COLLISIONENERGY:  
Comment:  DB#=CCMSLIB00000845721; origin=GNPS
Num Peaks:  50
81.03426	60.0
85.88965	30.0
87.0069	50.0
89.45264	10.0
97.03426	50.0
101.01913	20.0
113.02105	150.0
129.90895	20.0
131.032	160.0
136.85506	50.0
148.18491	50.0
173.0466	40.0
191.05072	60.0
221.06346	60.0
256.76831	10.0
361.63791	20.0
401.03732	20.0
407.10913	30.0
410.38007	30.0
430.05225	40.0
441.34079	20.0
451.41833	20.0
453.19412	30.0
453.33643	750.0
454.33865	50.0
473.14081	30.0
481.32852	60.0
507.315	20.0
509.31689	30.0
527.05493	20.0
537.3476	20.0
579.36981	30.0
597.37451	60.0
598.37451	20.0
615.39685	150.0
616.39423	30.0
639.41046	20.0
712.37372	20.0
729.42523	150.0
747.23547	20.0
747.42102	30.0
861.46936	140.0
862.46948	20.0
879.47473	130.0
881.48688	30.0
1010.17963	20.0
1011.21265	20.0
1011.51416	1000.0
1012.5365	230.0
1013.54504	30.0

NAME:  NCGC00169598-02!1,7-bis(4-hydroxyphenyl)heptan-3-one
PRECURSORMZ:  343.15509711583
PRECURSORTYPE:  [M+FA-H]-
FORMULA:  C19H22O3
Ontology: Kingdom: Organic compounds;Superclass: Phenylpropanoids and polyketides;Class: Diarylheptanoids;Subclass: Linear diarylheptanoids
INCHIKEY:  QUHYUSAHBDACNG-UHFFFAOYSA-N
SMILES:  OC1=CC=C(CCCCC(=O)CCC2=CC=C(O)C=C2)C=C1
RETENTIONTIME:  
CCS:  -1
IONMODE:  Negative
INSTRUMENTTYPE:  
INSTRUMENT:  Maxis II HD Q-TOF Bruker
COLLISIONENERGY:  
Comment:  DB#=CCMSLIB00000845723; origin=GNPS
Num Peaks:  8
160.75826	50.0
190.76324	50.0
190.87564	50.0
191.10591	470.0
203.10307	100.0
248.36819	50.0
297.14832	1000.0
299.89609	40.0

NAME:  NCGC00380141-01![3,4,5-trihydroxy-6-[[3,4,5-trihydroxy-6-(hydroxymethyl)oxan-2-yl]oxymethyl]oxan-2-yl] 2,6,6-trimethylcyclohexa-1,3-diene-1-carboxylate
PRECURSORMZ:  535.20322908283
PRECURSORTYPE:  [M+FA-H]-
FORMULA:  C22H34O12
Ontology: Kingdom: Organic compounds;Superclass: Organic oxygen compounds;Class: Organooxygen compounds;Subclass: Carbohydrates and carbohydrate conjugates
INCHIKEY:  LFAZJMJJLQUOPK-UHFFFAOYNA-N
SMILES:  CC1=C(C(=O)OC2OC(COC3OC(CO)C(O)C(O)C3O)C(O)C(O)C2O)C(C)(C)CC=C1
RETENTIONTIME:  
CCS:  -1
IONMODE:  Negative
INSTRUMENTTYPE:  
INSTRUMENT:  Maxis II HD Q-TOF Bruker
COLLISIONENERGY:  
Comment:  DB#=CCMSLIB00000845725; origin=GNPS
Num Peaks:  11
82.23425	20.0
97.0313	20.0
125.02503	20.0
143.03328	30.0
149.04628	10.0
161.04433	10.0
165.09024	1000.0
221.06787	40.0
263.07983	20.0
323.09824	200.0
489.20663	50.0

NAME:  NCGC00380551-01!(5Z)-4-(carboxymethyl)-5-[2-[(E)-3-(4-hydroxyphenyl)prop-2-enoyl]oxyethylidene]-6-[3,4,5-trihydroxy-6-(hydroxymethyl)oxan-2-yl]oxy-4H-pyran-3-carboxylic acid
PRECURSORMZ:  551.14062912983
PRECURSORTYPE:  [M-H]-
FORMULA:  C25H28O14
Ontology: Kingdom: Organic compounds;Superclass: Lipids and lipid;Class: Prenol lipids;Subclass: Terpene glycosides
INCHIKEY:  DIRWTXHNLLFBAL-UHFFFAOYNA-N
SMILES:  OCC1OC(OC2OC=C(C(CC(O)=O)C2=CCOC(=O)C=CC2=CC=C(O)C=C2)C(O)=O)C(O)C(O)C1O
RETENTIONTIME:  
CCS:  -1
IONMODE:  Negative
INSTRUMENTTYPE:  
INSTRUMENT:  Maxis II HD Q-TOF Bruker
COLLISIONENERGY:  
Comment:  DB#=CCMSLIB00000845728; origin=GNPS
Num Peaks:  31
72.72679	70.0
94.04189	80.0
119.05192	120.0
122.03346	20.0
133.06053	40.0
137.05966	590.0
139.00362	40.0
145.03085	130.0
161.06114	60.0
162.86682	30.0
163.03944	1000.0
163.53387	20.0
179.06671	80.0
181.05203	200.0
191.03635	40.0
207.02951	90.0
225.04135	40.0
283.04242	40.0
283.08591	90.0
285.06912	30.0
318.70798	20.0
327.08823	50.0
327.11136	50.0
343.11496	140.0
387.09048	40.0
405.1041	70.0
547.87103	20.0
550.81244	40.0
550.95447	20.0
551.13403	40.0
1920.82263	20.0

NAME:  NCGC00380140-01!2-[2-[5-[4-[4,5-dihydroxy-6-methyl-3-(3,4,5-trihydroxy-6-methyloxan-2-yl)oxyoxan-2-yl]oxy-1,2,4a,5-tetramethyl-2,3,4,7,8,8a-hexahydronaphthalen-1-yl]-3-methylpent-1-en-3-yl]oxy-5-hydroxy-6-methyl-3-(3,4,5-trihydroxy-6-methyloxan-2-yl)oxyoxan-4-yl]oxy-6-methyloxane-3,4,5-triol
PRECURSORMZ:  1081.54362689283
PRECURSORTYPE:  [M+FA-H]-
FORMULA:  C50H84O22
Ontology: Kingdom: Organic compounds;Superclass: Lipids and lipid;Class: Prenol lipids;Subclass: Terpene glycosides
INCHIKEY:  CEERFMUHIRRAPN-UHFFFAOYNA-N
SMILES:  CC1CC(OC2OC(C)C(O)C(O)C2OC2OC(C)C(O)C(O)C2O)C2(C)C(CCC=C2C)C1(C)CCC(C)(OC1OC(C)C(O)C(OC2OC(C)C(O)C(O)C2O)C1OC1OC(C)C(O)C(O)C1O)C=C
RETENTIONTIME:  
CCS:  -1
IONMODE:  Negative
INSTRUMENTTYPE:  
INSTRUMENT:  Maxis II HD Q-TOF Bruker
COLLISIONENERGY:  
Comment:  DB#=CCMSLIB00000845730; origin=GNPS
Num Peaks:  29
85.02841	40.0
89.02644	10.0
97.02919	10.0
99.04264	30.0
101.02219	50.0
103.04027	10.0
109.02782	10.0
115.03683	10.0
126.031	50.0
127.0386	50.0
145.04845	250.0
163.05952	40.0
205.07945	10.0
375.25323	10.0
451.30191	130.0
452.32144	10.0
543.34674	10.0
579.354	10.0
597.36511	430.0
598.3717	50.0
707.40485	20.0
743.42487	170.0
744.42737	30.0
889.47876	370.0
890.47113	60.0
1016.44666	10.0
1035.54004	1000.0
1036.5448	380.0
1037.56104	20.0

NAME:  NCGC00169187-02!5,7-dihydroxy-2-(4-hydroxyphenyl)-3-[(2S,3R,4S,5R,6R)-3,4,5-trihydroxy-6-(hydroxymethyl)oxan-2-yl]oxychromen-4-one
PRECURSORMZ:  447.09328501183
PRECURSORTYPE:  [M-H]-
FORMULA:  C21H20O11
Ontology: Kingdom: Organic compounds;Superclass: Phenylpropanoids and polyketides;Class: Flavonoids;Subclass: Flavonoid glycosides
INCHIKEY:  JPUKWEQWGBDDQB-UHFFFAOYNA-N
SMILES:  OCC1OC(OC2=C(OC3=CC(O)=CC(O)=C3C2=O)C2=CC=C(O)C=C2)C(O)C(O)C1O
RETENTIONTIME:  
CCS:  199.6625881
IONMODE:  Negative
INSTRUMENTTYPE:  
INSTRUMENT:  Maxis II HD Q-TOF Bruker
COLLISIONENERGY:  
Comment:  DB#=CCMSLIB00000845731; origin=GNPS
Num Peaks:  12
151.00337	80.0
239.59555	170.0
255.03049	210.0
256.03799	70.0
283.05423	120.0
284.03232	830.0
285.0495	50.0
285.59314	70.0
286.80984	100.0
383.46417	460.0
447.05704	120.0
447.09482	1000.0

NAME:  NCGC00168861-02!(2S,3S,4S,5R,6S)-6-[2-(3,4-dihydroxyphenyl)-5,7-dihydroxy-4-oxochromen-3-yl]oxy-3,4,5-trihydroxyoxane-2-carboxylic acid
PRECURSORMZ:  477.06746418783
PRECURSORTYPE:  [M-H]-
FORMULA:  C21H18O13
Ontology: Kingdom: Organic compounds;Superclass: Phenylpropanoids and polyketides;Class: Flavonoids;Subclass: Flavonoid glycosides
INCHIKEY:  DUBCCGAQYVUYEU-UHFFFAOYNA-N
SMILES:  OC1C(O)C(OC2=C(OC3=CC(O)=CC(O)=C3C2=O)C2=CC(O)=C(O)C=C2)OC(C1O)C(O)=O
RETENTIONTIME:  
CCS:  216.3003442
IONMODE:  Negative
INSTRUMENTTYPE:  
INSTRUMENT:  Maxis II HD Q-TOF Bruker
COLLISIONENERGY:  
Comment:  DB#=CCMSLIB00000845733; origin=GNPS
Num Peaks:  17
111.43495	30.0
135.04164	20.0
149.94186	10.0
151.00697	10.0
161.02687	160.0
162.02916	10.0
177.32533	10.0
179.03552	20.0
199.0358	10.0
211.04225	20.0
245.05629	10.0
283.02716	30.0
301.03516	1000.0
302.04498	10.0
303.99551	10.0
477.06979	530.0
477.14334	310.0

NAME:  NCGC00169142-02![(2R,3S,4R,5R,6R)-6-[2-(3,4-dihydroxyphenyl)ethoxy]-4,5-dihydroxy-2-(hydroxymethyl)oxan-3-yl] (E)-3-(3,4-dihydroxyphenyl)prop-2-enoate
PRECURSORMZ:  477.14023520483
PRECURSORTYPE:  [M-H]-
FORMULA:  C23H26O11
Ontology: Kingdom: Organic compounds;Superclass: Phenylpropanoids and polyketides;Class: Cinnamic acids and derivatives;Subclass: Hydroxycinnamic acids and derivatives
INCHIKEY:  UHIGZYLCYRQESL-UHFFFAOYNA-N
SMILES:  OCC1OC(OCCC2=CC(O)=C(O)C=C2)C(O)C(O)C1OC(=O)C=CC1=CC(O)=C(O)C=C1
RETENTIONTIME:  
CCS:  213.2994544
IONMODE:  Negative
INSTRUMENTTYPE:  
INSTRUMENT:  Maxis II HD Q-TOF Bruker
COLLISIONENERGY:  
Comment:  DB#=CCMSLIB00000845735; origin=GNPS
Num Peaks:  18
101.37848	20.0
132.01949	90.0
133.02805	120.0
133.11615	10.0
134.03049	50.0
137.02983	30.0
161.0239	1000.0
179.0018	50.0
179.03418	280.0
201.05478	40.0
229.26511	50.0
239.46637	10.0
298.54419	30.0
299.00549	20.0
301.03806	910.0
302.07977	20.0
477.06073	140.0
477.14688	760.0

NAME:  NCGC00180490-02!5,7-dihydroxy-2-(4-hydroxyphenyl)-3-[3,4,5-trihydroxy-6-[(3,4,5-trihydroxy-6-methyloxan-2-yl)oxymethyl]oxan-2-yl]oxychromen-4-one
PRECURSORMZ:  593.15119381383
PRECURSORTYPE:  [M-H]-
FORMULA:  C27H30O15
Ontology: Kingdom: Organic compounds;Superclass: Phenylpropanoids and polyketides;Class: Flavonoids;Subclass: Flavonoid glycosides
INCHIKEY:  RTATXGUCZHCSNG-UHFFFAOYNA-N
SMILES:  CC1OC(OCC2OC(OC3=C(OC4=CC(O)=CC(O)=C4C3=O)C3=CC=C(O)C=C3)C(O)C(O)C2O)C(O)C(O)C1O
RETENTIONTIME:  
CCS:  224.998807
IONMODE:  Negative
INSTRUMENTTYPE:  
INSTRUMENT:  Maxis II HD Q-TOF Bruker
COLLISIONENERGY:  
Comment:  DB#=CCMSLIB00000845737; origin=GNPS
Num Peaks:  20
160.78621	60.0
165.02097	40.0
169.01016	30.0
229.05254	30.0
240.03447	10.0
241.04524	20.0
255.0296	80.0
255.12109	10.0
256.04294	30.0
284.03198	430.0
285.04166	590.0
285.2796	20.0
286.59171	20.0
286.67569	20.0
327.04279	50.0
361.47983	10.0
592.9939	20.0
593.07208	20.0
593.15082	1000.0
594.1496	20.0

NAME:  NCGC00385314-01!3-[(2S,3R,4S,5S,6R)-3-[(2S,3R,4R)-3,4-dihydroxy-4-(hydroxymethyl)oxolan-2-yl]oxy-4,5-dihydroxy-6-[[(2R,3R,4S,5S,6R)-3,4,5-trihydroxy-6-(hydroxymethyl)oxan-2-yl]oxymethyl]oxan-2-yl]oxy-5,7-dihydroxy-2-(4-hydroxy-3-methoxyphenyl)-6-methoxychromen-4-one
PRECURSORMZ:  801.20949653983
PRECURSORTYPE:  [M-H]-
FORMULA:  C34H42O22
Ontology: Kingdom: Organic compounds;Superclass: Phenylpropanoids and polyketides;Class: Flavonoids;Subclass: Flavonoid glycosides
INCHIKEY:  NVYWCFHFPXGDKS-UHFFFAOYNA-N
SMILES:  COC1=C(O)C=CC(=C1)C1=C(OC2OC(COC3OC(CO)C(O)C(O)C3O)C(O)C(O)C2OC2OCC(O)(CO)C2O)C(=O)C2=C(O1)C=C(O)C(OC)=C2O
RETENTIONTIME:  
CCS:  289.9678383
IONMODE:  Negative
INSTRUMENTTYPE:  
INSTRUMENT:  Maxis II HD Q-TOF Bruker
COLLISIONENERGY:  
Comment:  DB#=CCMSLIB00000845740; origin=GNPS
Num Peaks:  36
123.01084	10.0
124.01708	10.0
164.98485	40.0
165.98685	50.0
180.01524	20.0
209.0054	20.0
241.04724	10.0
242.01712	30.0
258.01682	50.0
261.02811	10.0
270.01651	20.0
273.03949	20.0
286.01297	140.0
287.0235	70.0
298.01505	10.0
300.01892	20.0
301.03772	160.0
302.04233	30.0
313.03793	20.0
314.00851	90.0
315.05566	10.0
329.03168	840.0
330.03757	170.0
333.04755	10.0
343.04355	20.0
343.46283	10.0
344.05527	750.0
345.06436	190.0
386.71375	10.0
396.82336	10.0
517.75616	10.0
519.12701	20.0
651.14423	20.0
769.48206	10.0
801.21301	1000.0
802.2193	140.0

NAME:  NCGC00380811-01!3-(3,4-dihydroxy-2,2-dimethyl-1-oxo-3aH-imidazo[1,2-a]indol-4-yl)-2-(4-oxoquinazolin-3-yl)propanoic acid
PRECURSORMZ:  449.14665799183
PRECURSORTYPE:  [M-H]-
FORMULA:  C23H22N4O6
Ontology: Kingdom: Organic compounds;Superclass: Organoheterocyclic compounds;Class: Diazanaphthalenes;Subclass: Benzodiazines
INCHIKEY:  GVRDYBOOMKTYKH-UHFFFAOYNA-N
SMILES:  CC1(C)N(O)C2N(C1=O)C1=CC=CC=C1C2(O)CC(N1C=NC2=CC=CC=C2C1=O)C(O)=O
RETENTIONTIME:  
CCS:  -1
IONMODE:  Negative
INSTRUMENTTYPE:  
INSTRUMENT:  Maxis II HD Q-TOF Bruker
COLLISIONENERGY:  
Comment:  DB#=CCMSLIB00000845741; origin=GNPS
Num Peaks:  21
132.04156	30.0
144.75612	20.0
145.04013	1000.0
146.07417	30.0
159.05789	10.0
159.0984	10.0
186.05095	20.0
188.06723	20.0
199.04068	10.0
199.08667	10.0
203.08553	10.0
212.67865	10.0
215.07434	10.0
223.09399	20.0
240.11655	20.0
241.09854	70.0
288.11166	20.0
375.0932	10.0
401.15683	10.0
405.16504	10.0
449.13675	40.0

NAME:  NCGC00380806-01!6-(diaminomethylideneamino)-2-[[(4E,6E,12E,14E)-3-hydroxy-2-(hydroxymethyl)-8,10,16-trimethyloctadeca-4,6,12,14-tetraenoyl]amino]hexanoic acid
PRECURSORMZ:  533.37084427383
PRECURSORTYPE:  [M-H]-
FORMULA:  C29H50N4O5
Ontology: Kingdom: Organic compounds;Superclass: Organic acids and derivatives;Class: Carboxylic acids and derivatives;Subclass: Amino acids
INCHIKEY:  QOXHBQOXXZSKON-UHFFFAOYNA-N
SMILES:  CCC(C)C=CC=CCC(C)CC(C)C=CC=CC(O)C(CO)C(O)=NC(CCCCNC(N)=N)C(O)=O
RETENTIONTIME:  
CCS:  -1
IONMODE:  Negative
INSTRUMENTTYPE:  
INSTRUMENT:  Maxis II HD Q-TOF Bruker
COLLISIONENERGY:  
Comment:  DB#=CCMSLIB00000845744; origin=GNPS
Num Peaks:  24
89.13371	20.0
89.86118	20.0
145.09846	380.0
145.15863	20.0
155.11681	60.0
168.11617	80.0
170.08061	60.0
185.13156	40.0
187.11913	1000.0
199.12309	40.0
217.12212	80.0
224.10481	50.0
229.1313	40.0
229.15298	50.0
241.12979	560.0
241.1994	10.0
242.1115	50.0
258.52988	40.0
258.58789	20.0
259.14172	720.0
259.32321	20.0
485.40179	40.0
503.37006	40.0
533.36768	160.0

NAME:  NCGC00179841-03!3-[(3S,5R,10S,13R,14S,17S)-14-hydroxy-3-[(2R,3S,4S,5S,6S)-3-hydroxy-4-methoxy-6-methyl-5-[(2S,3R,4S,5S,6R)-3,4,5-trihydroxy-6-[[(2R,3R,4S,5S,6R)-3,4,5-trihydroxy-6-(hydroxymethyl)oxan-2-yl]oxymethyl]oxan-2-yl]oxyoxan-2-yl]oxy-10,13-dimethyl-1,2,3,4,5,6,7,8,9,11,12,15,16,17-tetradecahydrocyclopenta[a]phenanthren-17-yl]-2H-furan-5-one
PRECURSORMZ:  903.42311783283
PRECURSORTYPE:  [M+FA-H]-
FORMULA:  C42H66O18
Ontology: Kingdom: Organic compounds;Superclass: Lipids and lipid;Class: Steroids and steroid derivatives;Subclass: Steroid lactones
INCHIKEY:  GZVMBXDQUQRICT-UHFFFAOYNA-N
SMILES:  COC1C(O)C(OC2CCC3(C)C(CCC4C3CCC3(C)C(CCC43O)C3=CC(=O)OC3)C2)OC(C)C1OC1OC(COC2OC(CO)C(O)C(O)C2O)C(O)C(O)C1O
RETENTIONTIME:  
CCS:  -1
IONMODE:  Negative
INSTRUMENTTYPE:  
INSTRUMENT:  Maxis II HD Q-TOF Bruker
COLLISIONENERGY:  
Comment:  DB#=CCMSLIB00000845746; origin=GNPS
Num Peaks:  45
74.35278	20.0
85.02972	30.0
89.02971	10.0
101.02553	150.0
101.1495	10.0
113.02479	100.0
119.03212	90.0
123.00882	10.0
125.024	70.0
127.03801	30.0
131.03575	30.0
143.03568	120.0
149.04854	20.0
155.02922	20.0
158.01958	20.0
159.02991	50.0
161.04562	370.0
173.84679	10.0
179.05392	330.0
185.04768	20.0
205.03267	20.0
221.06657	150.0
233.06747	10.0
245.05933	10.0
263.07962	30.0
274.23584	10.0
323.09894	230.0
341.11487	10.0
373.23447	30.0
393.86084	10.0
467.40027	10.0
515.31134	20.0
533.31219	130.0
533.38171	10.0
695.36115	120.0
696.36115	40.0
857.42236	1000.0
857.61206	10.0
858.42096	250.0
859.44019	20.0
903.42621	20.0
904.42175	10.0
1308.06128	30.0
1384.37878	10.0
1782.29773	10.0

NAME:  NCGC00380091-01![2,6-dihydroxy-5-[3,4,5-trihydroxy-6-(hydroxymethyl)oxan-2-yl]oxycyclohex-3-en-1-yl] (E)-3-(3,4-dihydroxyphenyl)prop-2-enoate
PRECURSORMZ:  469.13514982483
PRECURSORTYPE:  [M-H]-
FORMULA:  C21H26O12
Ontology: Kingdom: Organic compounds;Superclass: Phenylpropanoids and polyketides;Class: Cinnamic acids and derivatives;Subclass: Hydroxycinnamic acids and derivatives
INCHIKEY:  HRTKMOMTMZCGLF-UHFFFAOYNA-N
SMILES:  OCC1OC(OC2C=CC(O)C(OC(=O)C=CC3=CC(O)=C(O)C=C3)C2O)C(O)C(O)C1O
RETENTIONTIME:  
CCS:  -1
IONMODE:  Negative
INSTRUMENTTYPE:  
INSTRUMENT:  Maxis II HD Q-TOF Bruker
COLLISIONENERGY:  
Comment:  DB#=CCMSLIB00000845748; origin=GNPS
Num Peaks:  7
135.04626	180.0
136.04503	50.0
161.01973	120.0
178.20891	50.0
179.03401	940.0
246.33524	110.0
469.13623	1000.0

NAME:  NCGC00380091-01![2,6-dihydroxy-5-[3,4,5-trihydroxy-6-(hydroxymethyl)oxan-2-yl]oxycyclohex-3-en-1-yl] (E)-3-(3,4-dihydroxyphenyl)prop-2-enoate
PRECURSORMZ:  515.14062882483
PRECURSORTYPE:  [M+FA-H]-
FORMULA:  C21H26O12
Ontology: Kingdom: Organic compounds;Superclass: Phenylpropanoids and polyketides;Class: Cinnamic acids and derivatives;Subclass: Hydroxycinnamic acids and derivatives
INCHIKEY:  HRTKMOMTMZCGLF-UHFFFAOYNA-N
SMILES:  OCC1OC(OC2C=CC(O)C(OC(=O)C=CC3=CC(O)=C(O)C=C3)C2O)C(O)C(O)C1O
RETENTIONTIME:  
CCS:  -1
IONMODE:  Negative
INSTRUMENTTYPE:  
INSTRUMENT:  Maxis II HD Q-TOF Bruker
COLLISIONENERGY:  
Comment:  DB#=CCMSLIB00000845749; origin=GNPS
Num Peaks:  8
135.04501	180.0
161.02454	60.0
171.63293	10.0
179.03302	630.0
245.08672	20.0
387.23242	30.0
469.13409	1000.0
1235.50061	40.0

NAME:  NCGC00169670-02!(2S,3R,4S,5S,6R)-2-[4-[(3S,3aR,6S,6aR)-3-(4-hydroxy-3,5-dimethoxyphenyl)-1,3,3a,4,6,6a-hexahydrofuro[3,4-c]furan-6-yl]-2,6-dimethoxyphenoxy]-6-(hydroxymethyl)oxane-3,4,5-triol
PRECURSORMZ:  579.20831476683
PRECURSORTYPE:  [M-H]-
FORMULA:  C28H36O13
Ontology: Kingdom: Organic compounds;Superclass: Lignans;Class: Lignan glycosides;
INCHIKEY:  WEKCEGQSIIQPAQ-UHFFFAOYNA-N
SMILES:  COC1=CC(=CC(OC)=C1O)C1OCC2C1COC2C1=CC(OC)=C(OC2OC(CO)C(O)C(O)C2O)C(OC)=C1
RETENTIONTIME:  
CCS:  228.2792162
IONMODE:  Negative
INSTRUMENTTYPE:  
INSTRUMENT:  Maxis II HD Q-TOF Bruker
COLLISIONENERGY:  
Comment:  DB#=CCMSLIB00000845752; origin=GNPS
Num Peaks:  9
83.30308	270.0
150.99518	110.0
166.02902	200.0
181.05238	1000.0
221.04483	90.0
223.05989	110.0
387.10699	220.0
402.12158	90.0
417.1546	780.0

NAME:  NCGC00169670-02!(2S,3R,4S,5S,6R)-2-[4-[(3S,3aR,6S,6aR)-3-(4-hydroxy-3,5-dimethoxyphenyl)-1,3,3a,4,6,6a-hexahydrofuro[3,4-c]furan-6-yl]-2,6-dimethoxyphenoxy]-6-(hydroxymethyl)oxane-3,4,5-triol
PRECURSORMZ:  625.21379376683
PRECURSORTYPE:  [M+FA-H]-
FORMULA:  C28H36O13
Ontology: Kingdom: Organic compounds;Superclass: Lignans;Class: Lignan glycosides;
INCHIKEY:  WEKCEGQSIIQPAQ-UHFFFAOYNA-N
SMILES:  COC1=CC(=CC(OC)=C1O)C1OCC2C1COC2C1=CC(OC)=C(OC2OC(CO)C(O)C(O)C2O)C(OC)=C1
RETENTIONTIME:  
CCS:  -1
IONMODE:  Negative
INSTRUMENTTYPE:  
INSTRUMENT:  Maxis II HD Q-TOF Bruker
COLLISIONENERGY:  
Comment:  DB#=CCMSLIB00000845753; origin=GNPS
Num Peaks:  20
85.03027	20.0
97.66231	10.0
150.02998	20.0
166.02519	110.0
173.05223	20.0
181.0489	290.0
205.04266	20.0
205.08466	20.0
212.90076	10.0
259.2493	20.0
269.04947	20.0
301.02072	20.0
371.16153	20.0
386.54639	20.0
387.10721	60.0
402.12976	120.0
402.17166	30.0
417.15289	1000.0
418.17056	10.0
531.15002	20.0

NAME:  NCGC00380524-01!(2R)-2-[(E)-3-[3-[(1R)-1-carboxy-2-(3,4-dihydroxyphenyl)ethoxy]carbonyl-2-(3,4-dihydroxyphenyl)-7-hydroxy-2,3-dihydro-1-benzofuran-4-yl]prop-2-enoyl]oxy-3-(3,4-dihydroxyphenyl)propanoic acid
PRECURSORMZ:  717.14610843383
PRECURSORTYPE:  [M-H]-
FORMULA:  C36H30O16
Ontology: Kingdom: Organic compounds;Superclass: Phenylpropanoids and polyketides;;
INCHIKEY:  SNKFFCBZYFGCQN-UHFFFAOYNA-N
SMILES:  OC(=O)C(CC1=CC(O)=C(O)C=C1)OC(=O)C=CC1=C2C(C(OC2=C(O)C=C1)C1=CC(O)=C(O)C=C1)C(=O)OC(CC1=CC(O)=C(O)C=C1)C(O)=O
RETENTIONTIME:  
CCS:  279.1691598
IONMODE:  Negative
INSTRUMENTTYPE:  
INSTRUMENT:  Maxis II HD Q-TOF Bruker
COLLISIONENERGY:  
Comment:  DB#=CCMSLIB00000845756; origin=GNPS
Num Peaks:  25
109.03026	50.0
135.04155	10.0
159.04262	20.0
173.02271	10.0
179.03537	30.0
185.02563	130.0
186.02756	30.0
197.04698	40.0
225.05542	10.0
248.04663	20.0
249.05521	30.0
265.04938	20.0
267.06149	30.0
277.05231	60.0
279.02786	90.0
293.04578	60.0
295.06119	230.0
296.065	10.0
321.04083	1000.0
322.04449	40.0
339.05072	470.0
493.10986	30.0
519.09302	420.0
520.10028	30.0
537.1062	20.0

NAME:  NCGC00169461-03![(2R,3R,4R,5R,6R)-6-[2-(3,4-dihydroxyphenyl)ethoxy]-5-hydroxy-4-[(2R,3R,4R,5R,6S)-3,4,5-trihydroxy-6-methyloxan-2-yl]oxy-2-[[(2R,3R,4R,5R,6S)-3,4,5-trihydroxy-6-methyloxan-2-yl]oxymethyl]oxan-3-yl] (E)-3-(3,4-dihydroxyphenyl)prop-2-enoate
PRECURSORMZ:  769.25605280883
PRECURSORTYPE:  [M-H]-
FORMULA:  C35H46O19
Ontology: Kingdom: Organic compounds;Superclass: Organic oxygen compounds;Class: Organooxygen compounds;Subclass: Carbohydrates and carbohydrate conjugates
INCHIKEY:  YMWRMAOPKNYHMZ-UHFFFAOYNA-N
SMILES:  CC1OC(OCC2OC(OCCC3=CC(O)=C(O)C=C3)C(O)C(OC3OC(C)C(O)C(O)C3O)C2OC(=O)C=CC2=CC(O)=C(O)C=C2)C(O)C(O)C1O
RETENTIONTIME:  
CCS:  266.7111811
IONMODE:  Negative
INSTRUMENTTYPE:  
INSTRUMENT:  Maxis II HD Q-TOF Bruker
COLLISIONENERGY:  
Comment:  DB#=CCMSLIB00000845757; origin=GNPS
Num Peaks:  14
85.02793	10.0
100.04365	10.0
125.02223	30.0
133.02892	120.0
135.04367	70.0
153.05368	40.0
161.02328	1000.0
162.02724	10.0
163.0605	30.0
179.03351	30.0
443.15347	20.0
607.22296	160.0
769.25635	700.0
770.26068	110.0

NAME:  NCGC00380090-01![(2R,3R,4R,5R,6S)-4,5-dihydroxy-6-[5-hydroxy-2-(4-hydroxyphenyl)-4-oxo-7-[(2R,3R,4R,5R,6S)-3,4,5-trihydroxy-6-methyloxan-2-yl]oxychromen-3-yl]oxy-2-[[(2R,3R,4R,5R,6S)-3,4,5-trihydroxy-6-methyloxan-2-yl]oxymethyl]oxan-3-yl] (E)-3-(4-hydroxyphenyl)prop-2-enoate
PRECURSORMZ:  885.24588204883
PRECURSORTYPE:  [M-H]-
FORMULA:  C42H46O21
Ontology: Kingdom: Organic compounds;Superclass: Phenylpropanoids and polyketides;Class: Flavonoids;Subclass: Flavonoid glycosides
INCHIKEY:  WVHDCAPOGJJVCD-UHFFFAOYNA-N
SMILES:  CC1OC(OCC2OC(OC3=C(OC4=CC(OC5OC(C)C(O)C(O)C5O)=CC(O)=C4C3=O)C3=CC=C(O)C=C3)C(O)C(O)C2OC(=O)C=CC2=CC=C(O)C=C2)C(O)C(O)C1O
RETENTIONTIME:  
CCS:  290.4943128
IONMODE:  Negative
INSTRUMENTTYPE:  
INSTRUMENT:  Maxis II HD Q-TOF Bruker
COLLISIONENERGY:  
Comment:  DB#=CCMSLIB00000845759; origin=GNPS
Num Peaks:  10
284.03076	10.0
285.0379	50.0
581.53156	10.0
593.14777	30.0
739.19025	1000.0
740.19275	130.0
741.19238	20.0
885.24597	450.0
886.19269	20.0
886.25317	70.0

NAME:  NCGC00381165-01!5,7-dihydroxy-2-phenyl-6,8-bis[3,4,5-trihydroxy-6-(hydroxymethyl)oxan-2-yl]chromen-4-one
PRECURSORMZ:  577.15627919383
PRECURSORTYPE:  [M-H]-
FORMULA:  C27H30O14
Ontology: Kingdom: Organic compounds;Superclass: Phenylpropanoids and polyketides;Class: Flavonoids;Subclass: Flavonoid glycosides
INCHIKEY:  SLVXPCHHHTVCHF-UHFFFAOYNA-N
SMILES:  OCC1OC(C(O)C(O)C1O)C1=C(O)C(C2OC(CO)C(O)C(O)C2O)=C2OC(=CC(=O)C2=C1O)C1=CC=CC=C1
RETENTIONTIME:  
CCS:  252.7472361
IONMODE:  Negative
INSTRUMENTTYPE:  
INSTRUMENT:  Maxis II HD Q-TOF Bruker
COLLISIONENERGY:  
Comment:  DB#=CCMSLIB00000845762; origin=GNPS
Num Peaks:  27
159.04651	20.0
163.04047	20.0
210.08252	10.0
235.22398	10.0
270.97812	10.0
273.23724	20.0
281.08008	50.0
309.07727	110.0
312.05551	20.0
319.06082	20.0
337.07059	300.0
340.05823	30.0
352.07428	30.0
367.0871	230.0
370.58679	10.0
379.08594	50.0
389.06461	10.0
397.09091	50.0
421.09967	30.0
457.11563	220.0
469.10248	10.0
487.12726	80.0
488.12384	10.0
517.13129	40.0
555.44971	10.0
577.15656	1000.0
578.15393	20.0

NAME:  NCGC00381224-01!4-[2-[[4-[[2-[(2-acetamido-3-methylbutanoyl)amino]-3-methylbutanoyl]amino]-3-hydroxy-6-methylheptanoyl]amino]propanoylamino]-3,7-dihydroxy-6-methylheptanoic acid
PRECURSORMZ:  658.40326660283
PRECURSORTYPE:  [M-H]-
FORMULA:  C31H57N5O10
Ontology: ;;;
INCHIKEY:  SNPUUTQIPHTWGL-UHFFFAOYNA-N
SMILES:  CC(C)CC(N=C(O)C(N=C(O)C(N=C(C)O)C(C)C)C(C)C)C(O)CC(O)=NC(C)C(O)=NC(CC(C)CO)C(O)CC(O)=O
RETENTIONTIME:  
CCS:  -1
IONMODE:  Negative
INSTRUMENTTYPE:  
INSTRUMENT:  Maxis II HD Q-TOF Bruker
COLLISIONENERGY:  
Comment:  DB#=CCMSLIB00000845764; origin=GNPS
Num Peaks:  33
112.04062	40.0
113.7188	10.0
114.01818	10.0
126.05498	20.0
129.06755	20.0
140.07401	20.0
157.09622	40.0
157.13333	40.0
183.14908	160.0
185.12991	320.0
197.13191	20.0
201.15955	10.0
218.55208	20.0
225.15894	60.0
227.14166	510.0
229.1618	20.0
269.14633	20.0
287.16122	250.0
297.18103	10.0
321.23093	20.0
328.24164	30.0
347.8345	20.0
370.23386	420.0
371.23376	20.0
400.24957	10.0
538.37109	10.0
580.37494	50.0
598.38806	20.0
640.39343	130.0
653.68237	20.0
658.40143	1000.0
659.41913	40.0
777.68579	10.0

NAME:  NCGC00381224-01!4-[2-[[4-[[2-[(2-acetamido-3-methylbutanoyl)amino]-3-methylbutanoyl]amino]-3-hydroxy-6-methylheptanoyl]amino]propanoylamino]-3,7-dihydroxy-6-methylheptanoic acid
PRECURSORMZ:  694.3799443149
PRECURSORTYPE:  [M+Cl]-
FORMULA:  C31H57N5O10
Ontology: Kingdom: Organic compounds;Superclass: Organic acids and derivatives;Class: Peptidomimetics;Subclass: Hybrid peptides
INCHIKEY:  SNPUUTQIPHTWGL-UHFFFAOYNA-N
SMILES:  CC(C)CC(N=C(O)C(N=C(O)C(N=C(C)O)C(C)C)C(C)C)C(O)CC(O)=NC(C)C(O)=NC(CC(C)CO)C(O)CC(O)=O
RETENTIONTIME:  
CCS:  -1
IONMODE:  Negative
INSTRUMENTTYPE:  
INSTRUMENT:  Maxis II HD Q-TOF Bruker
COLLISIONENERGY:  
Comment:  DB#=CCMSLIB00000845766; origin=GNPS
Num Peaks:  13
129.73608	100.0
183.15056	140.0
185.13113	240.0
227.14253	170.0
287.15436	70.0
336.14606	130.0
350.24173	30.0
355.07632	30.0
370.22998	210.0
370.28906	100.0
640.39923	160.0
658.39551	1000.0
659.38086	60.0

NAME:  NCGC00168998-02!3-[6-[[(2R,3R,4R,5S,6S)-3,5-dihydroxy-6-methyl-4-[(2S,3R,4R,5R,6S)-3,4,5-trihydroxy-6-methyloxan-2-yl]oxyoxan-2-yl]oxymethyl]-3,4,5-trihydroxyoxan-2-yl]oxy-5-hydroxy-2-(4-hydroxyphenyl)-7-methoxychromen-4-one
PRECURSORMZ:  753.22475267983
PRECURSORTYPE:  [M-H]-
FORMULA:  C34H42O19
Ontology: Kingdom: Organic compounds;Superclass: Phenylpropanoids and polyketides;Class: Flavonoids;Subclass: Flavonoid glycosides
INCHIKEY:  MQMTVWHXCSRCER-UHFFFAOYNA-N
SMILES:  COC1=CC(O)=C2C(=O)C(OC3OC(COC4OC(C)C(O)C(OC5OC(C)C(O)C(O)C5O)C4O)C(O)C(O)C3O)=C(OC2=C1)C1=CC=C(O)C=C1
RETENTIONTIME:  
CCS:  261.4921582
IONMODE:  Negative
INSTRUMENTTYPE:  
INSTRUMENT:  Maxis II HD Q-TOF Bruker
COLLISIONENERGY:  
Comment:  DB#=CCMSLIB00000845768; origin=GNPS
Num Peaks:  23
92.56373	10.0
109.99962	20.0
131.05316	10.0
146.00427	10.0
158.82678	10.0
161.99245	10.0
227.02477	10.0
227.04881	20.0
228.04155	20.0
255.02638	70.0
255.06474	10.0
256.03848	20.0
267.06171	10.0
271.05624	20.0
283.02396	360.0
284.03088	130.0
287.09406	10.0
298.0477	540.0
299.05753	1000.0
341.06754	20.0
348.80133	20.0
753.22131	490.0
754.22943	20.0

NAME:  NCGC00381171-01![1-[[1-[1-[[1-(2,3-dihydroxypropoxy)-3-methyl-1-oxobutan-2-yl]amino]-3-methyl-1-oxobutan-2-yl]oxy-3-methyl-1-oxobutan-2-yl]amino]-1-oxopropan-2-yl] 2-[2-[2-[(2-hydroxy-3-methylbutanoyl)amino]-3-methylbutanoyl]oxypropanoylamino]-3-methylbutanoate
PRECURSORMZ:  831.46084105383
PRECURSORTYPE:  [M-H]-
FORMULA:  C39H68N4O15
Ontology: Kingdom: Organic compounds;Superclass: Organic acids and derivatives;Class: Carboxylic acids and derivatives;Subclass: Tetracarboxylic acids and derivatives
INCHIKEY:  OBKFQZNNFBXVJH-UHFFFAOYNA-N
SMILES:  CC(C)C(O)C(O)=NC(C(C)C)C(=O)OC(C)C(O)=NC(C(C)C)C(=O)OC(C)C(O)=NC(C(C)C)C(=O)OC(C(C)C)C(O)=NC(C(C)C)C(=O)OCC(O)CO
RETENTIONTIME:  
CCS:  -1
IONMODE:  Negative
INSTRUMENTTYPE:  
INSTRUMENT:  Maxis II HD Q-TOF Bruker
COLLISIONENERGY:  
Comment:  DB#=CCMSLIB00000845770; origin=GNPS
Num Peaks:  22
108.08475	60.0
109.12897	30.0
116.07433	30.0
126.05949	80.0
144.09944	30.0
152.06697	130.0
154.98776	40.0
170.0815	760.0
172.1306	30.0
188.09361	1000.0
188.18349	10.0
198.11162	160.0
216.12711	290.0
217.1248	20.0
262.13394	300.0
272.92349	10.0
290.16129	40.0
387.21979	170.0
461.21112	20.0
494.0058	20.0
757.42737	10.0
829.54944	20.0

NAME:  NCGC00381171-01![1-[[1-[1-[[1-(2,3-dihydroxypropoxy)-3-methyl-1-oxobutan-2-yl]amino]-3-methyl-1-oxobutan-2-yl]oxy-3-methyl-1-oxobutan-2-yl]amino]-1-oxopropan-2-yl] 2-[2-[2-[(2-hydroxy-3-methylbutanoyl)amino]-3-methylbutanoyl]oxypropanoylamino]-3-methylbutanoate
PRECURSORMZ:  867.4375187659
PRECURSORTYPE:  [M+Cl]-
FORMULA:  C39H68N4O15
Ontology: Kingdom: Organic compounds;Superclass: Organic acids and derivatives;Class: Carboxylic acids and derivatives;Subclass: Tetracarboxylic acids and derivatives
INCHIKEY:  OBKFQZNNFBXVJH-UHFFFAOYNA-N
SMILES:  CC(C)C(O)C(O)=NC(C(C)C)C(=O)OC(C)C(O)=NC(C(C)C)C(=O)OC(C)C(O)=NC(C(C)C)C(=O)OC(C(C)C)C(O)=NC(C(C)C)C(=O)OCC(O)CO
RETENTIONTIME:  
CCS:  -1
IONMODE:  Negative
INSTRUMENTTYPE:  
INSTRUMENT:  Maxis II HD Q-TOF Bruker
COLLISIONENERGY:  
Comment:  DB#=CCMSLIB00000845772; origin=GNPS
Num Peaks:  39
116.07121	30.0
126.05497	20.0
126.09547	20.0
134.80536	30.0
144.10071	130.0
152.07492	70.0
169.43169	10.0
170.08315	730.0
180.09985	20.0
188.09337	1000.0
195.88997	20.0
198.11115	110.0
199.12378	30.0
216.12515	790.0
218.69164	10.0
262.13083	480.0
269.15408	20.0
290.15857	60.0
301.21054	30.0
387.21246	320.0
388.23154	20.0
444.02179	10.0
461.2233	30.0
461.25293	50.0
558.29199	20.0
586.32672	30.0
587.32794	20.0
632.33154	30.0
678.4342	20.0
757.45898	20.0
758.42175	40.0
832.45905	10.0
867.43219	130.0
868.36609	20.0
868.45062	80.0
1475.24927	10.0
1585.63391	50.0
1629.64185	30.0
1629.94531	20.0

NAME:  NCGC00381171-01![1-[[1-[1-[[1-(2,3-dihydroxypropoxy)-3-methyl-1-oxobutan-2-yl]amino]-3-methyl-1-oxobutan-2-yl]oxy-3-methyl-1-oxobutan-2-yl]amino]-1-oxopropan-2-yl] 2-[2-[2-[(2-hydroxy-3-methylbutanoyl)amino]-3-methylbutanoyl]oxypropanoylamino]-3-methylbutanoate
PRECURSORMZ:  877.46632005383
PRECURSORTYPE:  [M+FA-H]-
FORMULA:  C39H68N4O15
Ontology: Kingdom: Organic compounds;Superclass: Organic acids and derivatives;Class: Carboxylic acids and derivatives;Subclass: Tetracarboxylic acids and derivatives
INCHIKEY:  OBKFQZNNFBXVJH-UHFFFAOYNA-N
SMILES:  CC(C)C(O)C(O)=NC(C(C)C)C(=O)OC(C)C(O)=NC(C(C)C)C(=O)OC(C)C(O)=NC(C(C)C)C(=O)OC(C(C)C)C(O)=NC(C(C)C)C(=O)OCC(O)CO
RETENTIONTIME:  
CCS:  -1
IONMODE:  Negative
INSTRUMENTTYPE:  
INSTRUMENT:  Maxis II HD Q-TOF Bruker
COLLISIONENERGY:  
Comment:  DB#=CCMSLIB00000845773; origin=GNPS
Num Peaks:  20
116.0709	30.0
126.05499	30.0
126.09135	20.0
144.10257	50.0
152.07109	130.0
170.08264	790.0
171.08549	30.0
172.13391	30.0
180.10164	30.0
188.09315	1000.0
189.09552	20.0
198.11414	180.0
216.12482	430.0
217.13007	20.0
262.13007	350.0
290.16174	70.0
387.21423	180.0
388.21988	20.0
461.25345	60.0
757.41992	20.0

NAME:  NCGC00168859-03!2-(1,5-dihydroxy-3,4-dioxonaphthalen-2-yl)-3-methoxy-5-methylbenzoic acid
PRECURSORMZ:  353.06667633883
PRECURSORTYPE:  [M-H]-
FORMULA:  C19H14O7
Ontology: Kingdom: Organic compounds;Superclass: Benzenoids;Class: Naphthalenes;Subclass: Phenylnaphthalenes
INCHIKEY:  CPRXVUOMCYXPHA-UHFFFAOYSA-N
SMILES:  COC1=CC(C)=CC(C(O)=O)=C1C1=C(O)C2=C(C(O)=CC=C2)C(=O)C1=O
RETENTIONTIME:  
CCS:  -1
IONMODE:  Negative
INSTRUMENTTYPE:  
INSTRUMENT:  Maxis II HD Q-TOF Bruker
COLLISIONENERGY:  
Comment:  DB#=CCMSLIB00000845776; origin=GNPS
Num Peaks:  19
104.34101	50.0
115.0618	60.0
130.86743	40.0
158.03491	60.0
172.17404	110.0
215.22379	70.0
222.07088	80.0
238.05995	40.0
243.02908	90.0
265.06134	70.0
266.06805	110.0
277.04361	50.0
278.05841	640.0
279.06424	200.0
281.08328	90.0
309.07639	1000.0
335.05823	80.0
353.06912	430.0
627.6062	30.0

NAME:  NCGC00180574-02!5,7-dihydroxy-2-(4-hydroxy-3-methoxyphenyl)-3-[3,4,5-trihydroxy-6-(hydroxymethyl)oxan-2-yl]oxychromen-4-one
PRECURSORMZ:  477.10384969583
PRECURSORTYPE:  [M-H]-
FORMULA:  C22H22O12
Ontology: Kingdom: Organic compounds;Superclass: Phenylpropanoids and polyketides;Class: Flavonoids;Subclass: Flavonoid glycosides
INCHIKEY:  CQLRUIIRRZYHHS-UHFFFAOYNA-N
SMILES:  COC1=C(O)C=CC(=C1)C1=C(OC2OC(CO)C(O)C(O)C2O)C(=O)C2=C(O)C=C(O)C=C2O1
RETENTIONTIME:  
CCS:  216.8963493
IONMODE:  Negative
INSTRUMENTTYPE:  
INSTRUMENT:  Maxis II HD Q-TOF Bruker
COLLISIONENERGY:  
Comment:  DB#=CCMSLIB00000845778; origin=GNPS
Num Peaks:  15
153.01472	40.0
200.04514	40.0
227.03625	40.0
242.00714	30.0
243.02798	20.0
270.02267	40.0
285.04434	30.0
299.01926	20.0
299.06091	40.0
314.04507	190.0
314.45227	20.0
316.61237	10.0
357.06796	30.0
477.10614	1000.0
1928.52197	20.0

NAME:  NCGC00381451-01!(1S,4S,7R,10S,13S)-7,10-di(butan-2-yl)-4-propan-2-yl-15,16-dithia-3,6,9,12,18-pentazabicyclo[11.4.2]nonadecane-2,5,8,11,19-pentone
PRECURSORMZ:  574.23746427183
PRECURSORTYPE:  [M+FA-H]-
FORMULA:  C23H39N5O5S2
Ontology: Kingdom: Organic compounds;Superclass: Organic acids and derivatives;Class: Carboxylic acids and derivatives;Subclass: Amino acids
INCHIKEY:  PIXYPRXKMCTYQV-UHFFFAOYNA-N
SMILES:  [H]C12CSSCC([H])(N=C(O)C(N=C(O)C(N=C(O)C(N=C1O)C(C)C)C(C)CC)C(C)CC)C(O)=N2
RETENTIONTIME:  
CCS:  -1
IONMODE:  Negative
INSTRUMENTTYPE:  
INSTRUMENT:  Maxis II HD Q-TOF Bruker
COLLISIONENERGY:  
Comment:  DB#=CCMSLIB00000845780; origin=GNPS
Num Peaks:  69
126.48648	30.0
141.06644	80.0
149.30066	10.0
155.07867	30.0
182.90282	40.0
194.36476	40.0
202.84584	30.0
210.07295	30.0
217.01155	20.0
222.12802	20.0
242.09053	50.0
248.10764	30.0
267.60745	30.0
272.04892	30.0
281.91888	20.0
290.47559	40.0
306.23364	40.0
313.92401	30.0
319.06598	110.0
329.04865	20.0
332.03326	130.0
333.0307	20.0
345.03525	40.0
346.04932	70.0
347.04947	140.0
358.05936	20.0
360.07053	50.0
361.06744	90.0
367.22809	50.0
372.01782	10.0
375.05435	330.0
384.99103	20.0
387.0787	30.0
388.04703	40.0
389.06998	110.0
390.07623	1000.0
391.07791	120.0
395.27036	20.0
400.06265	30.0
403.12619	10.0
405.08539	60.0
415.53336	30.0
416.04581	40.0
417.0676	80.0
417.10553	30.0
419.22705	20.0
428.0553	30.0
431.0881	30.0
432.09796	50.0
436.26959	10.0
443.03201	20.0
443.07974	30.0
446.05884	30.0
451.23895	50.0
457.09171	40.0
459.0451	30.0
460.07642	40.0
462.272	70.0
470.28519	20.0
474.09598	850.0
475.10446	170.0
489.12228	330.0
490.12711	110.0
493.15387	20.0
494.24219	200.0
528.22577	500.0
558.11951	240.0
573.14954	60.0
574.14917	30.0

NAME:  NCGC00380227-01!(E)-3-[4-[1,3-dihydroxy-1-(4-hydroxy-3-methoxyphenyl)propan-2-yl]oxy-3,5-dimethoxyphenyl]prop-2-enoic acid
PRECURSORMZ:  465.14023490083
PRECURSORTYPE:  [M+FA-H]-
FORMULA:  C21H24O9
Ontology: Kingdom: Organic compounds;Superclass: Lignans;;
INCHIKEY:  ZWBYHLQWDBQQQU-UHFFFAOYNA-N
SMILES:  COC1=CC(C=CC(O)=O)=CC(OC)=C1OC(CO)C(O)C1=CC(OC)=C(O)C=C1
RETENTIONTIME:  
CCS:  -1
IONMODE:  Negative
INSTRUMENTTYPE:  
INSTRUMENT:  Maxis II HD Q-TOF Bruker
COLLISIONENERGY:  
Comment:  DB#=CCMSLIB00000845781; origin=GNPS
Num Peaks:  17
136.00833	60.0
149.0264	110.0
150.02658	290.0
163.039	60.0
164.04344	80.0
165.05424	590.0
180.04132	70.0
194.03363	30.0
194.69466	20.0
195.06808	1000.0
208.03432	190.0
223.05875	790.0
239.0536	50.0
371.12122	100.0
419.13696	70.0
722.8537	20.0
1097.39197	60.0

NAME:  NCGC00380220-01!3-[14-hydroxy-3-[3-hydroxy-4-methoxy-6-methyl-5-[3,4,5-trihydroxy-6-[[3,4,5-trihydroxy-6-(hydroxymethyl)oxan-2-yl]oxymethyl]oxan-2-yl]oxyoxan-2-yl]oxy-10,13-dimethyl-1,2,3,4,5,6,7,8,9,11,12,15,16,17-tetradecahydrocyclopenta[a]phenanthren-17-yl]-2H-furan-5-one
PRECURSORMZ:  903.42311783283
PRECURSORTYPE:  [M+FA-H]-
FORMULA:  C42H66O18
Ontology: Kingdom: Organic compounds;Superclass: Lipids and lipid;Class: Steroids and steroid derivatives;Subclass: Steroid lactones
INCHIKEY:  GZVMBXDQUQRICT-UHFFFAOYNA-N
SMILES:  COC1C(O)C(OC2CCC3(C)C(CCC4C3CCC3(C)C(CCC43O)C3=CC(=O)OC3)C2)OC(C)C1OC1OC(COC2OC(CO)C(O)C(O)C2O)C(O)C(O)C1O
RETENTIONTIME:  
CCS:  -1
IONMODE:  Negative
INSTRUMENTTYPE:  
INSTRUMENT:  Maxis II HD Q-TOF Bruker
COLLISIONENERGY:  
Comment:  DB#=CCMSLIB00000845784; origin=GNPS
Num Peaks:  40
71.0146	20.0
85.02951	50.0
87.00659	10.0
89.02345	50.0
95.01276	10.0
99.00825	30.0
101.02364	200.0
111.00779	20.0
113.02382	110.0
119.03313	30.0
125.02414	70.0
127.04307	20.0
131.03711	40.0
143.03293	70.0
145.05063	20.0
149.04268	20.0
155.03702	10.0
159.02896	50.0
160.02931	10.0
161.04483	460.0
179.05762	150.0
221.0647	70.0
233.06967	20.0
263.07587	50.0
323.09824	140.0
346.33774	10.0
373.24078	30.0
399.0209	20.0
445.21814	20.0
533.31024	280.0
534.30219	30.0
695.36041	240.0
696.31122	10.0
696.36292	90.0
696.43945	10.0
857.42078	1000.0
858.34229	10.0
858.42395	300.0
886.70477	10.0
903.41968	10.0

NAME:  NCGC00169388-03!6-[4-hydroxy-2-methyl-6-[(2S,3R,4S,5S,6R)-3,4,5-trihydroxy-6-(hydroxymethyl)oxan-2-yl]oxyphenyl]-4-methoxypyran-2-one
PRECURSORMZ:  455.11949945583
PRECURSORTYPE:  [M+FA-H]-
FORMULA:  C19H22O10
Ontology: Kingdom: Organic compounds;Superclass: Organic oxygen compounds;Class: Organooxygen compounds;Subclass: Carbohydrates and carbohydrate conjugates
INCHIKEY:  KFJNVVJUICKJEQ-UHFFFAOYNA-N
SMILES:  COC1=CC(=O)OC(=C1)C1=C(OC2OC(CO)C(O)C(O)C2O)C=C(O)C=C1C
RETENTIONTIME:  
CCS:  -1
IONMODE:  Negative
INSTRUMENTTYPE:  
INSTRUMENT:  Maxis II HD Q-TOF Bruker
COLLISIONENERGY:  
Comment:  DB#=CCMSLIB00000845785; origin=GNPS
Num Peaks:  12
91.28436	10.0
134.46315	10.0
170.82584	10.0
171.04395	140.0
187.03777	20.0
188.04419	80.0
203.06699	90.0
215.03392	40.0
232.04897	10.0
246.6694	20.0
247.05946	1000.0
409.11197	50.0

NAME:  NCGC00380341-01!methyl 3-(3,4-dihydroxyphenyl)-2-[(2,2-dimethylchromen-6-yl)methyl]-4-methoxy-5-oxofuran-2-carboxylate
PRECURSORMZ:  451.13984128083
PRECURSORTYPE:  [M-H]-
FORMULA:  C25H24O8
Ontology: Kingdom: Organic compounds;Superclass: Organoheterocyclic compounds;Class: Benzopyrans;
INCHIKEY:  DHAXSUMTBBBFBJ-UHFFFAOYNA-N
SMILES:  COC(=O)C1(CC2=CC3=C(OC(C)(C)C=C3)C=C2)OC(=O)C(OC)=C1C1=CC(O)=C(O)C=C1
RETENTIONTIME:  
CCS:  -1
IONMODE:  Negative
INSTRUMENTTYPE:  
INSTRUMENT:  Maxis II HD Q-TOF Bruker
COLLISIONENERGY:  
Comment:  DB#=CCMSLIB00000845787; origin=GNPS
Num Peaks:  22
140.37149	60.0
147.03749	30.0
149.02184	40.0
175.03984	40.0
191.03192	140.0
203.99556	110.0
219.03676	70.0
221.00467	570.0
247.02747	250.0
263.01099	70.0
264.02899	570.0
279.0495	1000.0
305.11472	100.0
305.14215	110.0
363.12479	190.0
364.13446	90.0
377.10385	820.0
380.37903	80.0
392.13034	40.0
436.10547	90.0
450.73163	20.0
451.14011	930.0

NAME:  NCGC00380342-01!methyl 3-[3,4-dihydroxy-2-(3-methylbut-2-enyl)phenyl]-2-[[4-hydroxy-3-(3-methylbut-2-enyl)phenyl]methyl]-4-methoxy-5-oxofuran-2-carboxylate
PRECURSORMZ:  521.21809160283
PRECURSORTYPE:  [M-H]-
FORMULA:  C30H34O8
Ontology: Kingdom: Organic compounds;Superclass: Benzenoids;Class: Phenols;Subclass: Benzenediols
INCHIKEY:  BVSLLGGUGCRTFA-UHFFFAOYNA-N
SMILES:  COC(=O)C1(CC2=CC(CC=C(C)C)=C(O)C=C2)OC(=O)C(OC)=C1C1=C(CC=C(C)C)C(O)=C(O)C=C1
RETENTIONTIME:  
CCS:  -1
IONMODE:  Negative
INSTRUMENTTYPE:  
INSTRUMENT:  Maxis II HD Q-TOF Bruker
COLLISIONENERGY:  
Comment:  DB#=CCMSLIB00000845790; origin=GNPS
Num Peaks:  18
189.09436	140.0
202.99991	120.0
217.08475	210.0
231.09633	80.0
232.03455	100.0
244.07533	130.0
245.08116	60.0
257.05054	120.0
261.0769	160.0
266.98083	150.0
273.07605	100.0
276.09558	110.0
289.06998	620.0
304.09271	100.0
332.08038	460.0
347.11755	1000.0
407.00592	40.0
521.22174	100.0

NAME:  NCGC00380342-01!methyl 3-[3,4-dihydroxy-2-(3-methylbut-2-enyl)phenyl]-2-[[4-hydroxy-3-(3-methylbut-2-enyl)phenyl]methyl]-4-methoxy-5-oxofuran-2-carboxylate
PRECURSORMZ:  567.22357060283
PRECURSORTYPE:  [M+FA-H]-
FORMULA:  C30H34O8
Ontology: Kingdom: Organic compounds;Superclass: Benzenoids;Class: Phenols;Subclass: Benzenediols
INCHIKEY:  BVSLLGGUGCRTFA-UHFFFAOYNA-N
SMILES:  COC(=O)C1(CC2=CC(CC=C(C)C)=C(O)C=C2)OC(=O)C(OC)=C1C1=C(CC=C(C)C)C(O)=C(O)C=C1
RETENTIONTIME:  
CCS:  -1
IONMODE:  Negative
INSTRUMENTTYPE:  
INSTRUMENT:  Maxis II HD Q-TOF Bruker
COLLISIONENERGY:  
Comment:  DB#=CCMSLIB00000845791; origin=GNPS
Num Peaks:  28
147.04475	30.0
167.86514	30.0
169.04878	10.0
169.11209	10.0
215.99452	10.0
216.04263	20.0
217.05093	20.0
217.09148	60.0
220.00803	20.0
228.03455	10.0
229.0892	30.0
231.032	20.0
245.0808	110.0
273.07132	60.0
283.05365	20.0
289.06851	640.0
303.12222	10.0
304.1004	30.0
312.92319	10.0
315.09369	40.0
332.08945	270.0
346.89087	20.0
347.11407	1000.0
361.11374	10.0
367.11646	20.0
509.21222	10.0
521.21649	120.0
623.98352	20.0

NAME:  NCGC00380343-01!3-[4-[6-[[3,4-dihydroxy-4-(hydroxymethyl)oxolan-2-yl]oxymethyl]-3,4,5-trihydroxyoxan-2-yl]oxy-3-methoxyphenyl]-5-hydroxy-7-methoxychromen-4-one
PRECURSORMZ:  653.17232287783
PRECURSORTYPE:  [M+FA-H]-
FORMULA:  C28H32O15
Ontology: Kingdom: Organic compounds;Superclass: Phenylpropanoids and polyketides;Class: Isoflavonoids;Subclass: Isoflavonoid O
INCHIKEY:  XJIVHUCLIXWULJ-UHFFFAOYNA-N
SMILES:  COC1=CC(O)=C2C(=O)C(=COC2=C1)C1=CC(OC)=C(OC2OC(COC3OCC(O)(CO)C3O)C(O)C(O)C2O)C=C1
RETENTIONTIME:  
CCS:  -1
IONMODE:  Negative
INSTRUMENTTYPE:  
INSTRUMENT:  Maxis II HD Q-TOF Bruker
COLLISIONENERGY:  
Comment:  DB#=CCMSLIB00000845793; origin=GNPS
Num Peaks:  29
89.02608	20.0
99.00091	10.0
101.02059	10.0
110.47607	20.0
125.02367	170.0
126.02676	20.0
127.04017	30.0
149.04477	50.0
153.89479	10.0
161.04205	50.0
175.05823	20.0
191.0533	40.0
229.04407	20.0
233.06743	350.0
239.16235	30.0
255.02325	30.0
269.04654	20.0
275.07275	10.0
275.09381	10.0
275.1976	20.0
283.02301	100.0
293.08682	660.0
298.04694	660.0
312.35718	20.0
313.07098	1000.0
313.4187	20.0
313.85919	10.0
459.98419	20.0
607.18146	10.0

NAME:  NCGC00180383-02!3-hydroxy-3,4-bis[(4-hydroxy-3-methoxyphenyl)methyl]oxolan-2-one
PRECURSORMZ:  419.13475559583
PRECURSORTYPE:  [M+FA-H]-
FORMULA:  C20H22O7
Ontology: ;;;
INCHIKEY:  ZITBJWXLODLDRH-UHFFFAOYNA-N
SMILES:  COC1=C(O)C=CC(CC2COC(=O)C2(O)CC2=CC(OC)=C(O)C=C2)=C1
RETENTIONTIME:  
CCS:  -1
IONMODE:  Negative
INSTRUMENTTYPE:  
INSTRUMENT:  Maxis II HD Q-TOF Bruker
COLLISIONENERGY:  
Comment:  DB#=CCMSLIB00000845796; origin=GNPS
Num Peaks:  8
163.03716	60.0
179.0699	100.0
219.06766	60.0
221.0489	50.0
297.06668	50.0
355.12198	30.0
358.10596	120.0
373.12997	1000.0

NAME:  NCGC00384596-01!4-[(E)-3-[1-carboxy-2-(3,4-dihydroxyphenyl)ethoxy]-3-oxoprop-1-enyl]-2-(3,4-dihydroxyphenyl)-7-hydroxy-2,3-dihydro-1-benzofuran-3-carboxylic acid
PRECURSORMZ:  537.10384969583
PRECURSORTYPE:  [M-H]-
FORMULA:  C27H22O12
Ontology: Kingdom: Organic compounds;Superclass: Phenylpropanoids and polyketides;;
INCHIKEY:  UJZQBMQZMKFSRV-UHFFFAOYNA-N
SMILES:  OC(=O)C(CC1=CC(O)=C(O)C=C1)OC(=O)C=CC1=C2C(C(OC2=C(O)C=C1)C1=CC(O)=C(O)C=C1)C(O)=O
RETENTIONTIME:  
CCS:  216.5121516
IONMODE:  Negative
INSTRUMENTTYPE:  
INSTRUMENT:  Maxis II HD Q-TOF Bruker
COLLISIONENERGY:  
Comment:  DB#=CCMSLIB00000845797; origin=GNPS
Num Peaks:  32
99.03364	10.0
109.03012	140.0
123.04368	30.0
135.04367	150.0
137.02673	30.0
145.01971	10.0
147.05008	20.0
157.03239	20.0
158.03705	30.0
159.04716	70.0
173.02225	120.0
175.04091	10.0
179.03473	90.0
185.0233	670.0
186.03276	260.0
187.04655	30.0
197.04594	270.0
199.64949	20.0
203.03468	80.0
251.07187	50.0
269.08096	40.0
277.04575	10.0
277.07449	50.0
294.31384	20.0
294.71722	20.0
295.06253	1000.0
295.92709	20.0
313.07941	160.0
493.14713	40.0
497.03568	20.0
825.54785	20.0
1282.71265	30.0

NAME:  NCGC00380514-01!(2S,3R,4S,5S,6R)-2-[4,6-dihydroxy-2-nonyl-3-[(2S,3R,4S,5S,6R)-3,4,5-trihydroxy-6-(hydroxymethyl)oxan-2-yl]oxyphenoxy]-6-(hydroxymethyl)oxane-3,4,5-triol
PRECURSORMZ:  637.27130864483
PRECURSORTYPE:  [M+FA-H]-
FORMULA:  C27H44O14
Ontology: Kingdom: Organic compounds;Superclass: Organic oxygen compounds;Class: Organooxygen compounds;Subclass: Carbohydrates and carbohydrate conjugates
INCHIKEY:  UTWYSZSEHYRTLP-UHFFFAOYNA-N
SMILES:  CCCCCCCCCC1=C(OC2OC(CO)C(O)C(O)C2O)C(O)=CC(O)=C1OC1OC(CO)C(O)C(O)C1O
RETENTIONTIME:  
CCS:  -1
IONMODE:  Negative
INSTRUMENTTYPE:  
INSTRUMENT:  Maxis II HD Q-TOF Bruker
COLLISIONENERGY:  
Comment:  DB#=CCMSLIB00000845800; origin=GNPS
Num Peaks:  16
153.25415	10.0
179.05957	10.0
221.15276	20.0
249.15121	580.0
251.17136	10.0
265.1438	1000.0
266.15283	90.0
267.16891	30.0
279.15814	40.0
411.20081	70.0
413.2233	20.0
428.20374	430.0
429.20691	70.0
430.21262	10.0
591.26624	640.0
592.26794	30.0

NAME:  NCGC00384589-01![(2R,3R,4S,5R,6R)-6-[2-(3,4-dihydroxyphenyl)ethoxy]-3,5-dihydroxy-4-[(2S,3R,4R,5R,6S)-3,4,5-trihydroxy-6-methyloxan-2-yl]oxyoxan-2-yl]methyl (E)-3-(4-hydroxy-3-methoxyphenyl)prop-2-enoate
PRECURSORMZ:  637.21379407183
PRECURSORTYPE:  [M-H]-
FORMULA:  C30H38O15
Ontology: Kingdom: Organic compounds;Superclass: Phenylpropanoids and polyketides;Class: Cinnamic acids and derivatives;Subclass: Hydroxycinnamic acids and derivatives
INCHIKEY:  OFNCUIXPAFLTJZ-UHFFFAOYNA-N
SMILES:  COC1=C(O)C=CC(C=CC(=O)OCC2OC(OCCC3=CC(O)=C(O)C=C3)C(O)C(OC3OC(C)C(O)C(O)C3O)C2O)=C1
RETENTIONTIME:  
CCS:  253.3758423
IONMODE:  Negative
INSTRUMENTTYPE:  
INSTRUMENT:  Maxis II HD Q-TOF Bruker
COLLISIONENERGY:  
Comment:  DB#=CCMSLIB00000845802; origin=GNPS
Num Peaks:  20
71.0136	80.0
94.74746	50.0
113.02638	50.0
134.03879	40.0
135.04405	110.0
135.09521	30.0
153.05478	130.0
160.01859	140.0
161.03017	80.0
161.05469	120.0
175.03781	1000.0
178.02725	40.0
193.05188	170.0
216.7937	30.0
251.05925	30.0
315.11932	70.0
443.1644	40.0
461.16241	500.0
637.21692	880.0
912.82745	20.0

NAME:  NCGC00384589-01![(2R,3R,4S,5R,6R)-6-[2-(3,4-dihydroxyphenyl)ethoxy]-3,5-dihydroxy-4-[(2S,3R,4R,5R,6S)-3,4,5-trihydroxy-6-methyloxan-2-yl]oxyoxan-2-yl]methyl (E)-3-(4-hydroxy-3-methoxyphenyl)prop-2-enoate
PRECURSORMZ:  683.21927307183
PRECURSORTYPE:  [M+FA-H]-
FORMULA:  C30H38O15
Ontology: Kingdom: Organic compounds;Superclass: Phenylpropanoids and polyketides;Class: Cinnamic acids and derivatives;Subclass: Hydroxycinnamic acids and derivatives
INCHIKEY:  OFNCUIXPAFLTJZ-UHFFFAOYNA-N
SMILES:  COC1=C(O)C=CC(C=CC(=O)OCC2OC(OCCC3=CC(O)=C(O)C=C3)C(O)C(OC3OC(C)C(O)C(O)C3O)C2O)=C1
RETENTIONTIME:  
CCS:  -1
IONMODE:  Negative
INSTRUMENTTYPE:  
INSTRUMENT:  Maxis II HD Q-TOF Bruker
COLLISIONENERGY:  
Comment:  DB#=CCMSLIB00000845804; origin=GNPS
Num Peaks:  26
73.66546	20.0
113.02567	20.0
123.04531	30.0
132.02225	20.0
133.02577	20.0
134.03598	40.0
135.04378	20.0
153.05812	150.0
160.0188	230.0
161.02533	140.0
174.24973	10.0
175.04048	860.0
193.04765	110.0
214.10664	20.0
315.10782	40.0
443.14136	30.0
444.16922	10.0
461.164	300.0
491.1459	30.0
635.47241	10.0
636.65637	30.0
637.1264	10.0
637.21259	1000.0
637.80493	10.0
638.20099	20.0
1395.7804	20.0

NAME:  NCGC00180704-02!(2S,3R,4S,5S,6R)-2-[(2R,3R,4S,5S,6R)-4,5-dihydroxy-6-(hydroxymethyl)-2-[[(3S,8R,10R,12R,14R,17S)-12-hydroxy-4,4,8,10,14-pentamethyl-17-[(2S)-6-methyl-2-[(2S,3R,4S,5S,6R)-3,4,5-trihydroxy-6-[[(2S,3R,4S,5S)-3,4,5-trihydroxyoxan-2-yl]oxymethyl]oxan-2-yl]oxyhept-5-en-2-yl]-2,3,5,6,7,9,11,12,13,15,16,17-dodecahydro-1H-cyclopenta[a]phenanthren-3-yl]oxy]oxan-3-yl]oxy-6-(hydroxymethyl)oxane-3,4,5-triol
PRECURSORMZ:  1123.59057708583
PRECURSORTYPE:  [M+FA-H]-
FORMULA:  C53H90O22
Ontology: Kingdom: Organic compounds;Superclass: Lipids and lipid;Class: Prenol lipids;Subclass: Triterpenoids
INCHIKEY:  NODILNFGTFIURN-UHFFFAOYNA-N
SMILES:  CC(C)=CCCC(C)(OC1OC(COC2OCC(O)C(O)C2O)C(O)C(O)C1O)C1CCC2(C)C1C(O)CC1C3(C)CCC(OC4OC(CO)C(O)C(O)C4OC4OC(CO)C(O)C(O)C4O)C(C)(C)C3CCC21C
RETENTIONTIME:  
CCS:  -1
IONMODE:  Negative
INSTRUMENTTYPE:  
INSTRUMENT:  Maxis II HD Q-TOF Bruker
COLLISIONENERGY:  
Comment:  DB#=CCMSLIB00000845806; origin=GNPS
Num Peaks:  13
89.02727	20.0
149.045	20.0
161.04578	10.0
497.77798	10.0
516.66565	20.0
531.86652	10.0
821.21478	30.0
1077.58728	1000.0
1078.58728	120.0
1079.61487	20.0
1123.59204	120.0
1124.58826	20.0
1762.20325	10.0

NAME:  NCGC00380531-01!3-(1,3-benzodioxol-5-yl)-7-[(2S,3R,4S,5S,6R)-6-[[(2S,3R,4R)-3,4-dihydroxy-4-(hydroxymethyl)oxolan-2-yl]oxymethyl]-3,4,5-trihydroxyoxan-2-yl]oxy-6-methoxychromen-4-one
PRECURSORMZ:  651.15667281383
PRECURSORTYPE:  [M+FA-H]-
FORMULA:  C28H30O15
Ontology: Kingdom: Organic compounds;Superclass: Phenylpropanoids and polyketides;Class: Isoflavonoids;Subclass: Isoflavonoid O
INCHIKEY:  BCWKMSLBLIKZQX-UHFFFAOYNA-N
SMILES:  COC1=C(OC2OC(COC3OCC(O)(CO)C3O)C(O)C(O)C2O)C=C2OC=C(C(=O)C2=C1)C1=CC2=C(OCO2)C=C1
RETENTIONTIME:  
CCS:  -1
IONMODE:  Negative
INSTRUMENTTYPE:  
INSTRUMENT:  Maxis II HD Q-TOF Bruker
COLLISIONENERGY:  
Comment:  DB#=CCMSLIB00000845808; origin=GNPS
Num Peaks:  6
233.06415	40.0
268.03409	20.0
296.03107	250.0
296.08295	10.0
311.0549	1000.0
312.05234	20.0

NAME:  NCGC00380565-01!2-(3,4-dihydroxyphenyl)ethyl (5Z)-4-[2-[2-(3,4-dihydroxyphenyl)ethoxy]-2-oxoethyl]-5-[2-[(E)-3-phenylprop-2-enoyl]oxyethylidene]-6-[(2S,3R,4S,5S,6R)-3,4,5-trihydroxy-6-(hydroxymethyl)oxan-2-yl]oxy-4H-pyran-3-carboxylate
PRECURSORMZ:  807.25057350483
PRECURSORTYPE:  [M-H]-
FORMULA:  C41H44O17
Ontology: Kingdom: Organic compounds;Superclass: Lipids and lipid;Class: Prenol lipids;Subclass: Terpene glycosides
INCHIKEY:  WRSGLSMQZLBGNH-UHFFFAOYNA-N
SMILES:  OCC1OC(OC2OC=C(C(CC(=O)OCCC3=CC(O)=C(O)C=C3)C2=CCOC(=O)C=CC2=CC=CC=C2)C(=O)OCCC2=CC(O)=C(O)C=C2)C(O)C(O)C1O
RETENTIONTIME:  
CCS:  -1
IONMODE:  Negative
INSTRUMENTTYPE:  
INSTRUMENT:  Maxis II HD Q-TOF Bruker
COLLISIONENERGY:  
Comment:  DB#=CCMSLIB00000845810; origin=GNPS
Num Peaks:  128
93.03481	60.0
101.02409	20.0
107.05024	60.0
109.02914	40.0
109.06261	20.0
111.04176	20.0
113.02197	10.0
119.04977	420.0
121.02763	70.0
123.04956	10.0
125.05882	20.0
131.05222	10.0
135.04433	180.0
137.02664	110.0
137.05956	590.0
139.00192	350.0
139.04054	40.0
139.29234	10.0
140.00771	20.0
145.02635	60.0
147.0457	190.0
149.02718	20.0
151.04602	20.0
151.0752	10.0
153.05591	70.0
159.04446	20.0
161.02768	20.0
161.0603	60.0
161.70152	10.0
161.72302	10.0
162.047	20.0
162.93321	10.0
163.03929	1000.0
163.07571	20.0
164.04172	20.0
165.01988	310.0
165.05199	20.0
165.95741	10.0
177.05435	20.0
178.05693	10.0
179.03232	60.0
179.05701	60.0
181.05103	220.0
187.05399	20.0
187.0806	20.0
189.01428	90.0
191.03461	20.0
195.11613	20.0
196.88614	10.0
205.05046	30.0
206.51599	10.0
207.02881	210.0
208.05161	10.0
210.06801	10.0
215.06717	20.0
219.08357	20.0
223.07465	50.0
225.04059	40.0
226.04236	20.0
231.05409	10.0
235.7617	10.0
239.10486	10.0
241.08734	20.0
243.07104	10.0
249.08286	30.0
273.07767	30.0
275.05774	190.0
276.10733	10.0
285.06607	10.0
293.06845	10.0
295.06232	20.0
299.09207	180.0
300.08997	40.0
311.08734	10.0
315.09143	30.0
315.12207	10.0
317.10376	220.0
318.11264	20.0
325.08145	10.0
333.06946	10.0
342.50043	20.0
343.08267	300.0
344.09561	10.0
355.07986	20.0
357.0972	10.0
361.0918	210.0
362.09866	10.0
369.08511	10.0
376.13037	10.0
395.93665	20.0
401.14807	10.0
401.31592	10.0
403.12454	130.0
404.12515	20.0
411.0618	10.0
421.13477	90.0
429.12234	350.0
430.13086	60.0
435.11514	10.0
437.11975	20.0
445.15924	10.0
447.1561	10.0
451.1329	30.0
465.14529	10.0
466.15732	10.0
470.14688	10.0
473.12405	50.0
479.13602	130.0
481.15875	10.0
489.42822	10.0
491.13565	100.0
497.10547	10.0
497.14471	110.0
509.15311	30.0
517.15637	20.0
523.14661	40.0
591.16437	40.0
627.18744	90.0
643.22638	10.0
645.19629	50.0
653.19543	50.0
658.27173	10.0
659.19214	50.0
671.19556	250.0
672.19275	30.0
807.25513	410.0
808.25024	110.0
812.28864	10.0

NAME:  NCGC00380565-01!2-(3,4-dihydroxyphenyl)ethyl (5Z)-4-[2-[2-(3,4-dihydroxyphenyl)ethoxy]-2-oxoethyl]-5-[2-[(E)-3-phenylprop-2-enoyl]oxyethylidene]-6-[(2S,3R,4S,5S,6R)-3,4,5-trihydroxy-6-(hydroxymethyl)oxan-2-yl]oxy-4H-pyran-3-carboxylate
PRECURSORMZ:  843.2272512169
PRECURSORTYPE:  [M+Cl]-
FORMULA:  C41H44O17
Ontology: Kingdom: Organic compounds;Superclass: Lipids and lipid;Class: Prenol lipids;Subclass: Terpene glycosides
INCHIKEY:  WRSGLSMQZLBGNH-UHFFFAOYNA-N
SMILES:  OCC1OC(OC2OC=C(C(CC(=O)OCCC3=CC(O)=C(O)C=C3)C2=CCOC(=O)C=CC2=CC=CC=C2)C(=O)OCCC2=CC(O)=C(O)C=C2)C(O)C(O)C1O
RETENTIONTIME:  
CCS:  -1
IONMODE:  Negative
INSTRUMENTTYPE:  
INSTRUMENT:  Maxis II HD Q-TOF Bruker
COLLISIONENERGY:  
Comment:  DB#=CCMSLIB00000845812; origin=GNPS
Num Peaks:  24
95.04912	250.0
119.05164	300.0
137.0587	660.0
148.01442	380.0
149.02814	390.0
151.04028	290.0
163.03758	310.0
179.05562	500.0
207.02637	650.0
213.54466	350.0
249.08603	160.0
273.07458	180.0
291.08627	320.0
297.09201	300.0
299.10526	370.0
317.10269	1000.0
325.06467	170.0
403.12305	170.0
479.15564	280.0
491.13297	280.0
671.14447	390.0
671.19366	230.0
672.18817	250.0
807.2453	180.0

NAME:  NCGC00180756-02!5,7-dihydroxy-2-(4-hydroxyphenyl)-3-[(2S,3R,4S,5S)-3,4,5-trihydroxyoxan-2-yl]oxychromen-4-one
PRECURSORMZ:  417.08272032783
PRECURSORTYPE:  [M-H]-
FORMULA:  C20H18O10
Ontology: Kingdom: Organic compounds;Superclass: Phenylpropanoids and polyketides;Class: Flavonoids;Subclass: Flavonoid glycosides
INCHIKEY:  RNVUDWOQYYWXBJ-UHFFFAOYNA-N
SMILES:  OC1COC(OC2=C(OC3=CC(O)=CC(O)=C3C2=O)C2=CC=C(O)C=C2)C(O)C1O
RETENTIONTIME:  
CCS:  194.2118837
IONMODE:  Negative
INSTRUMENTTYPE:  
INSTRUMENT:  Maxis II HD Q-TOF Bruker
COLLISIONENERGY:  
Comment:  DB#=CCMSLIB00000845814; origin=GNPS
Num Peaks:  9
151.00092	50.0
185.06264	100.0
227.03276	260.0
255.02998	310.0
256.04398	190.0
284.03067	1000.0
285.04654	90.0
417.0845	700.0
986.07916	70.0

NAME:  NCGC00384755-01!(3R)-4-[6-[(2S,4aS,5aR,9R,9aR,10aR)-2,9-dimethyl-3-oxo-4,4a,5a,6,7,9,9a,10a-octahydrodipyrano[4,2-a:4',3'-e][1,4]dioxin-7-yl]-1,5-dihydroxy-9,10-dioxoanthracen-2-yl]-3-hydroxy-3-methylbutanoic acid
PRECURSORMZ:  595.18210001783
PRECURSORTYPE:  [M-H]-
FORMULA:  C31H32O12
Ontology: Kingdom: Organic compounds;Superclass: Benzenoids;Class: Anthracenes;Subclass: Anthraquinones
INCHIKEY:  LOVVVDDAKZKPHZ-UHFFFAOYNA-N
SMILES:  CC1OC(CC2OC3CC(=O)C(C)OC3OC12)C1=C(O)C2=C(C=C1)C(=O)C1=C(C=CC(CC(C)(O)CC(O)=O)=C1O)C2=O
RETENTIONTIME:  
CCS:  270.4136973
IONMODE:  Negative
INSTRUMENTTYPE:  
INSTRUMENT:  Maxis II HD Q-TOF Bruker
COLLISIONENERGY:  
Comment:  DB#=CCMSLIB00000845815; origin=GNPS
Num Peaks:  16
170.70955	10.0
252.04944	10.0
253.0535	10.0
266.06232	30.0
279.07385	40.0
282.05661	10.0
291.06332	20.0
296.07269	10.0
320.07312	30.0
347.08545	10.0
363.09271	10.0
364.10416	10.0
466.25241	10.0
493.15167	1000.0
494.07443	10.0
576.16406	10.0

NAME:  NCGC00168994-02![(2R,3S,4R,5R,6S)-6-[(2S,3R,4S,5S,6R)-2-[5,8-dihydroxy-2-(4-methoxyphenyl)-4-oxochromen-7-yl]oxy-4,5-dihydroxy-6-(hydroxymethyl)oxan-3-yl]oxy-3,4,5-trihydroxyoxan-2-yl]methyl acetate
PRECURSORMZ:  665.17232318283
PRECURSORTYPE:  [M-H]-
FORMULA:  C30H34O17
Ontology: Kingdom: Organic compounds;Superclass: Phenylpropanoids and polyketides;Class: Flavonoids;Subclass: Flavonoid glycosides
INCHIKEY:  NXDNDRJNQJPXGJ-UHFFFAOYNA-N
SMILES:  COC1=CC=C(C=C1)C1=CC(=O)C2=C(O1)C(O)=C(OC1OC(CO)C(O)C(O)C1OC1OC(COC(C)=O)C(O)C(O)C1O)C=C2O
RETENTIONTIME:  
CCS:  267.6047314
IONMODE:  Negative
INSTRUMENTTYPE:  
INSTRUMENT:  Maxis II HD Q-TOF Bruker
COLLISIONENERGY:  
Comment:  DB#=CCMSLIB00000845817; origin=GNPS
Num Peaks:  20
155.04819	20.0
162.03145	10.0
162.09616	10.0
179.03737	10.0
240.03804	30.0
243.05983	10.0
255.03519	30.0
283.03128	20.0
284.03674	130.0
284.09534	10.0
297.03824	10.0
298.04901	100.0
298.20453	10.0
298.61514	20.0
299.05713	1000.0
341.07819	20.0
461.12515	20.0
605.15125	10.0
623.16675	70.0
665.17487	240.0

NAME:  NCGC00179992-02!3-[3-[4,5-dihydroxy-6-(hydroxymethyl)-3-[3,4,5-trihydroxy-6-(hydroxymethyl)oxan-2-yl]oxyoxan-2-yl]oxy-4,5-dihydroxy-6-(hydroxymethyl)oxan-2-yl]oxy-2-(3,4-dihydroxyphenyl)-5,7-dihydroxychromen-4-one
PRECURSORMZ:  787.19384647583
PRECURSORTYPE:  [M-H]-
FORMULA:  C33H40O22
Ontology: Kingdom: Organic compounds;Superclass: Phenylpropanoids and polyketides;Class: Flavonoids;Subclass: Flavonoid glycosides
INCHIKEY:  IQBMWEYFKNVACH-UHFFFAOYNA-N
SMILES:  OCC1OC(OC2C(O)C(O)C(CO)OC2OC2C(O)C(O)C(CO)OC2OC2=C(OC3=CC(O)=CC(O)=C3C2=O)C2=CC(O)=C(O)C=C2)C(O)C(O)C1O
RETENTIONTIME:  
CCS:  258.456863
IONMODE:  Negative
INSTRUMENTTYPE:  
INSTRUMENT:  Maxis II HD Q-TOF Bruker
COLLISIONENERGY:  
Comment:  DB#=CCMSLIB00000845820; origin=GNPS
Num Peaks:  20
151.00391	10.0
179.00307	30.0
255.03394	60.0
270.95728	20.0
271.026	220.0
272.03357	30.0
273.03943	10.0
299.01801	70.0
299.59708	20.0
300.02927	1000.0
301.03906	100.0
343.0575	10.0
431.13232	10.0
445.07306	20.0
613.13818	10.0
625.13391	20.0
667.15289	20.0
787.19305	890.0
787.36151	10.0
788.20361	100.0

NAME:  NCGC00384963-01!7-(3,4-dihydroxyphenyl)-5-hydroxy-2,2-dimethyl-10-(3-methylbut-2-enyl)pyrano[3,2-g]chromen-6-one
PRECURSORMZ:  465.15549104083
PRECURSORTYPE:  [M+FA-H]-
FORMULA:  C25H24O6
Ontology: ;;;
INCHIKEY:  PSEBCAMYGWGJMH-UHFFFAOYSA-N
SMILES:  CC(C)=CCC1=C2OC(C)(C)C=CC2=C(O)C2=C1OC=C(C2=O)C1=CC(O)=C(O)C=C1
RETENTIONTIME:  
CCS:  -1
IONMODE:  Negative
INSTRUMENTTYPE:  
INSTRUMENT:  Maxis II HD Q-TOF Bruker
COLLISIONENERGY:  
Comment:  DB#=CCMSLIB00000845822; origin=GNPS
Num Peaks:  8
96.402	20.0
172.05429	40.0
207.64388	30.0
208.51794	30.0
262.99051	30.0
267.06958	40.0
373.16003	90.0
419.15207	1000.0

NAME:  NCGC00347845-02![(2R,3S,4S,5S)-3,4-dihydroxy-5-(3,4,5-trihydroxybenzoyl)oxyoxan-2-yl]methyl 3,4,5-trihydroxybenzoate
PRECURSORMZ:  467.08311425183
PRECURSORTYPE:  [M-H]-
FORMULA:  C20H20O13
Ontology: ;;;
INCHIKEY:  IGKWMHUOBKCUQU-UHFFFAOYNA-N
SMILES:  OC1C(O)C(COC1COC(=O)C1=CC(O)=C(O)C(O)=C1)OC(=O)C1=CC(O)=C(O)C(O)=C1
RETENTIONTIME:  
CCS:  218.7077815
IONMODE:  Negative
INSTRUMENTTYPE:  
INSTRUMENT:  Maxis II HD Q-TOF Bruker
COLLISIONENERGY:  
Comment:  DB#=CCMSLIB00000845823; origin=GNPS
Num Peaks:  17
111.00927	20.0
125.02232	30.0
139.00737	30.0
140.01556	30.0
151.00081	30.0
168.00552	20.0
169.01617	130.0
227.76035	10.0
254.62206	10.0
281.06924	20.0
294.72546	20.0
297.05698	30.0
315.06921	50.0
465.06262	30.0
467.0838	1000.0
468.09879	10.0
484.25754	10.0

NAME:  NCGC00384936-01!2-(3,4-dihydroxyphenyl)ethyl 4-[2-[2-(3,4-dihydroxyphenyl)ethoxy]-2-oxoethyl]-5-hydroxy-4a,5,7,7a-tetrahydro-4H-furo[3,4-b]pyran-3-carboxylate
PRECURSORMZ:  515.15588526983
PRECURSORTYPE:  [M-H]-
FORMULA:  C26H28O11
Ontology: Kingdom: Organic compounds;Superclass: Benzenoids;Class: Phenols;Subclass: Tyrosols and derivatives
INCHIKEY:  AIPGFMVNUMXXEM-UHFFFAOYNA-N
SMILES:  OC1OCC2OC=C(C(CC(=O)OCCC3=CC(O)=C(O)C=C3)C12)C(=O)OCCC1=CC(O)=C(O)C=C1
RETENTIONTIME:  
CCS:  -1
IONMODE:  Negative
INSTRUMENTTYPE:  
INSTRUMENT:  Maxis II HD Q-TOF Bruker
COLLISIONENERGY:  
Comment:  DB#=CCMSLIB00000845826; origin=GNPS
Num Peaks:  46
76.21893	10.0
93.03494	70.0
107.05156	50.0
109.06344	30.0
111.00848	70.0
111.04368	210.0
121.0368	60.0
121.11033	20.0
135.04462	70.0
137.02364	150.0
137.06047	220.0
139.00186	420.0
139.04199	50.0
146.32709	20.0
146.57472	20.0
149.02731	30.0
165.01462	30.0
181.04828	560.0
195.06552	30.0
207.03159	60.0
215.05418	10.0
223.0621	40.0
225.03563	30.0
249.07523	80.0
273.07413	1000.0
275.05276	190.0
287.09018	70.0
291.10397	70.0
293.07849	30.0
299.09167	50.0
301.077	200.0
313.06622	40.0
317.10162	80.0
325.06177	40.0
335.12393	30.0
344.08267	40.0
351.09955	20.0
361.08585	140.0
379.10617	30.0
401.11771	40.0
401.14847	40.0
426.11505	50.0
429.11658	180.0
467.13742	30.0
497.15747	80.0
515.15491	240.0

NAME:  NCGC00384936-01!2-(3,4-dihydroxyphenyl)ethyl 4-[2-[2-(3,4-dihydroxyphenyl)ethoxy]-2-oxoethyl]-5-hydroxy-4a,5,7,7a-tetrahydro-4H-furo[3,4-b]pyran-3-carboxylate
PRECURSORMZ:  497.14532058983
PRECURSORTYPE:  [M-H2O-H]-
FORMULA:  C26H28O11
Ontology: Kingdom: Organic compounds;Superclass: Benzenoids;Class: Phenols;Subclass: Tyrosols and derivatives
INCHIKEY:  AIPGFMVNUMXXEM-UHFFFAOYNA-N
SMILES:  OC1OCC2OC=C(C(CC(=O)OCCC3=CC(O)=C(O)C=C3)C12)C(=O)OCCC1=CC(O)=C(O)C=C1
RETENTIONTIME:  
CCS:  -1
IONMODE:  Negative
INSTRUMENTTYPE:  
INSTRUMENT:  Maxis II HD Q-TOF Bruker
COLLISIONENERGY:  
Comment:  DB#=CCMSLIB00000845827; origin=GNPS
Num Peaks:  17
86.41148	40.0
163.03883	230.0
179.03668	80.0
180.48482	40.0
180.74985	30.0
181.05125	760.0
181.2522	20.0
197.04628	130.0
206.70453	40.0
206.98427	90.0
207.0296	1000.0
273.07623	60.0
315.08929	140.0
317.10144	170.0
343.08072	540.0
343.80908	50.0
344.80618	40.0

NAME:  NCGC00384936-01!2-(3,4-dihydroxyphenyl)ethyl 4-[2-[2-(3,4-dihydroxyphenyl)ethoxy]-2-oxoethyl]-5-hydroxy-4a,5,7,7a-tetrahydro-4H-furo[3,4-b]pyran-3-carboxylate
PRECURSORMZ:  551.1325629819
PRECURSORTYPE:  [M+Cl]-
FORMULA:  C26H28O11
Ontology: Kingdom: Organic compounds;Superclass: Benzenoids;Class: Phenols;Subclass: Tyrosols and derivatives
INCHIKEY:  AIPGFMVNUMXXEM-UHFFFAOYNA-N
SMILES:  OC1OCC2OC=C(C(CC(=O)OCCC3=CC(O)=C(O)C=C3)C12)C(=O)OCCC1=CC(O)=C(O)C=C1
RETENTIONTIME:  
CCS:  -1
IONMODE:  Negative
INSTRUMENTTYPE:  
INSTRUMENT:  Maxis II HD Q-TOF Bruker
COLLISIONENERGY:  
Comment:  DB#=CCMSLIB00000845830; origin=GNPS
Num Peaks:  20
123.04671	300.0
137.05446	550.0
139.01186	320.0
149.02202	320.0
153.06328	390.0
156.02695	80.0
181.04956	900.0
207.02299	80.0
225.03488	390.0
273.07562	280.0
275.05334	350.0
291.08545	100.0
293.06879	300.0
299.09506	250.0
301.10159	210.0
317.09702	510.0
333.08307	210.0
361.09268	1000.0
429.11661	790.0
515.15375	190.0

NAME:  NCGC00384960-01!5,7-dihydroxy-6-[(2S,3R,4R,6R)-4-hydroxy-6-methyl-5-oxo-3-[(2S,3R,4R,5R,6S)-3,4,5-trihydroxy-6-methyloxan-2-yl]oxyoxan-2-yl]-2-(4-hydroxyphenyl)chromen-4-one
PRECURSORMZ:  559.14571450983
PRECURSORTYPE:  [M-H]-
FORMULA:  C27H28O13
Ontology: Kingdom: Organic compounds;Superclass: Phenylpropanoids and polyketides;Class: Flavonoids;Subclass: Flavonoid glycosides
INCHIKEY:  LCQVQAZLYBJMGJ-UHFFFAOYNA-N
SMILES:  CC1OC(OC2C(O)C(=O)C(C)OC2C2=C(O)C3=C(OC(=CC3=O)C3=CC=C(O)C=C3)C=C2O)C(O)C(O)C1O
RETENTIONTIME:  
CCS:  235.9963751
IONMODE:  Negative
INSTRUMENTTYPE:  
INSTRUMENT:  Maxis II HD Q-TOF Bruker
COLLISIONENERGY:  
Comment:  DB#=CCMSLIB00000845832; origin=GNPS
Num Peaks:  29
125.0183	30.0
176.02692	30.0
187.01465	50.0
190.63579	50.0
269.04553	160.0
282.05484	50.0
291.05585	50.0
293.03943	60.0
294.13159	30.0
294.63568	10.0
295.05911	200.0
295.23013	20.0
297.03787	70.0
311.0455	40.0
321.04385	240.0
322.06442	60.0
337.03021	30.0
349.07236	40.0
351.04877	50.0
353.06982	20.0
369.04822	50.0
395.07755	1000.0
412.08331	30.0
441.07385	60.0
457.11853	60.0
459.67856	80.0
515.11786	20.0
559.14899	130.0
818.25677	40.0

NAME:  NCGC00384544-01!2-hydroxy-4-methoxy-3-(3-methylbut-2-enyl)-6-(2-phenylethyl)benzoic acid
PRECURSORMZ:  339.16018280083
PRECURSORTYPE:  [M-H]-
FORMULA:  C21H24O4
Ontology: Kingdom: Organic compounds;Superclass: Phenylpropanoids and polyketides;Class: Stilbenes;
INCHIKEY:  CTNFTPUIYFUXBE-UHFFFAOYSA-N
SMILES:  COC1=C(CC=C(C)C)C(O)=C(C(O)=O)C(CCC2=CC=CC=C2)=C1
RETENTIONTIME:  
CCS:  197.448719
IONMODE:  Negative
INSTRUMENTTYPE:  
INSTRUMENT:  Maxis II HD Q-TOF Bruker
COLLISIONENERGY:  
Comment:  DB#=CCMSLIB00000845833; origin=GNPS
Num Peaks:  8
211.11929	60.0
225.09183	70.0
226.10059	40.0
237.09352	80.0
281.08542	60.0
295.17413	1000.0
339.16177	650.0
1663.5022	30.0

NAME:  NCGC00384647-01!5,7-dihydroxy-3-(3-hydroxy-4,5-dimethoxyphenyl)-6-methoxychromen-4-one
PRECURSORMZ:  359.07724102283
PRECURSORTYPE:  [M-H]-
FORMULA:  C18H16O8
Ontology: Kingdom: Organic compounds;Superclass: Phenylpropanoids and polyketides;Class: Isoflavonoids;Subclass: O
INCHIKEY:  TUGWPJJTQNLKCL-UHFFFAOYSA-N
SMILES:  COC1=CC(=CC(O)=C1OC)C1=COC2=C(C(O)=C(OC)C(O)=C2)C1=O
RETENTIONTIME:  
CCS:  184.4895819
IONMODE:  Negative
INSTRUMENTTYPE:  
INSTRUMENT:  Maxis II HD Q-TOF Bruker
COLLISIONENERGY:  
Comment:  DB#=CCMSLIB00000845836; origin=GNPS
Num Peaks:  20
162.00044	70.0
164.98335	30.0
181.84685	130.0
214.0238	130.0
230.03864	70.0
241.01019	50.0
258.01276	50.0
274.99615	60.0
285.034	40.0
286.00497	100.0
297.00784	50.0
301.03854	50.0
313.99698	100.0
329.03577	230.0
344.05676	1000.0
345.04932	60.0
359.07928	530.0
373.8866	20.0
681.25049	20.0
1059.35754	20.0

NAME:  NCGC00168874-03!N-[3-[5,8-bis[3-[acetyl(hydroxy)amino]propyl]-3,6,9,12,15,18-hexaoxo-1,4,7,10,13,16-hexazacyclooctadec-2-yl]propyl]-N-hydroxyacetamide
PRECURSORMZ:  686.31149147283
PRECURSORTYPE:  [M-H]-
FORMULA:  C27H45N9O12
Ontology: Kingdom: Organic compounds;Superclass: Organic acids and derivatives;Class: Carboxylic acids and derivatives;Subclass: Amino acids
INCHIKEY:  ZFDAUYPBCXMSBF-UHFFFAOYNA-N
SMILES:  CC(=O)N(O)CCCC1N=C(O)C(CCCN(O)C(C)=O)N=C(O)C(CCCN(O)C(C)=O)N=C(O)CN=C(O)CN=C(O)CN=C1O
RETENTIONTIME:  
CCS:  260.6107963
IONMODE:  Negative
INSTRUMENTTYPE:  
INSTRUMENT:  Maxis II HD Q-TOF Bruker
COLLISIONENERGY:  
Comment:  DB#=CCMSLIB00000845837; origin=GNPS
Num Peaks:  112
83.02299	20.0
109.04324	20.0
113.03458	90.0
122.86764	20.0
128.0443	60.0
128.08672	20.0
129.06932	30.0
130.05988	50.0
135.05298	20.0
138.06847	40.0
141.06851	30.0
150.06757	20.0
151.04982	30.0
154.06418	40.0
160.13066	10.0
166.05779	30.0
167.06015	20.0
167.10931	20.0
168.07851	120.0
169.07376	50.0
171.06183	20.0
179.09108	20.0
180.07893	30.0
184.07207	20.0
185.10477	90.0
186.10213	20.0
187.08414	20.0
198.05066	30.0
203.08107	40.0
212.11131	20.0
240.15416	10.0
242.12413	100.0
242.21236	30.0
243.14061	20.0
244.10652	50.0
254.11969	20.0
254.59415	40.0
256.10535	30.0
257.12134	10.0
258.80942	10.0
264.11124	30.0
266.16849	20.0
269.07632	20.0
280.13791	30.0
281.13602	50.0
282.12161	90.0
283.13754	20.0
284.13672	30.0
285.19684	20.0
290.1167	20.0
292.14053	30.0
295.15265	20.0
296.08566	20.0
297.17426	60.0
299.14563	170.0
302.15424	40.0
311.19098	20.0
314.15829	30.0
319.15543	20.0
323.19498	20.0
338.12408	20.0
340.16327	30.0
348.14584	20.0
354.18994	100.0
359.1723	60.0
365.11203	20.0
393.19327	10.0
394.17719	50.0
394.21103	30.0
396.55481	20.0
406.17258	10.0
408.17896	30.0
409.2294	60.0
410.25519	20.0
426.17484	20.0
426.21893	20.0
429.20419	10.0
432.1803	20.0
450.18457	20.0
452.17923	20.0
454.25519	20.0
458.20511	10.0
459.19678	30.0
462.26126	10.0
480.26953	20.0
488.23553	10.0
489.22891	20.0
494.21497	10.0
506.24869	180.0
509.80133	10.0
518.22998	40.0
524.25983	100.0
548.23877	30.0
564.66559	10.0
565.17889	10.0
566.2666	230.0
584.27838	20.0
599.28595	30.0
608.28741	20.0
624.99756	10.0
626.29175	400.0
642.28174	30.0
644.3045	30.0
644.35956	20.0
644.40417	10.0
684.74847	10.0
685.51331	10.0
686.06372	30.0
686.31293	1000.0
687.30579	50.0
691.02246	20.0
1025.18713	30.0

NAME:  NCGC00168874-03!N-[3-[5,8-bis[3-[acetyl(hydroxy)amino]propyl]-3,6,9,12,15,18-hexaoxo-1,4,7,10,13,16-hexazacyclooctadec-2-yl]propyl]-N-hydroxyacetamide
PRECURSORMZ:  722.2881691849
PRECURSORTYPE:  [M+Cl]-
FORMULA:  C27H45N9O12
Ontology: Kingdom: Organic compounds;Superclass: Organic acids and derivatives;Class: Carboxylic acids and derivatives;Subclass: Amino acids
INCHIKEY:  ZFDAUYPBCXMSBF-UHFFFAOYNA-N
SMILES:  CC(=O)N(O)CCCC1N=C(O)C(CCCN(O)C(C)=O)N=C(O)C(CCCN(O)C(C)=O)N=C(O)CN=C(O)CN=C(O)CN=C1O
RETENTIONTIME:  
CCS:  -1
IONMODE:  Negative
INSTRUMENTTYPE:  
INSTRUMENT:  Maxis II HD Q-TOF Bruker
COLLISIONENERGY:  
Comment:  DB#=CCMSLIB00000845839; origin=GNPS
Num Peaks:  21
83.02499	100.0
95.02381	130.0
125.03699	140.0
185.10481	150.0
187.07228	100.0
199.54834	100.0
311.13724	110.0
317.15903	70.0
339.18155	110.0
339.8801	140.0
394.22247	60.0
396.16901	210.0
409.24823	190.0
506.2428	110.0
566.22748	50.0
566.28143	100.0
624.06818	30.0
624.87189	30.0
668.30096	80.0
686.31018	1000.0
722.29443	240.0

NAME:  NCGC00384545-01![(2R,3S,4S,5R,6S)-6-[3,5-dihydroxy-2-(4-hydroxy-3-methoxyphenyl)-8-methoxy-4-oxochromen-7-yl]oxy-3,4-dihydroxy-5-[(2S,3R,4R,5R,6S)-3,4,5-trihydroxy-6-methyloxan-2-yl]oxyoxan-2-yl]methyl acetate
PRECURSORMZ:  741.18836686683
PRECURSORTYPE:  [M+FA-H]-
FORMULA:  C31H36O18
Ontology: Kingdom: Organic compounds;Superclass: Phenylpropanoids and polyketides;Class: Flavonoids;Subclass: Flavonoid glycosides
INCHIKEY:  JGGRFKDDIGORCC-UHFFFAOYNA-N
SMILES:  COC1=C(O)C=CC(=C1)C1=C(O)C(=O)C2=C(O1)C(OC)=C(OC1OC(COC(C)=O)C(O)C(O)C1OC1OC(C)C(O)C(O)C1O)C=C2O
RETENTIONTIME:  
CCS:  -1
IONMODE:  Negative
INSTRUMENTTYPE:  
INSTRUMENT:  Maxis II HD Q-TOF Bruker
COLLISIONENERGY:  
Comment:  DB#=CCMSLIB00000845841; origin=GNPS
Num Peaks:  48
97.99918	20.0
109.99883	20.0
125.99297	10.0
136.98268	20.0
137.00285	20.0
150.39171	20.0
163.0439	10.0
164.98061	90.0
165.98894	90.0
167.00607	20.0
176.06552	10.0
177.99168	10.0
181.01936	20.0
187.04414	10.0
192.98196	10.0
214.02434	20.0
242.02246	20.0
255.02884	10.0
257.04767	20.0
258.01529	20.0
270.01404	30.0
273.04077	20.0
274.05048	20.0
278.04163	10.0
286.01004	50.0
301.03452	110.0
302.03589	10.0
314.01031	70.0
315.01126	40.0
316.00613	10.0
317.05966	20.0
328.05783	10.0
329.02945	690.0
330.03955	420.0
331.47754	10.0
343.04065	10.0
344.05453	320.0
345.06177	960.0
346.04749	20.0
387.07242	20.0
531.13434	10.0
533.13617	10.0
621.15527	10.0
636.17682	10.0
653.14948	20.0
680.16357	50.0
695.18158	1000.0
696.19159	50.0

NAME:  NCGC00381240-01!1,3,4-trihydroxy-5-[(E)-3-[2-(4-hydroxy-3-methoxyphenyl)-3-(hydroxymethyl)-7-methoxy-2,3-dihydro-1-benzofuran-5-yl]prop-2-enoyl]oxycyclohexane-1-carboxylic acid
PRECURSORMZ:  545.16644995383
PRECURSORTYPE:  [M-H]-
FORMULA:  C27H30O12
Ontology: ;;;
INCHIKEY:  GQMNGGACVSAOEC-UHFFFAOYNA-N
SMILES:  COC1=CC(C=CC(=O)OC2CC(O)(CC(O)C2O)C(O)=O)=CC2=C1OC(C2CO)C1=CC(OC)=C(O)C=C1
RETENTIONTIME:  
CCS:  -1
IONMODE:  Negative
INSTRUMENTTYPE:  
INSTRUMENT:  Maxis II HD Q-TOF Bruker
COLLISIONENERGY:  
Comment:  DB#=CCMSLIB00000845843; origin=GNPS
Num Peaks:  30
103.66037	30.0
108.01987	50.0
137.01924	40.0
155.03644	40.0
173.04367	290.0
176.04906	50.0
178.02252	40.0
191.05586	150.0
238.04466	40.0
249.04793	30.0
263.07391	20.0
264.38278	10.0
267.06821	100.0
278.08997	50.0
294.08487	80.0
295.05975	20.0
297.11557	50.0
309.07675	130.0
312.28317	10.0
322.07639	40.0
323.0466	100.0
323.09753	40.0
327.11691	50.0
338.0798	90.0
341.10269	530.0
353.10403	1000.0
371.11453	540.0
545.16388	210.0
873.16736	150.0
1454.08838	20.0

NAME:  NCGC00381241-01![2-[6-[4-[3,4-dihydroxy-5-(hydroxymethyl)oxolan-2-yl]oxy-2,6-dihydroxy-3-[3-(4-hydroxyphenyl)propanoyl]phenyl]-4,5-dihydroxy-2-methyloxan-3-yl]oxy-3,5-dihydroxy-6-methyloxan-4-yl] (E)-3-(4-hydroxyphenyl)prop-2-enoate
PRECURSORMZ:  843.27170287383
PRECURSORTYPE:  [M-H]-
FORMULA:  C41H48O19
Ontology: Kingdom: Organic compounds;Superclass: Phenylpropanoids and polyketides;Class: Linear ;Subclass: Chalcones and dihydrochalcones
INCHIKEY:  XREZOMRRMAKCRX-UHFFFAOYNA-N
SMILES:  CC1OC(OC2C(C)OC(C(O)C2O)C2=C(O)C(C(=O)CCC3=CC=C(O)C=C3)=C(OC3OC(CO)C(O)C3O)C=C2O)C(O)C(OC(=O)C=CC2=CC=C(O)C=C2)C1O
RETENTIONTIME:  
CCS:  -1
IONMODE:  Negative
INSTRUMENTTYPE:  
INSTRUMENT:  Maxis II HD Q-TOF Bruker
COLLISIONENERGY:  
Comment:  DB#=CCMSLIB00000845845; origin=GNPS
Num Peaks:  64
93.03643	10.0
108.64534	10.0
117.03192	10.0
119.04835	70.0
125.02467	30.0
147.05106	10.0
149.02292	30.0
149.05775	10.0
151.00177	30.0
163.04057	100.0
165.02054	10.0
166.02678	30.0
167.0343	120.0
174.47765	10.0
175.00403	30.0
176.00992	30.0
179.03073	20.0
179.07294	10.0
191.0341	680.0
203.03268	150.0
205.05214	10.0
209.04544	20.0
215.03001	20.0
217.02792	20.0
221.04308	20.0
233.04182	50.0
239.05457	20.0
263.05228	10.0
273.08115	30.0
285.07031	10.0
286.08636	20.0
286.11575	20.0
296.76318	10.0
297.07758	1000.0
298.07687	20.0
311.09879	10.0
313.06952	10.0
315.08459	120.0
323.112	10.0
327.0889	30.0
345.10297	40.0
353.10669	10.0
368.09003	20.0
401.12448	50.0
403.12146	10.0
427.12711	30.0
469.14209	70.0
475.15201	50.0
573.17908	10.0
575.17987	860.0
576.18652	70.0
585.15979	10.0
593.18835	190.0
594.1944	20.0
605.19623	40.0
623.19659	110.0
624.18304	10.0
679.22717	490.0
680.23358	50.0
697.24225	220.0
698.21082	10.0
843.27032	90.0
844.26849	30.0
1589.50293	20.0

NAME:  NCGC00381241-01![2-[6-[4-[3,4-dihydroxy-5-(hydroxymethyl)oxolan-2-yl]oxy-2,6-dihydroxy-3-[3-(4-hydroxyphenyl)propanoyl]phenyl]-4,5-dihydroxy-2-methyloxan-3-yl]oxy-3,5-dihydroxy-6-methyloxan-4-yl] (E)-3-(4-hydroxyphenyl)prop-2-enoate
PRECURSORMZ:  889.27718187383
PRECURSORTYPE:  [M+FA-H]-
FORMULA:  C41H48O19
Ontology: Kingdom: Organic compounds;Superclass: Phenylpropanoids and polyketides;Class: Linear ;Subclass: Chalcones and dihydrochalcones
INCHIKEY:  XREZOMRRMAKCRX-UHFFFAOYNA-N
SMILES:  CC1OC(OC2C(C)OC(C(O)C2O)C2=C(O)C(C(=O)CCC3=CC=C(O)C=C3)=C(OC3OC(CO)C(O)C3O)C=C2O)C(O)C(OC(=O)C=CC2=CC=C(O)C=C2)C1O
RETENTIONTIME:  
CCS:  -1
IONMODE:  Negative
INSTRUMENTTYPE:  
INSTRUMENT:  Maxis II HD Q-TOF Bruker
COLLISIONENERGY:  
Comment:  DB#=CCMSLIB00000845847; origin=GNPS
Num Peaks:  38
83.14318	110.0
93.03127	140.0
108.30862	160.0
147.04388	160.0
147.7585	60.0
149.02786	180.0
163.04459	100.0
167.03337	190.0
175.00459	160.0
181.05145	140.0
189.0607	160.0
191.02969	690.0
203.03546	110.0
215.03773	210.0
279.0159	110.0
279.06424	60.0
295.08731	110.0
297.07681	960.0
299.05856	170.0
339.08835	350.0
345.10257	100.0
369.13544	190.0
401.10025	170.0
445.11966	60.0
469.12781	170.0
475.13794	140.0
513.1604	50.0
547.18866	140.0
575.17841	1000.0
576.15082	60.0
593.18097	160.0
623.19507	300.0
679.22223	600.0
680.22162	230.0
697.24115	480.0
698.24158	70.0
843.26526	80.0
844.26147	70.0

NAME:  NCGC00385174-01!1-[2,4-dihydroxy-3-(3-methylbut-2-enyl)phenyl]-3-(4-hydroxyphenyl)propan-1-one
PRECURSORMZ:  371.15001173583
PRECURSORTYPE:  [M+FA-H]-
FORMULA:  C20H22O4
Ontology: Kingdom: Organic compounds;Superclass: Phenylpropanoids and polyketides;Class: Linear ;Subclass: Chalcones and dihydrochalcones
INCHIKEY:  IZCOBQSZMYGEDP-UHFFFAOYSA-N
SMILES:  CC(C)=CCC1=C(O)C=CC(C(=O)CCC2=CC=C(O)C=C2)=C1O
RETENTIONTIME:  
CCS:  -1
IONMODE:  Negative
INSTRUMENTTYPE:  
INSTRUMENT:  Maxis II HD Q-TOF Bruker
COLLISIONENERGY:  
Comment:  DB#=CCMSLIB00000845849; origin=GNPS
Num Peaks:  6
163.04735	60.0
196.03926	110.0
219.10193	1000.0
304.54523	210.0
325.14496	640.0
1692.8822	70.0

NAME:  NCGC00385170-01!3,5,7-trihydroxy-2-[4-hydroxy-3-[(2S,3R,4S,5S,6R)-3,4,5-trihydroxy-6-(hydroxymethyl)oxan-2-yl]oxyphenyl]chromen-4-one
PRECURSORMZ:  463.08819963183
PRECURSORTYPE:  [M-H]-
FORMULA:  C21H20O12
Ontology: Kingdom: Organic compounds;Superclass: Phenylpropanoids and polyketides;Class: Flavonoids;Subclass: Flavonoid glycosides
INCHIKEY:  YLWQTYZKYGNKPI-UHFFFAOYNA-N
SMILES:  OCC1OC(OC2=C(O)C=CC(=C2)C2=C(O)C(=O)C3=C(O)C=C(O)C=C3O2)C(O)C(O)C1O
RETENTIONTIME:  
CCS:  221.7566489
IONMODE:  Negative
INSTRUMENTTYPE:  
INSTRUMENT:  Maxis II HD Q-TOF Bruker
COLLISIONENERGY:  
Comment:  DB#=CCMSLIB00000845852; origin=GNPS
Num Peaks:  16
210.03461	350.0
227.02931	230.0
282.31848	250.0
283.02679	1000.0
283.50211	160.0
284.02664	240.0
287.02866	280.0
299.02396	110.0
299.05099	130.0
301.03152	940.0
316.02036	320.0
331.06015	320.0
447.07977	550.0
448.07166	160.0
462.11581	760.0
463.07925	300.0

NAME:  NCGC00385170-01!3,5,7-trihydroxy-2-[4-hydroxy-3-[(2S,3R,4S,5S,6R)-3,4,5-trihydroxy-6-(hydroxymethyl)oxan-2-yl]oxyphenyl]chromen-4-one
PRECURSORMZ:  509.09367863183
PRECURSORTYPE:  [M+FA-H]-
FORMULA:  C21H20O12
Ontology: Kingdom: Organic compounds;Superclass: Phenylpropanoids and polyketides;Class: Flavonoids;Subclass: Flavonoid glycosides
INCHIKEY:  YLWQTYZKYGNKPI-UHFFFAOYNA-N
SMILES:  OCC1OC(OC2=C(O)C=CC(=C2)C2=C(O)C(=O)C3=C(O)C=C(O)C=C3O2)C(O)C(O)C1O
RETENTIONTIME:  
CCS:  -1
IONMODE:  Negative
INSTRUMENTTYPE:  
INSTRUMENT:  Maxis II HD Q-TOF Bruker
COLLISIONENERGY:  
Comment:  DB#=CCMSLIB00000845853; origin=GNPS
Num Peaks:  9
151.00063	200.0
175.03757	90.0
193.01717	50.0
301.03531	480.0
319.26172	30.0
368.09647	50.0
462.37936	110.0
463.09061	1000.0
507.15668	110.0

NAME:  NCGC00169555-02!2-(3,5-dihydroxy-4-methoxyphenyl)-5,7-dihydroxy-3-[(2S,3R,4R,5R,6S)-3,4,5-trihydroxy-6-methyloxan-2-yl]oxychromen-4-one
PRECURSORMZ:  477.10384969583
PRECURSORTYPE:  [M-H]-
FORMULA:  C22H22O12
Ontology: Kingdom: Organic compounds;Superclass: Phenylpropanoids and polyketides;Class: Flavonoids;Subclass: Flavonoid glycosides
INCHIKEY:  NAQNISJXKDSYJD-UHFFFAOYNA-N
SMILES:  COC1=C(O)C=C(C=C1O)C1=C(OC2OC(C)C(O)C(O)C2O)C(=O)C2=C(O)C=C(O)C=C2O1
RETENTIONTIME:  
CCS:  214.5807493
IONMODE:  Negative
INSTRUMENTTYPE:  
INSTRUMENT:  Maxis II HD Q-TOF Bruker
COLLISIONENERGY:  
Comment:  DB#=CCMSLIB00000845856; origin=GNPS
Num Peaks:  11
119.049	70.0
145.03291	150.0
243.02521	80.0
299.01352	80.0
300.02789	180.0
312.81342	30.0
314.14105	20.0
315.04904	1000.0
315.30554	70.0
316.03247	60.0
477.10583	160.0

NAME:  NCGC00169555-02!2-(3,5-dihydroxy-4-methoxyphenyl)-5,7-dihydroxy-3-[(2S,3R,4R,5R,6S)-3,4,5-trihydroxy-6-methyloxan-2-yl]oxychromen-4-one
PRECURSORMZ:  523.10932869583
PRECURSORTYPE:  [M+FA-H]-
FORMULA:  C22H22O12
Ontology: Kingdom: Organic compounds;Superclass: Phenylpropanoids and polyketides;Class: Flavonoids;Subclass: Flavonoid glycosides
INCHIKEY:  NAQNISJXKDSYJD-UHFFFAOYNA-N
SMILES:  COC1=C(O)C=C(C=C1O)C1=C(OC2OC(C)C(O)C(O)C2O)C(=O)C2=C(O)C=C(O)C=C2O1
RETENTIONTIME:  
CCS:  -1
IONMODE:  Negative
INSTRUMENTTYPE:  
INSTRUMENT:  Maxis II HD Q-TOF Bruker
COLLISIONENERGY:  
Comment:  DB#=CCMSLIB00000845857; origin=GNPS
Num Peaks:  16
163.07373	30.0
237.91734	10.0
258.49353	10.0
259.02228	20.0
271.0253	20.0
287.03308	20.0
290.26633	20.0
306.33218	10.0
315.01282	200.0
316.02094	590.0
330.03729	110.0
331.04428	780.0
462.078	30.0
475.0282	20.0
477.10474	1000.0
478.10602	10.0

NAME:  NCGC00385166-01![(2R,3S,4S,5R,6S)-6-[3,5-dihydroxy-2-[3-(4-hydroxyphenyl)propanoyl]phenoxy]-3,4,5-trihydroxyoxan-2-yl]methyl acetate
PRECURSORMZ:  523.14571420483
PRECURSORTYPE:  [M+FA-H]-
FORMULA:  C23H26O11
Ontology: Kingdom: Organic compounds;Superclass: Phenylpropanoids and polyketides;Class: Flavonoids;Subclass: Flavonoid glycosides
INCHIKEY:  WKDMJJFSCAZJHE-UHFFFAOYNA-N
SMILES:  CC(=O)OCC1OC(OC2=CC(O)=CC(O)=C2C(=O)CCC2=CC=C(O)C=C2)C(O)C(O)C1O
RETENTIONTIME:  
CCS:  -1
IONMODE:  Negative
INSTRUMENTTYPE:  
INSTRUMENT:  Maxis II HD Q-TOF Bruker
COLLISIONENERGY:  
Comment:  DB#=CCMSLIB00000845860; origin=GNPS
Num Peaks:  13
83.01486	10.0
121.02885	10.0
147.91118	10.0
163.0419	10.0
167.0345	220.0
179.03395	40.0
273.07538	1000.0
274.08188	20.0
297.07755	10.0
312.0607	10.0
435.13507	10.0
435.16174	20.0
477.14636	90.0

NAME:  NCGC00385175-01!7-hydroxy-3-(2-oxochromen-7-yl)oxy-8-[2-oxo-7-[(2S,3R,4R,5R,6S)-3,4,5-trihydroxy-6-methyloxan-2-yl]oxychromen-8-yl]chromen-2-one
PRECURSORMZ:  627.11441438083
PRECURSORTYPE:  [M-H]-
FORMULA:  C33H24O13
Ontology: Kingdom: Organic compounds;Superclass: Phenylpropanoids and polyketides;Class: Coumarins and derivatives;Subclass: Coumarin glycosides
INCHIKEY:  IKMYHRZEPWIULH-UHFFFAOYNA-N
SMILES:  CC1OC(OC2=C(C3=C(C=CC(=O)O3)C=C2)C2=C(O)C=CC3=C2OC(=O)C(OC2=CC4=C(C=CC(=O)O4)C=C2)=C3)C(O)C(O)C1O
RETENTIONTIME:  
CCS:  260.2471238
IONMODE:  Negative
INSTRUMENTTYPE:  
INSTRUMENT:  Maxis II HD Q-TOF Bruker
COLLISIONENERGY:  
Comment:  DB#=CCMSLIB00000845862; origin=GNPS
Num Peaks:  33
85.03252	50.0
119.04913	30.0
133.02878	40.0
145.0228	30.0
161.02335	840.0
163.04192	50.0
220.05533	50.0
222.25677	40.0
246.08862	40.0
263.03171	40.0
264.04303	40.0
275.03192	60.0
302.08105	50.0
321.08698	30.0
375.06851	30.0
391.05801	20.0
393.07999	250.0
407.05414	20.0
409.0668	50.0
435.05966	10.0
437.06174	310.0
463.03827	20.0
467.15646	40.0
477.15591	10.0
479.8436	20.0
480.82962	20.0
481.05661	1000.0
482.07141	10.0
625.81879	10.0
626.16418	10.0
627.11261	250.0
628.14368	30.0
1223.82739	20.0

NAME:  NCGC00385778-01!5,7-dihydroxy-2-[4-hydroxy-3-methoxy-5-(3-methylbut-2-enyl)phenyl]-2,3-dihydrochromen-4-one
PRECURSORMZ:  415.13984097583
PRECURSORTYPE:  [M+FA-H]-
FORMULA:  C21H22O6
Ontology: Kingdom: Organic compounds;Superclass: Phenylpropanoids and polyketides;Class: Flavonoids;Subclass: Flavans
INCHIKEY:  UQFQODVSORPELA-UHFFFAOYNA-N
SMILES:  COC1=C(O)C(CC=C(C)C)=CC(=C1)C1CC(=O)C2=C(O)C=C(O)C=C2O1
RETENTIONTIME:  
CCS:  -1
IONMODE:  Negative
INSTRUMENTTYPE:  
INSTRUMENT:  Maxis II HD Q-TOF Bruker
COLLISIONENERGY:  
Comment:  DB#=CCMSLIB00000845864; origin=GNPS
Num Peaks:  11
151.00536	50.0
164.01132	30.0
195.9986	20.0
202.10223	40.0
253.12083	30.0
282.12726	30.0
325.14551	40.0
353.42526	40.0
354.24506	30.0
367.50766	50.0
369.1311	1000.0

NAME:  NCGC00385712-01![5-chloro-3-[(1E,3E,5E)-hepta-1,3,5-trienyl]-7-methyl-6,8-dioxo-2H-isoquinolin-7-yl] 3,5-dihydroxyhexanoate
PRECURSORMZ:  446.13758884783
PRECURSORTYPE:  [M-H]-
FORMULA:  C23H26ClNO6
Ontology: Kingdom: Organic compounds;Superclass: Organoheterocyclic compounds;Class: Azaphilones;
INCHIKEY:  NCHVDWWMGYMNEG-UHFFFAOYNA-N
SMILES:  CC=CC=CC=CC1=CC2=C(Cl)C(=O)C(C)(OC(=O)CC(O)CC(C)O)C(=O)C2=CN1
RETENTIONTIME:  
CCS:  -1
IONMODE:  Negative
INSTRUMENTTYPE:  
INSTRUMENT:  Maxis II HD Q-TOF Bruker
COLLISIONENERGY:  
Comment:  DB#=CCMSLIB00000845866; origin=GNPS
Num Peaks:  15
135.21434	30.0
147.06322	1000.0
151.44501	60.0
205.99933	110.0
252.11316	60.0
254.1136	60.0
279.21713	190.0
279.72577	50.0
280.05457	50.0
280.10046	730.0
280.14694	60.0
282.03265	150.0
298.06485	570.0
299.07361	110.0
446.13199	210.0

NAME:  NCGC00385623-01!4,6-dihydroxy-3-(6-hydroxy-1-oxo-3-pentylisochromen-8-yl)oxy-2-pentylbenzoic acid
PRECURSORMZ:  515.19227047383
PRECURSORTYPE:  [M+FA-H]-
FORMULA:  C26H30O8
Ontology: Kingdom: Organic compounds;Superclass: Phenylpropanoids and polyketides;Class: Isocoumarins and derivatives;
INCHIKEY:  BRRNOCJIAXDCCX-UHFFFAOYSA-N
SMILES:  CCCCCC1=CC2=CC(O)=CC(OC3=C(O)C=C(O)C(C(O)=O)=C3CCCCC)=C2C(=O)O1
RETENTIONTIME:  
CCS:  -1
IONMODE:  Negative
INSTRUMENTTYPE:  
INSTRUMENT:  Maxis II HD Q-TOF Bruker
COLLISIONENERGY:  
Comment:  DB#=CCMSLIB00000845867; origin=GNPS
Num Peaks:  39
75.5985	10.0
123.0478	40.0
133.09517	20.0
161.02344	70.0
173.26472	10.0
193.08069	30.0
196.04543	20.0
201.28317	30.0
203.11226	30.0
210.15019	20.0
218.09436	20.0
246.08492	70.0
247.09697	60.0
250.15099	40.0
253.05363	20.0
259.13049	20.0
262.08661	10.0
307.12909	10.0
314.13174	20.0
326.11255	20.0
327.12234	10.0
337.14587	20.0
352.08713	20.0
367.12094	20.0
379.19501	60.0
381.08987	10.0
381.22018	50.0
383.17813	20.0
405.10681	20.0
407.18884	110.0
407.82391	20.0
425.19406	260.0
450.99826	20.0
451.17999	760.0
467.24896	10.0
468.54013	20.0
469.10129	10.0
469.18549	1000.0
857.97675	10.0

NAME:  NCGC00385636-01!7-[(2S,3R,4S,5S,6R)-6-[[(2R,3R,4R)-3,4-dihydroxy-4-(hydroxymethyl)oxolan-2-yl]oxymethyl]-3,4,5-trihydroxyoxan-2-yl]oxy-8-methoxy-3-(4-methoxyphenyl)chromen-4-one
PRECURSORMZ:  637.17740825783
PRECURSORTYPE:  [M+FA-H]-
FORMULA:  C28H32O14
Ontology: Kingdom: Organic compounds;Superclass: Phenylpropanoids and polyketides;Class: Isoflavonoids;Subclass: Isoflavonoid O
INCHIKEY:  OLLIISPFUQXHLB-UHFFFAOYNA-N
SMILES:  COC1=CC=C(C=C1)C1=COC2=C(C=CC(OC3OC(COC4OCC(O)(CO)C4O)C(O)C(O)C3O)=C2OC)C1=O
RETENTIONTIME:  
CCS:  -1
IONMODE:  Negative
INSTRUMENTTYPE:  
INSTRUMENT:  Maxis II HD Q-TOF Bruker
COLLISIONENERGY:  
Comment:  DB#=CCMSLIB00000845869; origin=GNPS
Num Peaks:  5
239.03358	30.0
267.02899	60.0
282.05292	680.0
297.07663	1000.0
298.08624	20.0

NAME:  NCGC00380483-02!2-[4,5-dihydroxy-2-(hydroxymethyl)-10-oxo-9-[3,4,5-trihydroxy-6-(hydroxymethyl)oxan-2-yl]anthracen-9-yl]-1,8,10-trihydroxy-6-(hydroxymethyl)-10-[3,4,5-trihydroxy-6-(hydroxymethyl)oxan-2-yl]anthracen-9-one
PRECURSORMZ:  895.23023167983
PRECURSORTYPE:  [M+FA-H]-
FORMULA:  C42H42O19
Ontology: Kingdom: Organic compounds;Superclass: Benzenoids;Class: Anthracenes;
INCHIKEY:  XVYHBBAKYWDFRE-UHFFFAOYNA-N
SMILES:  OCC1OC(C(O)C(O)C1O)C1(O)C2=C(C(O)=C(C=C2)C2(C3OC(CO)C(O)C(O)C3O)C3=C(C(O)=CC=C3)C(=O)C3=C2C=C(CO)C=C3O)C(=O)C2=C1C=C(CO)C=C2O
RETENTIONTIME:  
CCS:  -1
IONMODE:  Negative
INSTRUMENTTYPE:  
INSTRUMENT:  Maxis II HD Q-TOF Bruker
COLLISIONENERGY:  
Comment:  DB#=CCMSLIB00000845871; origin=GNPS
Num Peaks:  14
255.05995	10.0
269.04739	40.0
285.0408	20.0
493.11597	10.0
505.0929	100.0
506.10416	20.0
523.10492	1000.0
524.10895	160.0
525.117	20.0
543.95276	10.0
686.16388	560.0
687.17932	100.0
849.23254	120.0
850.23779	30.0

NAME:  NCGC00380425-01!1-(3,5-dihydroxyphenyl)-12-hydroxytridecan-2-one
PRECURSORMZ:  367.21261199383
PRECURSORTYPE:  [M+FA-H]-
FORMULA:  C19H30O4
Ontology: Kingdom: Organic compounds;Superclass: Lipids and lipid;Class: Fatty Acyls;Subclass: Fatty alcohols
INCHIKEY:  LPIOEJKQFMDVFS-UHFFFAOYNA-N
SMILES:  CC(O)CCCCCCCCCC(=O)CC1=CC(O)=CC(O)=C1
RETENTIONTIME:  
CCS:  -1
IONMODE:  Negative
INSTRUMENTTYPE:  
INSTRUMENT:  Maxis II HD Q-TOF Bruker
COLLISIONENERGY:  
Comment:  DB#=CCMSLIB00000845875; origin=GNPS
Num Peaks:  4
123.04527	20.0
283.94858	40.0
321.20908	1000.0
1565.82874	40.0

NAME:  NCGC00380428-01!4-hydroxy-5-methyl-3-[2-methyl-1-(4-methyl-5-oxooxolan-2-yl)but-3-en-2-yl]chromen-2-one
PRECURSORMZ:  387.14492635583
PRECURSORTYPE:  [M+FA-H]-
FORMULA:  C20H22O5
Ontology: Kingdom: Organic compounds;Superclass: Phenylpropanoids and polyketides;Class: Coumarins and derivatives;Subclass: Hydroxycoumarins
INCHIKEY:  VKRXLYDRMJTDGD-UHFFFAOYNA-N
SMILES:  CC1CC(CC(C)(C=C)C2=C(O)C3=C(C)C=CC=C3OC2=O)OC1=O
RETENTIONTIME:  
CCS:  -1
IONMODE:  Negative
INSTRUMENTTYPE:  
INSTRUMENT:  Maxis II HD Q-TOF Bruker
COLLISIONENERGY:  
Comment:  DB#=CCMSLIB00000845878; origin=GNPS
Num Peaks:  10
185.09772	70.0
211.07037	50.0
228.07874	70.0
229.09015	180.0
234.06409	50.0
241.12834	50.0
253.12103	30.0
253.15541	70.0
297.1449	50.0
341.13858	1000.0

NAME:  NCGC00347508-02!4-[2-[[2,3-dihydroxy-2-(1-hydroxyethyl)butanoyl]oxymethyl]anilino]-4-oxobutanoic acid
PRECURSORMZ:  368.13509025283
PRECURSORTYPE:  [M-H]-
FORMULA:  C17H23NO8
Ontology: ;;;
INCHIKEY:  DNDACVRMGDHDQY-UHFFFAOYNA-N
SMILES:  CC(O)C(O)(C(C)O)C(=O)OCC1=CC=CC=C1N=C(O)CCC(O)=O
RETENTIONTIME:  
CCS:  -1
IONMODE:  Negative
INSTRUMENTTYPE:  
INSTRUMENT:  Maxis II HD Q-TOF Bruker
COLLISIONENERGY:  
Comment:  DB#=CCMSLIB00000845879; origin=GNPS
Num Peaks:  3
101.02637	90.0
163.06047	1000.0
222.08461	60.0

NAME:  NCGC00380476-01!5,7-dihydroxy-2-(4-hydroxyphenyl)-6-[3,4,5-trihydroxy-6-(hydroxymethyl)oxan-2-yl]-2,3-dihydrochromen-4-one
PRECURSORMZ:  433.11402045583
PRECURSORTYPE:  [M-H]-
FORMULA:  C21H22O10
Ontology: Kingdom: Organic compounds;Superclass: Phenylpropanoids and polyketides;Class: Flavonoids;Subclass: Flavonoid glycosides
INCHIKEY:  QKPKGDDHOGIEOO-UHFFFAOYNA-N
SMILES:  OCC1OC(C(O)C(O)C1O)C1=C(O)C2=C(OC(CC2=O)C2=CC=C(O)C=C2)C=C1O
RETENTIONTIME:  
CCS:  205.725471
IONMODE:  Negative
INSTRUMENTTYPE:  
INSTRUMENT:  Maxis II HD Q-TOF Bruker
COLLISIONENERGY:  
Comment:  DB#=CCMSLIB00000845882; origin=GNPS
Num Peaks:  22
77.95181	50.0
119.05346	90.0
125.02539	50.0
135.04346	40.0
147.00676	40.0
164.00798	30.0
165.01378	30.0
185.06299	30.0
186.65656	40.0
193.00586	10.0
203.0719	40.0
209.04359	30.0
223.02167	30.0
227.06812	30.0
263.08621	30.0
311.10327	40.0
313.07083	1000.0
325.09448	10.0
343.08511	170.0
415.11337	50.0
433.10712	150.0
631.23181	30.0

NAME:  NCGC00380483-01!2-[4,5-dihydroxy-2-(hydroxymethyl)-10-oxo-9-[3,4,5-trihydroxy-6-(hydroxymethyl)oxan-2-yl]anthracen-9-yl]-1,8,10-trihydroxy-6-(hydroxymethyl)-10-[3,4,5-trihydroxy-6-(hydroxymethyl)oxan-2-yl]anthracen-9-one
PRECURSORMZ:  895.23023167983
PRECURSORTYPE:  [M+FA-H]-
FORMULA:  C42H42O19
Ontology: Kingdom: Organic compounds;Superclass: Benzenoids;Class: Anthracenes;
INCHIKEY:  XVYHBBAKYWDFRE-UHFFFAOYNA-N
SMILES:  OCC1OC(C(O)C(O)C1O)C1(O)C2=C(C(O)=C(C=C2)C2(C3OC(CO)C(O)C(O)C3O)C3=C(C(O)=CC=C3)C(=O)C3=C2C=C(CO)C=C3O)C(=O)C2=C1C=C(CO)C=C2O
RETENTIONTIME:  
CCS:  -1
IONMODE:  Negative
INSTRUMENTTYPE:  
INSTRUMENT:  Maxis II HD Q-TOF Bruker
COLLISIONENERGY:  
Comment:  DB#=CCMSLIB00000845883; origin=GNPS
Num Peaks:  12
269.04523	10.0
487.0856	30.0
494.09985	30.0
505.09265	120.0
523.10474	1000.0
524.10889	150.0
525.10907	10.0
686.16687	620.0
687.17029	140.0
688.18109	10.0
849.22308	120.0
850.2204	40.0

NAME:  NCGC00384883-01!(2S,3R,4S,5S,6R)-2-[(2R,3R,4S,5S,6R)-4,5-dihydroxy-6-(hydroxymethyl)-2-(3-hydroxy-6-methylheptoxy)oxan-3-yl]oxy-6-(hydroxymethyl)oxane-3,4,5-triol
PRECURSORMZ:  515.23452921183
PRECURSORTYPE:  [M+FA-H]-
FORMULA:  C20H38O12
Ontology: Kingdom: Organic compounds;Superclass: Lipids and lipid;Class: Fatty Acyls;Subclass: Fatty acyl glycosides
INCHIKEY:  OCLJUQSRRLIINU-UHFFFAOYNA-N
SMILES:  CC(C)CCC(O)CCOC1OC(CO)C(O)C(O)C1OC1OC(CO)C(O)C(O)C1O
RETENTIONTIME:  
CCS:  -1
IONMODE:  Negative
INSTRUMENTTYPE:  
INSTRUMENT:  Maxis II HD Q-TOF Bruker
COLLISIONENERGY:  
Comment:  DB#=CCMSLIB00000845888; origin=GNPS
Num Peaks:  8
95.01529	80.0
101.0275	200.0
113.02807	90.0
161.04745	150.0
221.06151	10.0
231.24689	30.0
307.17834	890.0
469.2309	1000.0

NAME:  NCGC00384882-01!(2R)-2-[(E)-3-[3-[(1R)-1-carboxy-2-(3,4-dihydroxyphenyl)ethoxy]carbonyl-2-(3,4-dihydroxyphenyl)-7-hydroxy-1-benzofuran-5-yl]prop-2-enoyl]oxy-3-(3,4-dihydroxyphenyl)propanoic acid
PRECURSORMZ:  715.13045836983
PRECURSORTYPE:  [M-H]-
FORMULA:  C36H28O16
Ontology: Kingdom: Organic compounds;Superclass: Phenylpropanoids and polyketides;;
INCHIKEY:  KROVXXIIXUFKOO-UHFFFAOYNA-N
SMILES:  OC(=O)C(CC1=CC(O)=C(O)C=C1)OC(=O)C=CC1=CC2=C(OC(=C2C(=O)OC(CC2=CC(O)=C(O)C=C2)C(O)=O)C2=CC(O)=C(O)C=C2)C(O)=C1
RETENTIONTIME:  
CCS:  285.3101598
IONMODE:  Negative
INSTRUMENTTYPE:  
INSTRUMENT:  Maxis II HD Q-TOF Bruker
COLLISIONENERGY:  
Comment:  DB#=CCMSLIB00000845890; origin=GNPS
Num Peaks:  22
107.05164	20.0
134.03918	40.0
135.04634	380.0
179.03487	90.0
180.04114	20.0
182.84592	20.0
197.04736	20.0
237.0562	20.0
239.06891	20.0
247.03937	20.0
267.0668	60.0
281.06354	20.0
293.04672	60.0
311.05765	1000.0
312.06055	40.0
337.03488	30.0
355.04388	40.0
491.10266	190.0
517.08356	30.0
535.09064	470.0
536.09784	40.0
715.12543	70.0

NAME:  NCGC00384881-01!(3S,5R,8R,10R,13R,14S,17R)-3-[5-[(2S,3R,4R,5S,6R)-3,4-dihydroxy-6-(hydroxymethyl)-5-[(2S,3R,4S,5S,6R)-3,4,5-trihydroxy-6-(hydroxymethyl)oxan-2-yl]oxyoxan-2-yl]oxy-4-methoxy-6-methyloxan-2-yl]oxy-14-hydroxy-13-methyl-17-(5-oxo-2H-furan-3-yl)-1,2,3,4,5,6,7,8,9,11,12,15,16,17-tetradecahydrocyclopenta[a]phenanthrene-10-carbaldehyde
PRECURSORMZ:  901.40746776883
PRECURSORTYPE:  [M+FA-H]-
FORMULA:  C42H64O18
Ontology: Kingdom: Organic compounds;Superclass: Lipids and lipid;Class: Steroids and steroid derivatives;Subclass: Steroid lactones
INCHIKEY:  SETOMNSAVMFIPE-UHFFFAOYNA-N
SMILES:  COC1CC(OC2CCC3(C=O)C(CCC4C3CCC3(C)C(CCC43O)C3=CC(=O)OC3)C2)OC(C)C1OC1OC(CO)C(OC2OC(CO)C(O)C(O)C2O)C(O)C1O
RETENTIONTIME:  
CCS:  -1
IONMODE:  Negative
INSTRUMENTTYPE:  
INSTRUMENT:  Maxis II HD Q-TOF Bruker
COLLISIONENERGY:  
Comment:  DB#=CCMSLIB00000845892; origin=GNPS
Num Peaks:  34
71.0141	10.0
85.03223	30.0
89.0241	10.0
97.03068	30.0
99.01013	20.0
101.02884	80.0
111.04546	50.0
113.02418	100.0
119.03666	30.0
143.03297	10.0
159.03082	30.0
161.04716	160.0
162.05034	30.0
178.05519	10.0
179.05779	90.0
295.21344	30.0
323.09995	10.0
325.21774	20.0
359.22379	10.0
387.22049	70.0
388.22311	20.0
423.76007	10.0
487.3107	20.0
531.3031	320.0
532.30725	40.0
675.31158	10.0
675.35309	20.0
693.35126	220.0
694.36731	30.0
854.58929	10.0
855.12988	10.0
855.40338	1000.0
856.40729	240.0
857.41248	30.0

NAME:  NCGC00380998-01![3,4-dihydroxy-5-[2-methylidene-4-[(2R,3R,4S,5S,6R)-3,4,5-trihydroxy-6-[[2-methylidene-4-[(2R,3R,4S,5S,6R)-3,4,5-trihydroxy-6-[(4-hydroxy-2-methylidenebutanoyl)oxymethyl]oxan-2-yl]oxybutanoyl]oxymethyl]oxan-2-yl]oxybutanoyl]oxyoxan-2-yl]methyl 4-hydroxy-2-methylidenebutanoate
PRECURSORMZ:  925.31944061083
PRECURSORTYPE:  [M+FA-H]-
FORMULA:  C38H56O23
Ontology: Kingdom: Organic compounds;Superclass: Lipids and lipid;Class: Saccharolipids;
INCHIKEY:  AEUAVVIPDJTEFS-UHFFFAOYNA-N
SMILES:  OCCC(=C)C(=O)OCC1OCC(OC(=O)C(=C)CCOC2OC(COC(=O)C(=C)CCOC3OC(COC(=O)C(=C)CCO)C(O)C(O)C3O)C(O)C(O)C2O)C(O)C1O
RETENTIONTIME:  
CCS:  -1
IONMODE:  Negative
INSTRUMENTTYPE:  
INSTRUMENT:  Maxis II HD Q-TOF Bruker
COLLISIONENERGY:  
Comment:  DB#=CCMSLIB00000845893; origin=GNPS
Num Peaks:  22
71.01421	20.0
89.0249	50.0
97.02955	70.0
101.02328	80.0
113.02486	100.0
115.03901	190.0
119.03539	90.0
131.03397	10.0
143.03267	30.0
149.04507	20.0
161.04256	70.0
163.0594	160.0
179.05331	120.0
259.08188	1000.0
260.08331	100.0
277.09164	750.0
278.09564	60.0
423.14966	310.0
424.15698	20.0
519.17389	60.0
537.17682	30.0
683.23755	20.0

NAME:  NCGC00381054-01!(2E,4E)-12-[(10E,12E)-13-carboxy-3-[(2E,4E)-13-carboxy-12,14-dihydroxy-3,5,7-trimethyltetradeca-2,4-dienoyl]oxy-2-(hydroxymethyl)-8,10,12-trimethyltrideca-10,12-dienoyl]oxy-13-(hydroxymethyl)-3,5,7-trimethyltetradeca-2,4-dienedioic acid
PRECURSORMZ:  989.58431023683
PRECURSORTYPE:  [M-H]-
FORMULA:  C54H86O16
Ontology: ;;;
INCHIKEY:  PQTARGHEXNJCRK-UHFFFAOYNA-N
SMILES:  CC(CCCCC(O)C(CO)C(O)=O)CC(C)=CC(C)=CC(=O)OC(CCCCC(C)CC(C)=CC(C)=CC(O)=O)C(CO)C(=O)OC(CCCCC(C)CC(C)=CC(C)=CC(O)=O)C(CO)C(O)=O
RETENTIONTIME:  
CCS:  -1
IONMODE:  Negative
INSTRUMENTTYPE:  
INSTRUMENT:  Maxis II HD Q-TOF Bruker
COLLISIONENERGY:  
Comment:  DB#=CCMSLIB00000845896; origin=GNPS
Num Peaks:  24
71.01659	10.0
89.02373	20.0
207.177	60.0
208.17706	10.0
217.19719	10.0
233.18913	20.0
235.20236	20.0
249.18556	80.0
251.16469	140.0
261.18649	10.0
279.19534	250.0
280.20218	20.0
293.17487	10.0
297.20645	20.0
311.19131	20.0
323.18616	80.0
324.19165	10.0
339.18222	30.0
341.19638	1000.0
342.19867	130.0
603.39032	20.0
647.38104	20.0
665.39435	130.0
989.59387	30.0

NAME:  NCGC00347602-02!1,3,7-trihydroxy-6-methoxy-4,5-bis(3-methylbut-2-enyl)xanthen-9-one
PRECURSORMZ:  409.16566210483
PRECURSORTYPE:  [M-H]-
FORMULA:  C24H26O6
Ontology: Kingdom: Organic compounds;Superclass: Organoheterocyclic compounds;Class: Benzopyrans;
INCHIKEY:  CJBZJZGULKATPY-UHFFFAOYSA-N
SMILES:  COC1=C(O)C=C2C(=O)C3=C(O)C=C(O)C(CC=C(C)C)=C3OC2=C1CC=C(C)C
RETENTIONTIME:  
CCS:  215.763514
IONMODE:  Negative
INSTRUMENTTYPE:  
INSTRUMENT:  Maxis II HD Q-TOF Bruker
COLLISIONENERGY:  
Comment:  DB#=CCMSLIB00000845898; origin=GNPS
Num Peaks:  13
170.82457	90.0
191.79698	130.0
271.02994	110.0
295.0311	80.0
311.09213	140.0
339.08606	500.0
351.08905	450.0
362.1395	130.0
363.51022	30.0
365.21378	60.0
377.14621	140.0
394.14078	310.0
409.1698	1000.0

NAME:  NCGC00169705-02!(2R)-8-[(2R,3S)-5,7-dihydroxy-2-(4-hydroxyphenyl)-4-oxo-2,3-dihydrochromen-3-yl]-5,7-dihydroxy-2-(4-hydroxyphenyl)-2,3-dihydrochromen-4-one
PRECURSORMZ:  541.11402045583
PRECURSORTYPE:  [M-H]-
FORMULA:  C30H22O10
Ontology: Kingdom: Organic compounds;Superclass: Phenylpropanoids and polyketides;Class: Flavonoids;Subclass: Biflavonoids and polyflavonoids
INCHIKEY:  MXEIKUWMKSYEII-UHFFFAOYNA-N
SMILES:  OC1=CC=C(C=C1)C1CC(=O)C2=C(O1)C(C1C(OC3=CC(O)=CC(O)=C3C1=O)C1=CC=C(O)C=C1)=C(O)C=C2O
RETENTIONTIME:  
CCS:  239.0552203
IONMODE:  Negative
INSTRUMENTTYPE:  
INSTRUMENT:  Maxis II HD Q-TOF Bruker
COLLISIONENERGY:  
Comment:  DB#=CCMSLIB00000845899; origin=GNPS
Num Peaks:  29
125.02471	240.0
151.00424	310.0
199.03653	20.0
203.11461	30.0
203.96495	30.0
209.20422	40.0
210.60678	30.0
241.02373	30.0
267.03146	20.0
267.06461	20.0
269.04562	90.0
271.06107	30.0
283.03088	20.0
295.0246	280.0
296.03467	70.0
301.03195	40.0
308.03568	30.0
310.04883	20.0
321.04306	30.0
361.0589	40.0
389.1076	160.0
395.07944	30.0
412.0708	10.0
415.08356	1000.0
434.05164	20.0
435.07657	50.0
447.04529	10.0
447.08051	10.0
541.12061	170.0

NAME:  NCGC00385337-01!2-(3,4-dihydroxyphenyl)-5-hydroxy-7-[(2S,3R,4S,5S,6R)-3,4,5-trihydroxy-6-[[(2R,3R,4R,5R,6S)-3,4,5-trihydroxy-6-methyloxan-2-yl]oxymethyl]oxan-2-yl]oxychromen-4-one
PRECURSORMZ:  593.15119381383
PRECURSORTYPE:  [M-H]-
FORMULA:  C27H30O15
Ontology: ;;;
INCHIKEY:  MGYBYJXAXUBTQF-UHFFFAOYNA-N
SMILES:  CC1OC(OCC2OC(OC3=CC(O)=C4C(=O)C=C(OC4=C3)C3=CC(O)=C(O)C=C3)C(O)C(O)C2O)C(O)C(O)C1O
RETENTIONTIME:  
CCS:  278.2810965
IONMODE:  Negative
INSTRUMENTTYPE:  
INSTRUMENT:  Maxis II HD Q-TOF Bruker
COLLISIONENERGY:  
Comment:  DB#=CCMSLIB00000845902; origin=GNPS
Num Peaks:  7
283.16418	20.0
284.03326	160.0
285.04044	770.0
297.09216	20.0
590.31586	10.0
593.15326	1000.0
597.63763	10.0

NAME:  NCGC00380959-01![(2R,3S,4S,5R,6S)-3,4,5-trihydroxy-6-[(2S,3R,4S,5S,6R)-3,4,5-trihydroxy-6-(hydroxymethyl)oxan-2-yl]oxyoxan-2-yl]methyl 8-methylnonanoate
PRECURSORMZ:  541.25017927583
PRECURSORTYPE:  [M+FA-H]-
FORMULA:  C22H40O12
Ontology: Kingdom: Organic compounds;Superclass: Lipids and lipid;Class: Saccharolipids;
INCHIKEY:  QEGXBXBKQLQOHP-UHFFFAOYNA-N
SMILES:  CC(C)CCCCCCC(=O)OCC1OC(OC2OC(CO)C(O)C(O)C2O)C(O)C(O)C1O
RETENTIONTIME:  
CCS:  -1
IONMODE:  Negative
INSTRUMENTTYPE:  
INSTRUMENT:  Maxis II HD Q-TOF Bruker
COLLISIONENERGY:  
Comment:  DB#=CCMSLIB00000845904; origin=GNPS
Num Peaks:  14
101.02171	70.0
131.02754	30.0
143.03651	90.0
161.0443	20.0
171.13863	950.0
171.32532	10.0
185.15427	60.0
236.32819	10.0
249.0679	20.0
323.09702	1000.0
341.10916	70.0
495.24466	200.0
541.26013	40.0
785.88037	10.0

NAME:  NCGC00381058-01![3-hydroxy-1-[3-hydroxy-1-oxo-1-(2,3,4,5,6-pentahydroxyhexoxy)decan-5-yl]oxy-1-oxodecan-5-yl] 3,5-dihydroxydecanoate
PRECURSORMZ:  785.45402403783
PRECURSORTYPE:  [M+FA-H]-
FORMULA:  C36H68O15
Ontology: Kingdom: Organic compounds;Superclass: Organic acids and derivatives;Class: Carboxylic acids and derivatives;Subclass: Tricarboxylic acids and derivatives
INCHIKEY:  VVUAHGLHHLVKDR-UHFFFAOYNA-N
SMILES:  CCCCCC(O)CC(O)CC(=O)OC(CCCCC)CC(O)CC(=O)OC(CCCCC)CC(O)CC(=O)OCC(O)C(O)C(O)C(O)CO
RETENTIONTIME:  
CCS:  -1
IONMODE:  Negative
INSTRUMENTTYPE:  
INSTRUMENT:  Maxis II HD Q-TOF Bruker
COLLISIONENERGY:  
Comment:  DB#=CCMSLIB00000845906; origin=GNPS
Num Peaks:  13
163.06093	80.0
167.10809	10.0
181.0705	270.0
185.11604	180.0
203.12782	1000.0
204.13071	20.0
223.08232	20.0
245.14015	30.0
271.1517	20.0
353.229	20.0
371.242	50.0
372.2439	10.0
389.25192	70.0

NAME:  NCGC00380958-01!2-[[2-[2-[2-[2-[[2-[2-(2-hydroxypropanoylamino)-3-methylbutanoyl]oxy-3-methylbutanoyl]amino]-3-methylbutanoyl]oxypropanoylamino]-3-methylbutanoyl]oxy-3-methylbutanoyl]amino]-3-methylbutanoic acid
PRECURSORMZ:  757.42406161983
PRECURSORTYPE:  [M-H]-
FORMULA:  C36H62N4O13
Ontology: Kingdom: Organic compounds;Superclass: Organic acids and derivatives;Class: Carboxylic acids and derivatives;Subclass: Amino acids
INCHIKEY:  PGRWPWIGJLNDHN-UHFFFAOYNA-N
SMILES:  CC(C)C(OC(=O)C(N=C(O)C(C)OC(=O)C(N=C(O)C(OC(=O)C(N=C(O)C(C)O)C(C)C)C(C)C)C(C)C)C(C)C)C(O)=NC(C(C)C)C(O)=O
RETENTIONTIME:  
CCS:  -1
IONMODE:  Negative
INSTRUMENTTYPE:  
INSTRUMENT:  Maxis II HD Q-TOF Bruker
COLLISIONENERGY:  
Comment:  DB#=CCMSLIB00000845908; origin=GNPS
Num Peaks:  18
116.0707	90.0
144.1004	60.0
170.08403	30.0
170.11298	10.0
172.13313	100.0
188.09166	900.0
198.10901	10.0
216.12286	1000.0
217.12877	20.0
315.19226	20.0
387.21399	300.0
388.21823	20.0
540.29041	20.0
558.30463	110.0
586.33795	100.0
685.40472	10.0
757.42438	560.0
758.43036	60.0

NAME:  NCGC00380958-01!2-[[2-[2-[2-[2-[[2-[2-(2-hydroxypropanoylamino)-3-methylbutanoyl]oxy-3-methylbutanoyl]amino]-3-methylbutanoyl]oxypropanoylamino]-3-methylbutanoyl]oxy-3-methylbutanoyl]amino]-3-methylbutanoic acid
PRECURSORMZ:  793.4007393319
PRECURSORTYPE:  [M+Cl]-
FORMULA:  C36H62N4O13
Ontology: Kingdom: Organic compounds;Superclass: Organic acids and derivatives;Class: Carboxylic acids and derivatives;Subclass: Amino acids
INCHIKEY:  PGRWPWIGJLNDHN-UHFFFAOYNA-N
SMILES:  CC(C)C(OC(=O)C(N=C(O)C(C)OC(=O)C(N=C(O)C(OC(=O)C(N=C(O)C(C)O)C(C)C)C(C)C)C(C)C)C(C)C)C(O)=NC(C(C)C)C(O)=O
RETENTIONTIME:  
CCS:  -1
IONMODE:  Negative
INSTRUMENTTYPE:  
INSTRUMENT:  Maxis II HD Q-TOF Bruker
COLLISIONENERGY:  
Comment:  DB#=CCMSLIB00000845910; origin=GNPS
Num Peaks:  17
70.91112	50.0
172.13087	90.0
185.4026	30.0
188.09114	1000.0
189.08868	70.0
216.12123	650.0
387.21579	380.0
558.28613	60.0
558.32556	60.0
586.31268	70.0
685.39081	50.0
757.44202	560.0
757.52234	40.0
758.41931	40.0
1070.93628	30.0
1995.72437	160.0
2003.61121	20.0

NAME:  NCGC00347589-02![(2S,3R,4S,5S,6R)-4,5-dihydroxy-2-[2-(1-hydroxy-4-oxocyclohexa-2,5-dien-1-yl)acetyl]oxy-6-[[2-(1-hydroxy-4-oxocyclohexa-2,5-dien-1-yl)acetyl]oxymethyl]oxan-3-yl] 2-phenylacetate
PRECURSORMZ:  643.16684357383
PRECURSORTYPE:  [M+FA-H]-
FORMULA:  C30H30O13
Ontology: Kingdom: Organic compounds;Superclass: Lipids and lipid;Class: Saccharolipids;
INCHIKEY:  AIFVFVGRWAMEBM-UHFFFAOYNA-N
SMILES:  OC1C(O)C(OC(=O)CC2=CC=CC=C2)C(OC(=O)CC2(O)C=CC(=O)C=C2)OC1COC(=O)CC1(O)C=CC(=O)C=C1
RETENTIONTIME:  
CCS:  -1
IONMODE:  Negative
INSTRUMENTTYPE:  
INSTRUMENT:  Maxis II HD Q-TOF Bruker
COLLISIONENERGY:  
Comment:  DB#=CCMSLIB00000845912; origin=GNPS
Num Peaks:  36
91.05801	50.0
93.03224	10.0
108.02602	40.0
113.02551	20.0
117.03664	40.0
119.05054	20.0
121.03094	40.0
123.0473	30.0
131.05373	10.0
135.04414	20.0
143.03792	40.0
144.05798	10.0
147.04279	20.0
148.01881	20.0
149.02533	1000.0
149.06389	40.0
150.02753	10.0
155.03558	10.0
159.04733	150.0
161.04672	30.0
167.03592	100.0
187.07838	20.0
189.0639	20.0
191.03668	60.0
192.0462	10.0
201.0417	10.0
203.04179	10.0
207.06985	10.0
209.04935	10.0
221.04469	10.0
227.06873	20.0
236.08983	10.0
255.07367	20.0
261.07455	40.0
279.09705	20.0
281.04773	10.0

NAME:  NCGC00381126-01!6,7-bis(hydroxymethyl)-1-methoxy-8-(3,4,5-trimethoxyphenyl)-5,6,7,8-tetrahydronaphthalene-2,3-diol
PRECURSORMZ:  465.17662040983
PRECURSORTYPE:  [M+FA-H]-
FORMULA:  C22H28O8
Ontology: Kingdom: Organic compounds;Superclass: Lignans;Class: Aryltetralin lignans;
INCHIKEY:  GTTIZNSGYQWIRL-UHFFFAOYNA-N
SMILES:  COC1=CC(=CC(OC)=C1OC)C1C(CO)C(CO)CC2=CC(O)=C(O)C(OC)=C12
RETENTIONTIME:  
CCS:  -1
IONMODE:  Negative
INSTRUMENTTYPE:  
INSTRUMENT:  Maxis II HD Q-TOF Bruker
COLLISIONENERGY:  
Comment:  DB#=CCMSLIB00000845914; origin=GNPS
Num Peaks:  21
184.03586	40.0
186.62798	20.0
191.07047	40.0
205.04269	40.0
221.07719	40.0
301.04382	30.0
328.05725	20.0
344.095	30.0
357.10089	40.0
358.10855	80.0
358.14859	40.0
359.1066	70.0
373.13712	110.0
389.12094	80.0
402.1362	20.0
404.14236	230.0
408.26489	40.0
419.17075	1000.0
419.50485	30.0
464.09485	30.0
465.0968	30.0

NAME:  NCGC00385781-01!(2R,3R)-6-[(2E)-3,7-dimethylocta-2,6-dienyl]-3,5,7-trihydroxy-2-(4-hydroxyphenyl)-2,3-dihydrochromen-4-one
PRECURSORMZ:  423.18131216983
PRECURSORTYPE:  [M-H]-
FORMULA:  C25H28O6
Ontology: ;;;
INCHIKEY:  WCWOWFQELCQQCI-UHFFFAOYNA-N
SMILES:  CC(C)=CCCC(C)=CCC1=C(O)C2=C(OC(C(O)C2=O)C2=CC=C(O)C=C2)C=C1O
RETENTIONTIME:  
CCS:  234.0532353
IONMODE:  Negative
INSTRUMENTTYPE:  
INSTRUMENT:  Maxis II HD Q-TOF Bruker
COLLISIONENERGY:  
Comment:  DB#=CCMSLIB00000845916; origin=GNPS
Num Peaks:  9
121.02868	90.0
133.0294	90.0
175.00145	150.0
219.06575	80.0
261.1532	380.0
395.18973	820.0
395.59079	130.0
423.1395	190.0
423.18265	1000.0

NAME:  NCGC00385782-01!(2R,3R)-2-(3,4-dihydroxyphenyl)-3,5,7-trihydroxy-6-[(3R,4R,5S,6R)-3,4,5-trihydroxy-6-(hydroxymethyl)oxan-2-yl]-2,3-dihydrochromen-4-one
PRECURSORMZ:  465.10384969583
PRECURSORTYPE:  [M-H]-
FORMULA:  C21H22O12
Ontology: Kingdom: Organic compounds;Superclass: Phenylpropanoids and polyketides;Class: Flavonoids;Subclass: Flavonoid glycosides
INCHIKEY:  OSFCFXQMAHURHU-UHFFFAOYNA-N
SMILES:  OCC1OC(C(O)C(O)C1O)C1=C(O)C2=C(OC(C(O)C2=O)C2=CC(O)=C(O)C=C2)C=C1O
RETENTIONTIME:  
CCS:  218.8886485
IONMODE:  Negative
INSTRUMENTTYPE:  
INSTRUMENT:  Maxis II HD Q-TOF Bruker
COLLISIONENERGY:  
Comment:  DB#=CCMSLIB00000845917; origin=GNPS
Num Peaks:  39
99.05441	110.0
100.72972	30.0
101.02183	20.0
125.0281	330.0
137.02679	80.0
139.03693	100.0
149.02202	100.0
150.6436	80.0
151.04292	120.0
161.02069	110.0
165.01355	180.0
166.02707	20.0
167.03261	160.0
173.5081	20.0
175.03395	70.0
177.01515	190.0
178.99443	70.0
191.04503	90.0
193.01172	90.0
197.04492	30.0
205.01141	40.0
215.07195	80.0
217.01306	70.0
217.06834	160.0
219.04562	110.0
221.00644	320.0
227.06239	120.0
297.04904	60.0
301.06558	70.0
303.05466	200.0
317.06088	90.0
327.04807	220.0
345.06226	1000.0
347.08237	140.0
357.05701	40.0
359.08514	100.0
375.07465	650.0
447.09045	200.0
465.11432	140.0

NAME:  NCGC00385782-01!(2R,3R)-2-(3,4-dihydroxyphenyl)-3,5,7-trihydroxy-6-[(3R,4R,5S,6R)-3,4,5-trihydroxy-6-(hydroxymethyl)oxan-2-yl]-2,3-dihydrochromen-4-one
PRECURSORMZ:  447.09328501583
PRECURSORTYPE:  [M-H2O-H]-
FORMULA:  C21H22O12
Ontology: Kingdom: Organic compounds;Superclass: Phenylpropanoids and polyketides;Class: Flavonoids;Subclass: Flavonoid glycosides
INCHIKEY:  OSFCFXQMAHURHU-UHFFFAOYNA-N
SMILES:  OCC1OC(C(O)C(O)C1O)C1=C(O)C2=C(OC(C(O)C2=O)C2=CC(O)=C(O)C=C2)C=C1O
RETENTIONTIME:  
CCS:  -1
IONMODE:  Negative
INSTRUMENTTYPE:  
INSTRUMENT:  Maxis II HD Q-TOF Bruker
COLLISIONENERGY:  
Comment:  DB#=CCMSLIB00000845919; origin=GNPS
Num Peaks:  10
151.00195	200.0
177.0172	150.0
227.0296	370.0
255.0289	270.0
256.03696	190.0
284.0314	730.0
285.03754	640.0
446.57501	200.0
447.0845	1000.0
448.11163	220.0

NAME:  NCGC00168943-02![(2R,3S,4S,5R,6S)-6-[2-(3,4-dihydroxyphenyl)-5,7-dihydroxy-4-oxochromen-3-yl]oxy-3,4,5-trihydroxyoxan-2-yl]methyl acetate
PRECURSORMZ:  505.09876431583
PRECURSORTYPE:  [M-H]-
FORMULA:  C23H22O13
Ontology: Kingdom: Organic compounds;Superclass: Phenylpropanoids and polyketides;Class: Flavonoids;Subclass: Flavonoid glycosides
INCHIKEY:  IGLUNMMNDNWZOA-UHFFFAOYNA-N
SMILES:  CC(=O)OCC1OC(OC2=C(OC3=CC(O)=CC(O)=C3C2=O)C2=CC(O)=C(O)C=C2)C(O)C(O)C1O
RETENTIONTIME:  
CCS:  231.0965869
IONMODE:  Negative
INSTRUMENTTYPE:  
INSTRUMENT:  Maxis II HD Q-TOF Bruker
COLLISIONENERGY:  
Comment:  DB#=CCMSLIB00000845921; origin=GNPS
Num Peaks:  16
79.0767	30.0
148.01135	40.0
151.00327	20.0
151.48589	40.0
172.0538	40.0
203.0367	20.0
207.0258	30.0
255.03273	100.0
269.43484	20.0
271.02634	150.0
300.02792	1000.0
301.03717	150.0
379.07327	40.0
463.099	60.0
505.09738	690.0
509.16641	30.0

NAME:  NCGC00380917-01!5,7-dihydroxy-2-(2-methylpropyl)-8-[(2S,3R,4R,5S,6R)-3,4,5-trihydroxy-6-(hydroxymethyl)oxan-2-yl]chromen-4-one
PRECURSORMZ:  395.13475590083
PRECURSORTYPE:  [M-H]-
FORMULA:  C19H24O9
Ontology: Kingdom: Organic compounds;Superclass: Organic oxygen compounds;Class: Organooxygen compounds;Subclass: Carbohydrates and carbohydrate conjugates
INCHIKEY:  NZMMULPLBZWYSX-UHFFFAOYNA-N
SMILES:  CC(C)CC1=CC(=O)C2=C(O1)C(C1OC(CO)C(O)C(O)C1O)=C(O)C=C2O
RETENTIONTIME:  
CCS:  -1
IONMODE:  Negative
INSTRUMENTTYPE:  
INSTRUMENT:  Maxis II HD Q-TOF Bruker
COLLISIONENERGY:  
Comment:  DB#=CCMSLIB00000845923; origin=GNPS
Num Peaks:  8
142.87433	140.0
147.7298	140.0
204.04062	410.0
208.31378	200.0
247.09271	200.0
275.09702	1000.0
395.13177	800.0
399.50311	90.0

NAME:  NCGC00169202-02!5-chloro-2,4-dihydroxy-6-methyl-3-[(2E,4E)-3-methyl-5-[(1R,2R,6R)-1,2,6-trimethyl-3-oxocyclohexyl]penta-2,4-dienyl]benzaldehyde
PRECURSORMZ:  403.16816064783
PRECURSORTYPE:  [M-H]-
FORMULA:  C23H29ClO4
Ontology: Kingdom: Organic compounds;Superclass: Organic oxygen compounds;Class: Organooxygen compounds;Subclass: Carbonyl compounds
INCHIKEY:  SETVRSKZJJWOPA-UHFFFAOYNA-N
SMILES:  CC1CCC(=O)C(C)C1(C)C=CC(C)=CCC1=C(O)C(Cl)=C(C)C(C=O)=C1O
RETENTIONTIME:  
CCS:  216.3702704
IONMODE:  Negative
INSTRUMENTTYPE:  
INSTRUMENT:  Maxis II HD Q-TOF Bruker
COLLISIONENERGY:  
Comment:  DB#=CCMSLIB00000845925; origin=GNPS
Num Peaks:  6
200.09622	70.0
209.01376	40.0
264.06094	70.0
264.36682	30.0
317.08936	60.0
403.17151	1000.0

NAME:  NCGC00380643-01!3,4,5-trihydroxy-6-[5-hydroxy-2-(4-hydroxy-3-methoxyphenyl)-3-methoxy-4-oxochromen-7-yl]oxyoxane-2-carboxylic acid
PRECURSORMZ:  505.09876431583
PRECURSORTYPE:  [M-H]-
FORMULA:  C23H22O13
Ontology: Kingdom: Organic compounds;Superclass: Phenylpropanoids and polyketides;Class: Flavonoids;Subclass: Flavonoid glycosides
INCHIKEY:  IHGAMZBDEOTTEW-UHFFFAOYNA-N
SMILES:  COC1=C(O)C=CC(=C1)C1=C(OC)C(=O)C2=C(O)C=C(OC3OC(C(O)C(O)C3O)C(O)=O)C=C2O1
RETENTIONTIME:  
CCS:  -1
IONMODE:  Negative
INSTRUMENTTYPE:  
INSTRUMENT:  Maxis II HD Q-TOF Bruker
COLLISIONENERGY:  
Comment:  DB#=CCMSLIB00000845927; origin=GNPS
Num Peaks:  12
99.01025	60.0
117.01997	30.0
175.02693	130.0
202.02599	60.0
243.02147	40.0
271.02649	30.0
299.01517	80.0
314.04584	70.0
329.0683	1000.0
330.05661	40.0
343.07916	40.0
505.12283	60.0

NAME:  NCGC00180261-02!1,11,21-trihydroxy-1,6,11,16,21,26-hexazacyclohentriacontane-2,5,12,15,22,25-hexone
PRECURSORMZ:  571.30970056883
PRECURSORTYPE:  [M-H]-
FORMULA:  C25H44N6O9
Ontology: Kingdom: Organic compounds;Superclass: Phenylpropanoids and polyketides;Class: Macrolactams;
INCHIKEY:  YEUGMACLLZSLDG-UHFFFAOYSA-N
SMILES:  ON1CCCCCN=C(O)CCC(=O)N(O)CCCCN=C(O)CCC(=O)N(O)CCCCN=C(O)CCC1=O
RETENTIONTIME:  
CCS:  -1
IONMODE:  Negative
INSTRUMENTTYPE:  
INSTRUMENT:  Maxis II HD Q-TOF Bruker
COLLISIONENERGY:  
Comment:  DB#=CCMSLIB00000845930; origin=GNPS
Num Peaks:  57
84.95388	20.0
94.02662	40.0
94.49737	20.0
97.04318	40.0
98.02474	390.0
101.67103	30.0
116.18195	50.0
120.56824	20.0
136.07794	20.0
139.08388	30.0
141.10579	40.0
149.07239	190.0
151.08598	20.0
155.11826	20.0
161.03241	30.0
161.07408	30.0
163.08821	20.0
163.23576	20.0
165.0656	50.0
166.07947	80.0
167.08304	380.0
170.07899	20.0
179.08105	30.0
181.09985	300.0
182.09619	50.0
183.11191	30.0
183.33604	10.0
184.11455	30.0
185.09398	970.0
187.1073	20.0
189.40155	30.0
194.13419	20.0
199.10818	680.0
199.33223	20.0
199.80969	10.0
201.12129	30.0
202.0909	60.0
202.16997	10.0
203.10461	320.0
216.11934	70.0
217.12279	100.0
264.08301	30.0
265.13962	30.0
303.20706	20.0
336.14954	20.0
353.17734	20.0
367.1937	30.0
370.21939	40.0
371.19705	260.0
382.56512	30.0
383.23053	30.0
384.43173	10.0
385.20908	490.0
387.22824	20.0
403.21967	100.0
571.30817	1000.0
1865.64136	20.0

NAME:  NCGC00180261-02!1,11,21-trihydroxy-1,6,11,16,21,26-hexazacyclohentriacontane-2,5,12,15,22,25-hexone
PRECURSORMZ:  607.2863782809
PRECURSORTYPE:  [M+Cl]-
FORMULA:  C25H44N6O9
Ontology: Kingdom: Organic compounds;Superclass: Phenylpropanoids and polyketides;Class: Macrolactams;
INCHIKEY:  YEUGMACLLZSLDG-UHFFFAOYSA-N
SMILES:  ON1CCCCCN=C(O)CCC(=O)N(O)CCCCN=C(O)CCC(=O)N(O)CCCCN=C(O)CCC1=O
RETENTIONTIME:  
CCS:  -1
IONMODE:  Negative
INSTRUMENTTYPE:  
INSTRUMENT:  Maxis II HD Q-TOF Bruker
COLLISIONENERGY:  
Comment:  DB#=CCMSLIB00000845932; origin=GNPS
Num Peaks:  11
98.02438	220.0
167.08382	110.0
181.09695	340.0
185.0928	260.0
187.11452	270.0
199.11661	200.0
217.11919	130.0
371.19464	610.0
385.21109	330.0
571.31464	1000.0
572.31647	110.0

NAME:  NCGC00380645-01![2-[5,7-dihydroxy-2-(4-hydroxy-3-methoxyphenyl)-4-oxochromen-6-yl]-4-[4,5-dihydroxy-6-(hydroxymethyl)-3-[3,4,5-trihydroxy-6-(hydroxymethyl)oxan-2-yl]oxyoxan-2-yl]oxy-5-hydroxy-6-(hydroxymethyl)oxan-3-yl] (E)-3-(4-hydroxyphenyl)prop-2-enoate
PRECURSORMZ:  931.25136135383
PRECURSORTYPE:  [M-H]-
FORMULA:  C43H48O23
Ontology: Kingdom: Organic compounds;Superclass: Phenylpropanoids and polyketides;Class: Flavonoids;Subclass: Flavonoid glycosides
INCHIKEY:  KGIKNRDXVXAZPV-UHFFFAOYNA-N
SMILES:  COC1=C(O)C=CC(=C1)C1=CC(=O)C2=C(O1)C=C(O)C(C1OC(CO)C(O)C(OC3OC(CO)C(O)C(O)C3OC3OC(CO)C(O)C(O)C3O)C1OC(=O)C=CC1=CC=C(O)C=C1)=C2O
RETENTIONTIME:  
CCS:  -1
IONMODE:  Negative
INSTRUMENTTYPE:  
INSTRUMENT:  Maxis II HD Q-TOF Bruker
COLLISIONENERGY:  
Comment:  DB#=CCMSLIB00000845934; origin=GNPS
Num Peaks:  81
76.34114	40.0
83.05913	30.0
104.28336	20.0
117.03616	70.0
119.05034	310.0
131.45978	30.0
132.05693	60.0
133.06792	100.0
145.02864	430.0
161.0621	460.0
163.03941	950.0
170.06073	30.0
177.05151	140.0
178.06525	60.0
202.65886	10.0
204.67522	50.0
205.0517	830.0
206.05569	150.0
217.054	30.0
235.06369	430.0
236.06276	30.0
241.05652	60.0
259.05405	20.0
265.07306	860.0
272.75473	50.0
280.03259	90.0
284.03452	100.0
297.04288	80.0
298.04813	60.0
300.06824	60.0
303.18942	20.0
307.01929	20.0
307.08206	50.0
308.03207	200.0
311.05219	40.0
314.04382	50.0
323.05508	240.0
324.05948	90.0
325.09192	50.0
326.04327	70.0
337.02408	50.0
337.07306	50.0
338.04202	40.0
339.07358	50.0
341.06549	130.0
350.04739	30.0
353.06287	30.0
356.05991	30.0
357.07007	70.0
363.05319	40.0
370.10739	30.0
371.0816	150.0
384.09085	50.0
417.42294	20.0
428.07974	190.0
429.06766	40.0
443.10724	350.0
485.11484	60.0
486.203	60.0
488.11124	50.0
503.11646	40.0
533.1665	20.0
545.12183	80.0
606.1358	50.0
623.14667	120.0
649.16229	90.0
761.54517	40.0
769.20496	1000.0
769.37775	30.0
770.21722	230.0
785.21436	250.0
786.21735	60.0
811.19293	40.0
811.69055	20.0
929.40131	30.0
930.10657	40.0
931.24963	640.0
932.26282	290.0
933.15143	40.0
933.25342	70.0
1022.39062	20.0

NAME:  NCGC00380644-01![2-[5,7-dihydroxy-2-(4-hydroxy-3-methoxyphenyl)-4-oxochromen-6-yl]-4-[4,5-dihydroxy-6-(hydroxymethyl)-3-[3,4,5-trihydroxy-6-(hydroxymethyl)oxan-2-yl]oxyoxan-2-yl]oxy-5-hydroxy-6-(hydroxymethyl)oxan-3-yl] (E)-3-(3,4-dihydroxyphenyl)prop-2-enoate
PRECURSORMZ:  947.24627597383
PRECURSORTYPE:  [M-H]-
FORMULA:  C43H48O24
Ontology: Kingdom: Organic compounds;Superclass: Phenylpropanoids and polyketides;Class: Flavonoids;Subclass: Flavonoid glycosides
INCHIKEY:  RUOOWOZSSMOGHQ-UHFFFAOYNA-N
SMILES:  COC1=C(O)C=CC(=C1)C1=CC(=O)C2=C(O1)C=C(O)C(C1OC(CO)C(O)C(OC3OC(CO)C(O)C(O)C3OC3OC(CO)C(O)C(O)C3O)C1OC(=O)C=CC1=CC(O)=C(O)C=C1)=C2O
RETENTIONTIME:  
CCS:  -1
IONMODE:  Negative
INSTRUMENTTYPE:  
INSTRUMENT:  Maxis II HD Q-TOF Bruker
COLLISIONENERGY:  
Comment:  DB#=CCMSLIB00000845936; origin=GNPS
Num Peaks:  128
134.03601	80.0
147.0459	30.0
149.05965	60.0
150.99965	20.0
151.03757	20.0
160.01645	30.0
163.00079	20.0
168.7798	10.0
173.92809	10.0
174.02483	10.0
175.02846	40.0
175.04715	40.0
176.05038	60.0
177.35797	10.0
180.13147	20.0
191.06889	100.0
193.05263	140.0
198.02361	20.0
199.0387	30.0
201.02153	20.0
207.06406	40.0
209.14404	10.0
212.12749	10.0
217.05699	20.0
225.0507	20.0
234.03712	20.0
235.06305	150.0
248.05188	20.0
252.07375	20.0
253.06635	10.0
265.05609	40.0
269.04938	30.0
280.03455	10.0
281.04797	10.0
282.05402	20.0
283.02637	40.0
284.00232	10.0
284.03244	30.0
285.04123	150.0
286.0722	30.0
289.24905	10.0
293.63965	20.0
295.05289	20.0
295.08371	50.0
297.04163	150.0
298.04938	210.0
298.57471	10.0
299.05237	90.0
307.02023	20.0
308.04099	50.0
309.03937	870.0
310.04373	50.0
311.04526	30.0
313.03317	40.0
313.06662	10.0
319.0253	20.0
322.04999	10.0
323.05957	70.0
324.03421	10.0
324.06625	20.0
325.0354	70.0
326.04001	10.0
326.07913	20.0
327.05255	230.0
330.02902	40.0
338.03177	40.0
339.05426	220.0
340.52841	10.0
350.04163	50.0
351.05258	50.0
356.17871	10.0
356.6965	10.0
357.06342	270.0
358.07028	10.0
360.89108	20.0
363.05811	30.0
369.06009	220.0
370.04984	20.0
371.08661	60.0
381.05872	30.0
385.05554	10.0
399.082	20.0
411.08469	20.0
428.073	50.0
429.08563	510.0
430.09271	20.0
432.35007	10.0
443.13425	20.0
447.09586	30.0
468.95737	20.0
469.03769	10.0
470.83395	20.0
471.08875	50.0
472.10062	20.0
472.33514	20.0
489.1156	70.0
490.10498	10.0
503.13208	20.0
513.08875	10.0
519.10907	30.0
520.14185	10.0
531.13263	10.0
537.73041	10.0
574.13953	10.0
591.13788	290.0
591.23022	10.0
592.07977	20.0
608.99542	20.0
609.15027	110.0
665.15253	160.0
697.02631	10.0
753.23621	10.0
768.18457	10.0
770.36047	10.0
771.20856	110.0
772.20648	20.0
783.49866	10.0
784.10577	10.0
785.18866	720.0
786.19733	130.0
828.16656	20.0
866.43353	10.0
945.57544	10.0
945.87347	20.0
947.24603	1000.0
948.24628	220.0
949.20874	30.0
949.27209	20.0

NAME:  NCGC00380298-01!1-[2-hydroxy-4-(3-hydroxy-5-methylphenoxy)-6-methylphenyl]-3-methylbutane-2,3-diol
PRECURSORMZ:  377.16057642083
PRECURSORTYPE:  [M+FA-H]-
FORMULA:  C19H24O5
Ontology: Kingdom: Organic compounds;Superclass: Benzenoids;Class: Benzene and substituted derivatives;Subclass: Diphenylethers
INCHIKEY:  FLLRZSQAKUHACV-UHFFFAOYNA-N
SMILES:  CC1=CC(O)=CC(OC2=CC(O)=C(CC(O)C(C)(C)O)C(C)=C2)=C1
RETENTIONTIME:  
CCS:  -1
IONMODE:  Negative
INSTRUMENTTYPE:  
INSTRUMENT:  Maxis II HD Q-TOF Bruker
COLLISIONENERGY:  
Comment:  DB#=CCMSLIB00000845938; origin=GNPS
Num Peaks:  6
243.09859	180.0
329.18253	50.0
329.39066	10.0
329.62698	20.0
330.64832	20.0
331.15591	1000.0

NAME:  NCGC00380190-01!3,15,21-tris[[(2R,3R,4S,5S,6R)-3,4,5-trihydroxy-6-(hydroxymethyl)oxan-2-yl]oxy]docosanoic acid
PRECURSORMZ:  873.47006833083
PRECURSORTYPE:  [M-H]-
FORMULA:  C40H74O20
Ontology: Kingdom: Organic compounds;Superclass: Lipids and lipid;Class: Fatty Acyls;Subclass: Fatty acyl glycosides
INCHIKEY:  ZPUOWQZPFGUNIS-UHFFFAOYNA-N
SMILES:  CC(CCCCCC(CCCCCCCCCCCC(CC(O)=O)OC1OC(CO)C(O)C(O)C1O)OC1OC(CO)C(O)C(O)C1O)OC1OC(CO)C(O)C(O)C1O
RETENTIONTIME:  
CCS:  -1
IONMODE:  Negative
INSTRUMENTTYPE:  
INSTRUMENT:  Maxis II HD Q-TOF Bruker
COLLISIONENERGY:  
Comment:  DB#=CCMSLIB00000845939; origin=GNPS
Num Peaks:  21
71.01284	20.0
83.01225	20.0
85.02773	40.0
89.02226	40.0
99.00834	10.0
101.02383	60.0
111.00731	20.0
113.02486	60.0
119.03615	40.0
141.01727	10.0
159.02998	30.0
161.04347	30.0
487.37164	10.0
531.35571	10.0
649.4162	70.0
650.41565	10.0
693.40692	890.0
694.41223	150.0
872.26538	10.0
873.47266	1000.0
874.47437	210.0

NAME:  NCGC00380212-01![3,4,5-trihydroxy-6-[(3,4,5-trihydroxyoxan-2-yl)oxymethyl]oxan-2-yl] 2,6,6-trimethylcyclohexene-1-carboxylate
PRECURSORMZ:  507.20831446283
PRECURSORTYPE:  [M+FA-H]-
FORMULA:  C21H34O11
Ontology: Kingdom: Organic compounds;Superclass: Organic oxygen compounds;Class: Organooxygen compounds;Subclass: Carbohydrates and carbohydrate conjugates
INCHIKEY:  JGMROMZJBQKIDK-UHFFFAOYNA-N
SMILES:  CC1=C(C(=O)OC2OC(COC3OCC(O)C(O)C3O)C(O)C(O)C2O)C(C)(C)CCC1
RETENTIONTIME:  
CCS:  -1
IONMODE:  Negative
INSTRUMENTTYPE:  
INSTRUMENT:  Maxis II HD Q-TOF Bruker
COLLISIONENERGY:  
Comment:  DB#=CCMSLIB00000845941; origin=GNPS
Num Peaks:  10
125.0212	10.0
149.04878	70.0
166.68881	20.0
166.94118	20.0
167.10617	1000.0
190.58702	10.0
191.05553	20.0
191.29434	20.0
293.08838	310.0
461.2002	130.0

NAME:  NCGC00380215-01!
PRECURSORMZ:  565.3301405899
PRECURSORTYPE:  [M+Cl]-
FORMULA:  C32H50O6
Ontology: Kingdom: Organic compounds;Superclass: Lipids and lipid;Class: Prenol lipids;Subclass: Diterpenoids
INCHIKEY:  XREDRJVZJRMVHB-UHFFFAOYNA-N
SMILES:  CCCCCCCCCCCC(=O)OC12CC(C)C3(O)C4C=C(C)C(=O)C4(O)CC(CO)=CC3C1C2(C)C
RETENTIONTIME:  
CCS:  -1
IONMODE:  Negative
INSTRUMENTTYPE:  
INSTRUMENT:  Maxis II HD Q-TOF Bruker
COLLISIONENERGY:  
Comment:  DB#=CCMSLIB00000845943; origin=GNPS
Num Peaks:  10
144.07439	70.0
186.99437	40.0
256.24149	70.0
407.28781	30.0
409.30746	30.0
457.33224	40.0
475.33865	30.0
501.31668	100.0
518.68018	40.0
519.336	1000.0

NAME:  NCGC00380216-01!8a-[(2S,3R,4S,5S,6R)-6-[[(2R,3R,4R,5S,6R)-3,4-dihydroxy-6-(hydroxymethyl)-5-[(2S,3R,4R,5R,6S)-3,4,5-trihydroxy-6-methyloxan-2-yl]oxyoxan-2-yl]oxymethyl]-4,5-dihydroxy-3-[(2S,3R,4S,5S,6R)-3,4,5-trihydroxy-6-(hydroxymethyl)oxan-2-yl]oxyoxan-2-yl]oxycarbonyl-2,3,9-trihydroxy-4,6a,6b,11,11,14b-hexamethyl-1,2,3,4a,5,6,7,8,9,10,12,12a,14,14a-tetradecahydropicene-4-carboxylic acid
PRECURSORMZ:  1149.53345643683
PRECURSORTYPE:  [M-H]-
FORMULA:  C54H86O26
Ontology: Kingdom: Organic compounds;Superclass: Lipids and lipid;Class: Prenol lipids;Subclass: Terpene glycosides
INCHIKEY:  OUZBWJQQLMMOSN-UHFFFAOYNA-N
SMILES:  CC1OC(OC2C(O)C(O)C(OCC3OC(OC(=O)C45CCC6(C)C(=CCC7C8(C)CC(O)C(O)C(C)(C8CCC67C)C(O)=O)C4CC(C)(C)CC5O)C(OC4OC(CO)C(O)C(O)C4O)C(O)C3O)OC2CO)C(O)C(O)C1O
RETENTIONTIME:  
CCS:  -1
IONMODE:  Negative
INSTRUMENTTYPE:  
INSTRUMENT:  Maxis II HD Q-TOF Bruker
COLLISIONENERGY:  
Comment:  DB#=CCMSLIB00000845946; origin=GNPS
Num Peaks:  96
83.01061	20.0
89.02332	30.0
97.02962	30.0
101.02505	150.0
113.02363	100.0
119.0331	50.0
131.03246	30.0
141.01877	40.0
143.03343	50.0
144.88792	10.0
145.05019	10.0
149.04391	20.0
159.02998	20.0
161.0457	210.0
163.05524	50.0
167.10327	10.0
177.14081	10.0
179.05534	120.0
190.04752	10.0
205.0703	40.0
219.17297	20.0
221.06158	110.0
227.00153	20.0
234.31641	10.0
245.15472	10.0
247.08392	160.0
247.12357	10.0
253.502	10.0
258.99228	20.0
265.09592	50.0
269.76483	30.0
325.11102	30.0
331.18805	20.0
348.24628	20.0
357.26645	10.0
363.26785	30.0
364.2756	10.0
367.12659	350.0
379.30222	40.0
391.12338	10.0
391.30093	110.0
393.31741	110.0
409.31317	10.0
411.341	20.0
423.28299	40.0
437.2962	40.0
439.27853	30.0
444.31784	10.0
450.24707	10.0
453.30075	40.0
454.31305	40.0
455.3154	410.0
456.32111	30.0
467.28348	20.0
469.15692	30.0
471.32657	20.0
481.2923	40.0
485.29288	10.0
485.32697	20.0
499.30841	370.0
499.83188	10.0
500.32568	20.0
501.29117	20.0
512.56927	30.0
517.31647	630.0
518.31927	80.0
522.42059	10.0
525.91071	10.0
539.33557	10.0
541.31378	20.0
542.41833	40.0
543.46777	20.0
547.03674	10.0
554.66937	20.0
559.32391	70.0
561.34357	10.0
605.9256	10.0
618.30151	20.0
631.2207	20.0
679.38135	20.0
685.37054	10.0
686.66895	10.0
721.37531	60.0
722.38959	30.0
867.4104	30.0
868.49878	20.0
870.21716	10.0
925.50848	10.0
1131.52124	30.0
1148.58142	20.0
1149.5321	1000.0
1150.35864	10.0
1150.54004	420.0
1151.54321	110.0
1152.55981	10.0
1153.54834	10.0

NAME:  NCGC00384538-01!3-[(2S,3R,4R,5R,6S)-4,5-dihydroxy-6-methyl-3-[(2S,3R,4S,5S,6R)-3,4,5-trihydroxy-6-(hydroxymethyl)oxan-2-yl]oxyoxan-2-yl]oxy-5,7-dihydroxy-2-(4-hydroxyphenyl)chromen-4-one
PRECURSORMZ:  593.15119381383
PRECURSORTYPE:  [M-H]-
FORMULA:  C27H30O15
Ontology: Kingdom: Organic compounds;Superclass: Phenylpropanoids and polyketides;Class: Flavonoids;Subclass: Flavonoid glycosides
INCHIKEY:  BCNBWICEIXAVQF-UHFFFAOYNA-N
SMILES:  CC1OC(OC2=C(OC3=CC(O)=CC(O)=C3C2=O)C2=CC=C(O)C=C2)C(OC2OC(CO)C(O)C(O)C2O)C(O)C1O
RETENTIONTIME:  
CCS:  230.7187965
IONMODE:  Negative
INSTRUMENTTYPE:  
INSTRUMENT:  Maxis II HD Q-TOF Bruker
COLLISIONENERGY:  
Comment:  DB#=CCMSLIB00000845948; origin=GNPS
Num Peaks:  16
107.01307	30.0
151.00386	10.0
189.05833	10.0
227.03304	100.0
229.04491	10.0
255.03069	100.0
256.03799	20.0
257.04086	20.0
283.02676	70.0
284.0311	890.0
284.18524	20.0
285.03882	140.0
413.09052	20.0
431.0965	10.0
593.15088	1000.0
597.44177	10.0

NAME:  NCGC00169807-02!(2S)-7-[(2S,3R,4S,5S,6R)-4,5-dihydroxy-6-(hydroxymethyl)-3-[(2S,3R,4R,5R,6S)-3,4,5-trihydroxy-6-methyloxan-2-yl]oxyoxan-2-yl]oxy-2-(3,4-dihydroxyphenyl)-5-hydroxy-2,3-dihydrochromen-4-one
PRECURSORMZ:  595.16684387783
PRECURSORTYPE:  [M-H]-
FORMULA:  C27H32O15
Ontology: Kingdom: Organic compounds;Superclass: Phenylpropanoids and polyketides;Class: Flavonoids;Subclass: Flavonoid glycosides
INCHIKEY:  OBKKEZLIABHSGY-UHFFFAOYNA-N
SMILES:  CC1OC(OC2C(O)C(O)C(CO)OC2OC2=CC(O)=C3C(=O)CC(OC3=C2)C2=CC(O)=C(O)C=C2)C(O)C(O)C1O
RETENTIONTIME:  
CCS:  224.9909951
IONMODE:  Negative
INSTRUMENTTYPE:  
INSTRUMENT:  Maxis II HD Q-TOF Bruker
COLLISIONENERGY:  
Comment:  DB#=CCMSLIB00000845949; origin=GNPS
Num Peaks:  12
91.04479	10.0
107.0127	20.0
135.04398	230.0
151.00301	480.0
169.01343	20.0
175.00195	50.0
193.01466	20.0
287.05652	1000.0
311.0563	30.0
329.07111	20.0
459.11722	110.0
595.16455	190.0

NAME:  NCGC00169807-02!(2S)-7-[(2S,3R,4S,5S,6R)-4,5-dihydroxy-6-(hydroxymethyl)-3-[(2S,3R,4R,5R,6S)-3,4,5-trihydroxy-6-methyloxan-2-yl]oxyoxan-2-yl]oxy-2-(3,4-dihydroxyphenyl)-5-hydroxy-2,3-dihydrochromen-4-one
PRECURSORMZ:  577.15627919783
PRECURSORTYPE:  [M-H2O-H]-
FORMULA:  C27H32O15
Ontology: Kingdom: Organic compounds;Superclass: Phenylpropanoids and polyketides;Class: Flavonoids;Subclass: Flavonoid glycosides
INCHIKEY:  OBKKEZLIABHSGY-UHFFFAOYNA-N
SMILES:  CC1OC(OC2C(O)C(O)C(CO)OC2OC2=CC(O)=C3C(=O)CC(OC3=C2)C2=CC(O)=C(O)C=C2)C(O)C(O)C1O
RETENTIONTIME:  
CCS:  -1
IONMODE:  Negative
INSTRUMENTTYPE:  
INSTRUMENT:  Maxis II HD Q-TOF Bruker
COLLISIONENERGY:  
Comment:  DB#=CCMSLIB00000845951; origin=GNPS
Num Peaks:  22
167.72957	30.0
281.04904	30.0
283.06168	90.0
291.06555	40.0
293.04404	760.0
309.04666	70.0
311.04965	160.0
314.04178	110.0
323.05801	60.0
325.06024	40.0
335.06595	40.0
340.06351	50.0
341.05948	40.0
342.08502	60.0
353.08524	80.0
355.09354	50.0
395.07004	50.0
413.0903	670.0
431.10623	60.0
457.10031	120.0
571.74274	20.0
577.15485	1000.0

NAME:  NCGC00384535-01!8-[4,5-dihydroxy-6-(hydroxymethyl)-3-(3,4,5-trihydroxy-6-methyloxan-2-yl)oxyoxan-2-yl]-7-hydroxy-2-(4-hydroxyphenyl)-5-[3,4,5-trihydroxy-6-(hydroxymethyl)oxan-2-yl]oxychromen-4-one
PRECURSORMZ:  739.20910261583
PRECURSORTYPE:  [M-H]-
FORMULA:  C33H40O19
Ontology: Kingdom: Organic compounds;Superclass: Phenylpropanoids and polyketides;Class: Flavonoids;Subclass: Flavonoid glycosides
INCHIKEY:  SPWIYFDXMWFJMA-UHFFFAOYNA-N
SMILES:  CC1OC(OC2C(O)C(O)C(CO)OC2C2=C3OC(=CC(=O)C3=C(OC3OC(CO)C(O)C(O)C3O)C=C2O)C2=CC=C(O)C=C2)C(O)C(O)C1O
RETENTIONTIME:  
CCS:  -1
IONMODE:  Negative
INSTRUMENTTYPE:  
INSTRUMENT:  Maxis II HD Q-TOF Bruker
COLLISIONENERGY:  
Comment:  DB#=CCMSLIB00000845953; origin=GNPS
Num Peaks:  32
117.15337	40.0
118.71772	40.0
240.05962	100.0
291.06741	160.0
295.05823	210.0
306.05972	30.0
307.06253	280.0
323.05786	460.0
324.06619	110.0
325.07822	40.0
335.05762	560.0
336.37747	50.0
347.05823	40.0
365.07132	100.0
377.05789	50.0
395.07892	170.0
413.10321	50.0
415.13705	100.0
418.60098	80.0
425.12668	70.0
503.1171	30.0
515.1236	190.0
546.11908	70.0
575.13843	430.0
593.17865	20.0
736.17004	50.0
736.92627	30.0
739.20972	1000.0
739.29169	130.0
739.65747	140.0
740.21124	150.0
1545.31323	60.0

NAME:  NCGC00168909-02!(2R,3R)-2-(3,4-dihydroxyphenyl)-5,7-dihydroxy-3-[(2S,3R,4R,5R,6S)-3,4,5-trihydroxy-6-methyloxan-2-yl]oxy-2,3-dihydrochromen-4-one
PRECURSORMZ:  449.10893507583
PRECURSORTYPE:  [M-H]-
FORMULA:  C21H22O11
Ontology: Kingdom: Organic compounds;Superclass: Phenylpropanoids and polyketides;Class: Flavonoids;Subclass: Flavonoid glycosides
INCHIKEY:  ZROGCCBNZBKLEL-UHFFFAOYNA-N
SMILES:  CC1OC(OC2C(OC3=CC(O)=CC(O)=C3C2=O)C2=CC(O)=C(O)C=C2)C(O)C(O)C1O
RETENTIONTIME:  
CCS:  201.1104884
IONMODE:  Negative
INSTRUMENTTYPE:  
INSTRUMENT:  Maxis II HD Q-TOF Bruker
COLLISIONENERGY:  
Comment:  DB#=CCMSLIB00000845955; origin=GNPS
Num Peaks:  13
125.02634	300.0
139.03548	210.0
149.02489	570.0
150.03023	870.0
151.00322	1000.0
175.05756	330.0
179.00172	370.0
180.00734	290.0
275.05411	240.0
285.04208	980.0
297.10272	340.0
303.08035	510.0
449.10522	440.0

NAME:  NCGC00168909-02!(2R,3R)-2-(3,4-dihydroxyphenyl)-5,7-dihydroxy-3-[(2S,3R,4R,5R,6S)-3,4,5-trihydroxy-6-methyloxan-2-yl]oxy-2,3-dihydrochromen-4-one
PRECURSORMZ:  495.11441407583
PRECURSORTYPE:  [M+FA-H]-
FORMULA:  C21H22O11
Ontology: ;;;
INCHIKEY:  ZROGCCBNZBKLEL-UHFFFAOYNA-N
SMILES:  CC1OC(OC2C(OC3=CC(O)=CC(O)=C3C2=O)C2=CC(O)=C(O)C=C2)C(O)C(O)C1O
RETENTIONTIME:  
CCS:  -1
IONMODE:  Negative
INSTRUMENTTYPE:  
INSTRUMENT:  Maxis II HD Q-TOF Bruker
COLLISIONENERGY:  
Comment:  DB#=CCMSLIB00000845957; origin=GNPS
Num Peaks:  29
107.01564	20.0
125.02306	130.0
146.35263	20.0
151.00447	1000.0
151.04182	100.0
152.01315	90.0
159.04617	30.0
169.00821	90.0
179.00136	150.0
180.01158	20.0
182.71629	30.0
188.35417	20.0
199.04129	30.0
216.0336	20.0
219.03076	30.0
225.0162	20.0
241.05345	60.0
267.03003	20.0
275.06281	30.0
284.03314	20.0
285.04285	470.0
297.10083	170.0
297.21457	10.0
302.04526	20.0
302.7189	10.0
303.05396	350.0
431.13525	30.0
449.10968	460.0
449.16727	30.0

NAME:  NCGC00385318-01!8-[(2S,3R)-2-(3,4-dihydroxyphenyl)-5,7-dihydroxy-4-oxo-2,3-dihydrochromen-3-yl]-5,7-dihydroxy-2-(4-hydroxyphenyl)chromen-4-one
PRECURSORMZ:  555.09328501183
PRECURSORTYPE:  [M-H]-
FORMULA:  C30H20O11
Ontology: Kingdom: Organic compounds;Superclass: Phenylpropanoids and polyketides;Class: Flavonoids;Subclass: Biflavonoids and polyflavonoids
INCHIKEY:  DAGFXZAYWUIGPC-UHFFFAOYNA-N
SMILES:  OC1=CC=C(C=C1)C1=CC(=O)C2=C(O1)C(C1C(OC3=CC(O)=CC(O)=C3C1=O)C1=CC(O)=C(O)C=C1)=C(O)C=C2O
RETENTIONTIME:  
CCS:  247.2237273
IONMODE:  Negative
INSTRUMENTTYPE:  
INSTRUMENT:  Maxis II HD Q-TOF Bruker
COLLISIONENERGY:  
Comment:  DB#=CCMSLIB00000845959; origin=GNPS
Num Peaks:  26
71.19067	10.0
125.02491	80.0
133.02731	10.0
151.0034	100.0
199.04237	20.0
213.56276	10.0
244.32703	20.0
292.0314	10.0
292.06458	10.0
293.05035	10.0
295.02029	20.0
315.07455	10.0
345.07602	10.0
385.06598	10.0
401.07748	50.0
402.59094	10.0
403.08286	80.0
421.08597	10.0
425.08145	20.0
428.92145	10.0
429.06339	1000.0
430.06067	20.0
433.04233	10.0
461.05652	10.0
511.10745	10.0
555.09436	40.0

NAME:  NCGC00160628-06!2-(3,4-dihydroxyphenyl)-5,7-dihydroxy-3-[(2S,3R,4S,5S,6R)-3,4,5-trihydroxy-6-[[(2R,3R,4R,5R,6S)-3,4,5-trihydroxy-6-methyloxan-2-yl]oxymethyl]oxan-2-yl]oxychromen-4-one
PRECURSORMZ:  609.14610843383
PRECURSORTYPE:  [M-H]-
FORMULA:  C27H30O16
Ontology: Kingdom: Organic compounds;Superclass: Phenylpropanoids and polyketides;Class: Flavonoids;Subclass: Flavonoid glycosides
INCHIKEY:  IKGXIBQEEMLURG-UHFFFAOYNA-N
SMILES:  CC1OC(OCC2OC(OC3=C(OC4=CC(O)=CC(O)=C4C3=O)C3=CC(O)=C(O)C=C3)C(O)C(O)C2O)C(O)C(O)C1O
RETENTIONTIME:  
CCS:  227.7127405
IONMODE:  Negative
INSTRUMENTTYPE:  
INSTRUMENT:  Maxis II HD Q-TOF Bruker
COLLISIONENERGY:  
Comment:  DB#=CCMSLIB00000845962; origin=GNPS
Num Peaks:  16
151.00664	40.0
166.60176	10.0
169.59798	20.0
171.44215	20.0
178.99811	20.0
199.03917	10.0
228.03824	20.0
255.02788	60.0
271.0274	90.0
273.03787	10.0
299.01343	20.0
300.02737	770.0
301.03464	280.0
608.87756	10.0
609.1485	1000.0
609.27533	10.0

NAME:  NCGC00179887-02!3-[(2S,3R,4S,5R,6R)-6-[[(2R,3R,4R,5S,6S)-3,5-dihydroxy-6-methyl-4-[(2S,3R,4R,5R,6S)-3,4,5-trihydroxy-6-methyloxan-2-yl]oxyoxan-2-yl]oxymethyl]-3,4,5-trihydroxyoxan-2-yl]oxy-2-(3,4-dihydroxyphenyl)-5-hydroxy-7-methoxychromen-4-one
PRECURSORMZ:  769.21966729983
PRECURSORTYPE:  [M-H]-
FORMULA:  C34H42O20
Ontology: Kingdom: Organic compounds;Superclass: Phenylpropanoids and polyketides;Class: Flavonoids;Subclass: Flavonoid glycosides
INCHIKEY:  NMGVHLDIHNFGQB-UHFFFAOYNA-N
SMILES:  COC1=CC(O)=C2C(=O)C(OC3OC(COC4OC(C)C(O)C(OC5OC(C)C(O)C(O)C5O)C4O)C(O)C(O)C3O)=C(OC2=C1)C1=CC(O)=C(O)C=C1
RETENTIONTIME:  
CCS:  321.6107132
IONMODE:  Negative
INSTRUMENTTYPE:  
INSTRUMENT:  Maxis II HD Q-TOF Bruker
COLLISIONENERGY:  
Comment:  DB#=CCMSLIB00000845964; origin=GNPS
Num Peaks:  17
121.03056	20.0
149.99478	10.0
165.01703	70.0
193.0181	20.0
269.04678	10.0
271.02481	140.0
272.03366	20.0
285.04132	20.0
297.03683	10.0
299.02063	570.0
300.02969	30.0
313.96298	10.0
314.04477	1000.0
315.05173	370.0
357.04559	10.0
769.22089	910.0
770.21991	100.0

NAME:  NCGC00169085-02!3-[(7S,8S)-5-hydroxy-2,2,7,8-tetramethyl-6-oxo-7,8-dihydropyrano[3,2-g]chromen-10-yl]-3-phenylpropanoic acid
PRECURSORMZ:  421.16566210483
PRECURSORTYPE:  [M-H]-
FORMULA:  C25H26O6
Ontology: Kingdom: Organic compounds;Superclass: Organoheterocyclic compounds;Class: Benzopyrans;
INCHIKEY:  CEJSYHIZUAMEQV-UHFFFAOYNA-N
SMILES:  CC1OC2=C(C(=O)C1C)C(O)=C1C=CC(C)(C)OC1=C2C(CC(O)=O)C1=CC=CC=C1
RETENTIONTIME:  
CCS:  208.2058507
IONMODE:  Negative
INSTRUMENTTYPE:  
INSTRUMENT:  Maxis II HD Q-TOF Bruker
COLLISIONENERGY:  
Comment:  DB#=CCMSLIB00000845966; origin=GNPS
Num Peaks:  12
172.05135	40.0
189.04466	30.0
212.79277	50.0
213.52075	10.0
225.71597	30.0
227.0714	30.0
273.11398	130.0
321.11218	40.0
333.18021	30.0
377.17557	380.0
421.16385	1000.0
424.83682	10.0

NAME:  NCGC00169106-02![(2R,3S,4S,5R,6R)-6-[2-(3,4-dihydroxyphenyl)ethoxy]-3,4,5-trihydroxyoxan-2-yl]methyl (E)-3-(3,4-dihydroxyphenyl)prop-2-enoate
PRECURSORMZ:  477.14023520483
PRECURSORTYPE:  [M-H]-
FORMULA:  C23H26O11
Ontology: Kingdom: Organic compounds;Superclass: Phenylpropanoids and polyketides;Class: Cinnamic acids and derivatives;Subclass: Hydroxycinnamic acids and derivatives
INCHIKEY:  LFKQVVDFNHDYNK-UHFFFAOYNA-N
SMILES:  OC1C(COC(=O)C=CC2=CC(O)=C(O)C=C2)OC(OCCC2=CC(O)=C(O)C=C2)C(O)C1O
RETENTIONTIME:  
CCS:  229.2914544
IONMODE:  Negative
INSTRUMENTTYPE:  
INSTRUMENT:  Maxis II HD Q-TOF Bruker
COLLISIONENERGY:  
Comment:  DB#=CCMSLIB00000845967; origin=GNPS
Num Peaks:  23
72.95264	20.0
97.59946	40.0
106.04055	30.0
107.00957	40.0
108.20344	30.0
119.03333	30.0
133.03671	30.0
135.04471	70.0
143.03455	30.0
161.02319	1000.0
179.039	50.0
228.9857	30.0
231.8201	10.0
281.06552	30.0
315.11255	120.0
341.07367	40.0
475.8909	10.0
476.17651	10.0
476.4816	30.0
476.65393	10.0
477.14011	920.0
477.38434	10.0
477.76132	10.0

NAME:  NCGC00169050-02![3,4-dihydroxy-5-[[3,4,5-trihydroxy-6-[4-(hydroxymethyl)-2,6-dimethoxyphenoxy]oxan-2-yl]methoxy]oxolan-3-yl]methyl 4-hydroxy-3,5-dimethoxybenzoate
PRECURSORMZ:  657.20362331183
PRECURSORTYPE:  [M-H]-
FORMULA:  C29H38O17
Ontology: Kingdom: Organic compounds;Superclass: Phenylpropanoids and polyketides;Class: Tannins;Subclass: Hydrolyzable tannins
INCHIKEY:  YYIPXGSVFFKMDD-UHFFFAOYNA-N
SMILES:  COC1=CC(=CC(OC)=C1O)C(=O)OCC1(O)COC(OCC2OC(OC3=C(OC)C=C(CO)C=C3OC)C(O)C(O)C2O)C1O
RETENTIONTIME:  
CCS:  -1
IONMODE:  Negative
INSTRUMENTTYPE:  
INSTRUMENT:  Maxis II HD Q-TOF Bruker
COLLISIONENERGY:  
Comment:  DB#=CCMSLIB00000845969; origin=GNPS
Num Peaks:  15
121.0295	100.0
137.02304	10.0
138.03082	20.0
153.02121	20.0
153.05457	230.0
168.03917	20.0
182.01587	10.0
183.06117	10.0
197.04494	1000.0
198.04616	10.0
275.5527	10.0
293.08542	10.0
301.07101	30.0
302.07504	30.0
657.20355	60.0

NAME:  NCGC00380277-01!3-[(2S,3R,4S,5S,6R)-4,5-dihydroxy-3-[(2R,3R,4R,5R,6S)-3,4,5-trihydroxy-6-methyloxan-2-yl]oxy-6-[[(2R,3R,4R,5R,6S)-3,4,5-trihydroxy-6-methyloxan-2-yl]oxymethyl]oxan-2-yl]oxy-5,7-dihydroxy-2-(4-hydroxyphenyl)-6-methoxychromen-4-one
PRECURSORMZ:  769.21966729983
PRECURSORTYPE:  [M-H]-
FORMULA:  C34H42O20
Ontology: Kingdom: Organic compounds;Superclass: Phenylpropanoids and polyketides;Class: Flavonoids;Subclass: Flavonoid glycosides
INCHIKEY:  ZJOJKSKTNZMQCX-UHFFFAOYNA-N
SMILES:  COC1=C(O)C2=C(OC(C3=CC=C(O)C=C3)=C(OC3OC(COC4OC(C)C(O)C(O)C4O)C(O)C(O)C3OC3OC(C)C(O)C(O)C3O)C2=O)C=C1O
RETENTIONTIME:  
CCS:  254.2407132
IONMODE:  Negative
INSTRUMENTTYPE:  
INSTRUMENT:  Maxis II HD Q-TOF Bruker
COLLISIONENERGY:  
Comment:  DB#=CCMSLIB00000845971; origin=GNPS
Num Peaks:  27
133.02788	10.0
164.97954	30.0
165.99336	20.0
178.99745	30.0
183.04404	10.0
209.00938	10.0
215.03157	10.0
227.03531	20.0
243.0271	60.0
255.02948	40.0
257.04376	10.0
270.01993	10.0
271.02411	390.0
272.02921	40.0
285.0383	20.0
287.05472	20.0
299.0192	780.0
299.09131	10.0
300.02734	140.0
313.03516	20.0
314.04239	1000.0
315.05087	190.0
384.90887	10.0
605.1322	20.0
605.17352	10.0
769.22089	980.0
770.22864	90.0

NAME:  NCGC00178013-03!7-[(2S,3R,4S,5S,6R)-4,5-dihydroxy-6-(hydroxymethyl)-3-[(2S,3R,4R,5R,6S)-3,4,5-trihydroxy-6-methyloxan-2-yl]oxyoxan-2-yl]oxy-5-hydroxy-2-(4-hydroxyphenyl)chromen-4-one
PRECURSORMZ:  577.15627919383
PRECURSORTYPE:  [M-H]-
FORMULA:  C27H30O14
Ontology: Kingdom: Organic compounds;Superclass: Phenylpropanoids and polyketides;Class: Flavonoids;Subclass: Flavonoid glycosides
INCHIKEY:  RPMNUQRUHXIGHK-UHFFFAOYNA-N
SMILES:  CC1OC(OC2C(O)C(O)C(CO)OC2OC2=CC(O)=C3C(=O)C=C(OC3=C2)C2=CC=C(O)C=C2)C(O)C(O)C1O
RETENTIONTIME:  
CCS:  222.168329
IONMODE:  Negative
INSTRUMENTTYPE:  
INSTRUMENT:  Maxis II HD Q-TOF Bruker
COLLISIONENERGY:  
Comment:  DB#=CCMSLIB00000845974; origin=GNPS
Num Peaks:  7
268.04123	140.0
269.04947	790.0
276.13065	30.0
285.42441	90.0
413.09415	90.0
577.15637	1000.0
578.15155	30.0

NAME:  NCGC00178013-03!7-[(2S,3R,4S,5S,6R)-4,5-dihydroxy-6-(hydroxymethyl)-3-[(2S,3R,4R,5R,6S)-3,4,5-trihydroxy-6-methyloxan-2-yl]oxyoxan-2-yl]oxy-5-hydroxy-2-(4-hydroxyphenyl)chromen-4-one
PRECURSORMZ:  623.16175819383
PRECURSORTYPE:  [M+FA-H]-
FORMULA:  C27H30O14
Ontology: Kingdom: Organic compounds;Superclass: Phenylpropanoids and polyketides;Class: Flavonoids;Subclass: Flavonoid glycosides
INCHIKEY:  RPMNUQRUHXIGHK-UHFFFAOYNA-N
SMILES:  CC1OC(OC2C(O)C(O)C(CO)OC2OC2=CC(O)=C3C(=O)C=C(OC3=C2)C2=CC=C(O)C=C2)C(O)C(O)C1O
RETENTIONTIME:  
CCS:  -1
IONMODE:  Negative
INSTRUMENTTYPE:  
INSTRUMENT:  Maxis II HD Q-TOF Bruker
COLLISIONENERGY:  
Comment:  DB#=CCMSLIB00000845976; origin=GNPS
Num Peaks:  8
206.58612	20.0
268.03363	140.0
269.04694	740.0
272.83701	10.0
577.1554	1000.0
578.146	20.0
581.35638	20.0
581.47876	20.0

NAME:  NCGC00384947-01!2-hydroxy-6-(2-hydroxy-4-methoxy-6-methoxycarbonylphenoxy)-4-methylbenzoic acid
PRECURSORMZ:  347.07724102283
PRECURSORTYPE:  [M-H]-
FORMULA:  C17H16O8
Ontology: Kingdom: Organic compounds;Superclass: Benzenoids;Class: Benzene and substituted derivatives;Subclass: Diphenylethers
INCHIKEY:  SOXXAFVUSIMAGB-UHFFFAOYSA-N
SMILES:  COC(=O)C1=C(OC2=CC(C)=CC(O)=C2C(O)=O)C(O)=CC(OC)=C1
RETENTIONTIME:  
CCS:  195.2352987
IONMODE:  Negative
INSTRUMENTTYPE:  
INSTRUMENT:  Maxis II HD Q-TOF Bruker
COLLISIONENERGY:  
Comment:  DB#=CCMSLIB00000845977; origin=GNPS
Num Peaks:  7
153.02153	90.0
178.02647	150.0
181.01155	140.0
182.01709	110.0
271.05838	200.0
288.06027	1000.0
303.08652	310.0

NAME:  NCGC00384930-01!4-(4-hydroxy-2-methoxy-3,5,6-trimethylbenzoyl)oxy-2-methoxy-3,5,6-trimethylbenzoic acid
PRECURSORMZ:  447.16605572483
PRECURSORTYPE:  [M+FA-H]-
FORMULA:  C22H26O7
Ontology: Kingdom: Organic compounds;Superclass: Phenylpropanoids and polyketides;Class: Depsides and depsidones;
INCHIKEY:  MUQKNNNEHVXLOL-UHFFFAOYSA-N
SMILES:  COC1=C(C(O)=O)C(C)=C(C)C(OC(=O)C2=C(OC)C(C)=C(O)C(C)=C2C)=C1C
RETENTIONTIME:  
CCS:  -1
IONMODE:  Negative
INSTRUMENTTYPE:  
INSTRUMENT:  Maxis II HD Q-TOF Bruker
COLLISIONENERGY:  
Comment:  DB#=CCMSLIB00000845980; origin=GNPS
Num Peaks:  5
81.41428	10.0
105.61987	20.0
150.0665	70.0
165.09245	400.0
209.08298	1000.0

NAME:  NCGC00169594-02!8-[2-(3,4-dihydroxyphenyl)-5,7-dihydroxy-4-oxo-2,3-dihydrochromen-3-yl]-5,7-dihydroxy-2-(4-hydroxyphenyl)-2,3-dihydrochromen-4-one
PRECURSORMZ:  557.10893507583
PRECURSORTYPE:  [M-H]-
FORMULA:  C30H22O11
Ontology: Kingdom: Organic compounds;Superclass: Phenylpropanoids and polyketides;Class: Flavonoids;Subclass: Biflavonoids and polyflavonoids
INCHIKEY:  BTRRHXATSDHYNW-UHFFFAOYNA-N
SMILES:  OC1=CC=C(C=C1)C1CC(=O)C2=C(O1)C(C1C(OC3=CC(O)=CC(O)=C3C1=O)C1=CC(O)=C(O)C=C1)=C(O)C=C2O
RETENTIONTIME:  
CCS:  -1
IONMODE:  Negative
INSTRUMENTTYPE:  
INSTRUMENT:  Maxis II HD Q-TOF Bruker
COLLISIONENERGY:  
Comment:  DB#=CCMSLIB00000845981; origin=GNPS
Num Peaks:  34
125.02517	160.0
132.31	10.0
135.04488	270.0
151.00453	70.0
159.04111	30.0
163.01462	10.0
176.00766	20.0
183.05353	20.0
198.03267	10.0
199.03618	20.0
203.11557	20.0
206.58398	10.0
212.04723	10.0
223.03874	10.0
223.27411	10.0
229.01416	10.0
239.0314	10.0
244.90366	10.0
253.01302	10.0
267.02985	20.0
267.0708	10.0
268.04086	20.0
269.05069	100.0
295.02612	370.0
296.03256	60.0
313.03397	10.0
321.04501	40.0
325.02451	20.0
405.07916	10.0
421.06555	20.0
431.07904	1000.0
450.06934	10.0
513.15314	10.0
557.1073	80.0

NAME:  NCGC00169594-02!8-[2-(3,4-dihydroxyphenyl)-5,7-dihydroxy-4-oxo-2,3-dihydrochromen-3-yl]-5,7-dihydroxy-2-(4-hydroxyphenyl)-2,3-dihydrochromen-4-one
PRECURSORMZ:  593.0856127879
PRECURSORTYPE:  [M+Cl]-
FORMULA:  C30H22O11
Ontology: Kingdom: Organic compounds;Superclass: Phenylpropanoids and polyketides;Class: Flavonoids;Subclass: Biflavonoids and polyflavonoids
INCHIKEY:  BTRRHXATSDHYNW-UHFFFAOYNA-N
SMILES:  OC1=CC=C(C=C1)C1CC(=O)C2=C(O1)C(C1C(OC3=CC(O)=CC(O)=C3C1=O)C1=CC(O)=C(O)C=C1)=C(O)C=C2O
RETENTIONTIME:  
CCS:  -1
IONMODE:  Negative
INSTRUMENTTYPE:  
INSTRUMENT:  Maxis II HD Q-TOF Bruker
COLLISIONENERGY:  
Comment:  DB#=CCMSLIB00000845983; origin=GNPS
Num Peaks:  11
107.01132	210.0
150.17554	70.0
150.31482	170.0
253.28816	50.0
312.29898	100.0
313.52603	30.0
325.03888	140.0
430.07758	120.0
431.07886	1000.0
451.0603	130.0
557.11609	160.0

NAME:  NCGC00384958-01!2-(3,4-dihydroxyphenyl)-5,7-dihydroxy-3-[(2S,3R,4S,5S)-4-hydroxy-5-(hydroxymethyl)-3-[(2S,3R,4S,5R)-3,4,5-trihydroxyoxan-2-yl]oxyoxolan-2-yl]oxychromen-4-one
PRECURSORMZ:  565.11989368483
PRECURSORTYPE:  [M-H]-
FORMULA:  C25H26O15
Ontology: Kingdom: Organic compounds;Superclass: Phenylpropanoids and polyketides;Class: Flavonoids;Subclass: Flavonoid glycosides
INCHIKEY:  ZUPASDOWHXCIHQ-UHFFFAOYNA-N
SMILES:  OCC1OC(OC2=C(OC3=CC(O)=CC(O)=C3C2=O)C2=CC(O)=C(O)C=C2)C(OC2OCC(O)C(O)C2O)C1O
RETENTIONTIME:  
CCS:  230.1170486
IONMODE:  Negative
INSTRUMENTTYPE:  
INSTRUMENT:  Maxis II HD Q-TOF Bruker
COLLISIONENERGY:  
Comment:  DB#=CCMSLIB00000845986; origin=GNPS
Num Peaks:  27
119.33392	10.0
133.89856	30.0
151.00395	60.0
163.01521	20.0
170.68333	20.0
172.1922	40.0
179.00259	50.0
188.04842	10.0
224.98	10.0
243.03482	60.0
255.02449	60.0
271.02432	140.0
274.29633	10.0
283.02933	30.0
284.02795	70.0
286.04889	20.0
289.02621	10.0
300.02869	1000.0
301.03513	60.0
397.05249	20.0
432.09357	10.0
519.10693	20.0
564.10388	10.0
564.14062	10.0
564.31598	10.0
565.12073	980.0
569.09778	10.0

NAME:  NCGC00384527-01!2-(3,4-dihydroxyphenyl)-5,8-dihydroxy-7-methoxy-3-[(2S,3R,4R,5R,6S)-3,4,5-trihydroxy-6-methyloxan-2-yl]oxychromen-4-one
PRECURSORMZ:  477.10384969583
PRECURSORTYPE:  [M-H]-
FORMULA:  C22H22O12
Ontology: Kingdom: Organic compounds;Superclass: Phenylpropanoids and polyketides;Class: Flavonoids;Subclass: Flavonoid glycosides
INCHIKEY:  PTUBUBVQXWVBPI-UHFFFAOYNA-N
SMILES:  COC1=C(O)C2=C(C(O)=C1)C(=O)C(OC1OC(C)C(O)C(O)C1O)=C(O2)C1=CC(O)=C(O)C=C1
RETENTIONTIME:  
CCS:  215.2697493
IONMODE:  Negative
INSTRUMENTTYPE:  
INSTRUMENT:  Maxis II HD Q-TOF Bruker
COLLISIONENERGY:  
Comment:  DB#=CCMSLIB00000845987; origin=GNPS
Num Peaks:  25
149.01759	10.0
150.65002	10.0
162.45757	30.0
165.98604	50.0
166.21756	10.0
175.5797	20.0
181.00839	10.0
189.0218	10.0
231.46872	20.0
243.02512	20.0
244.03911	20.0
270.01508	40.0
287.01669	90.0
301.03345	40.0
303.05298	50.0
314.02884	10.0
315.01663	280.0
316.021	90.0
329.07123	20.0
330.03799	1000.0
330.29758	30.0
331.04718	570.0
332.04718	20.0
476.45248	10.0
477.10312	820.0

NAME:  NCGC00384527-01!2-(3,4-dihydroxyphenyl)-5,8-dihydroxy-7-methoxy-3-[(2S,3R,4R,5R,6S)-3,4,5-trihydroxy-6-methyloxan-2-yl]oxychromen-4-one
PRECURSORMZ:  513.0805274079
PRECURSORTYPE:  [M+Cl]-
FORMULA:  C22H22O12
Ontology: Kingdom: Organic compounds;Superclass: Phenylpropanoids and polyketides;Class: Flavonoids;Subclass: Flavonoid glycosides
INCHIKEY:  PTUBUBVQXWVBPI-UHFFFAOYNA-N
SMILES:  COC1=C(O)C2=C(C(O)=C1)C(=O)C(OC1OC(C)C(O)C(O)C1O)=C(O2)C1=CC(O)=C(O)C=C1
RETENTIONTIME:  
CCS:  -1
IONMODE:  Negative
INSTRUMENTTYPE:  
INSTRUMENT:  Maxis II HD Q-TOF Bruker
COLLISIONENERGY:  
Comment:  DB#=CCMSLIB00000845990; origin=GNPS
Num Peaks:  7
149.02773	170.0
215.05348	180.0
315.01556	310.0
330.04514	320.0
331.04105	380.0
477.10284	1000.0
1023.79724	800.0

NAME:  NCGC00384527-01!2-(3,4-dihydroxyphenyl)-5,8-dihydroxy-7-methoxy-3-[(2S,3R,4R,5R,6S)-3,4,5-trihydroxy-6-methyloxan-2-yl]oxychromen-4-one
PRECURSORMZ:  523.10932869583
PRECURSORTYPE:  [M+FA-H]-
FORMULA:  C22H22O12
Ontology: Kingdom: Organic compounds;Superclass: Phenylpropanoids and polyketides;Class: Flavonoids;Subclass: Flavonoid glycosides
INCHIKEY:  PTUBUBVQXWVBPI-UHFFFAOYNA-N
SMILES:  COC1=C(O)C2=C(C(O)=C1)C(=O)C(OC1OC(C)C(O)C(O)C1O)=C(O2)C1=CC(O)=C(O)C=C1
RETENTIONTIME:  
CCS:  -1
IONMODE:  Negative
INSTRUMENTTYPE:  
INSTRUMENT:  Maxis II HD Q-TOF Bruker
COLLISIONENERGY:  
Comment:  DB#=CCMSLIB00000845992; origin=GNPS
Num Peaks:  8
111.00826	130.0
124.01744	270.0
208.00121	130.0
317.0228	70.0
377.03183	130.0
379.08081	90.0
523.10413	1000.0
1657.46411	490.0

NAME:  NCGC00384674-01!8-[5,7-dihydroxy-2-(4-hydroxyphenyl)-4-oxochromen-8-yl]-5,7-dihydroxy-2-(4-hydroxyphenyl)chromen-4-one
PRECURSORMZ:  583.08819932783
PRECURSORTYPE:  [M+FA-H]-
FORMULA:  C30H18O10
Ontology: Kingdom: Organic compounds;Superclass: Phenylpropanoids and polyketides;Class: Flavonoids;Subclass: Biflavonoids and polyflavonoids
INCHIKEY:  LADPNODMUXOPRG-UHFFFAOYSA-N
SMILES:  OC1=CC=C(C=C1)C1=CC(=O)C2=C(O1)C(=C(O)C=C2O)C1=C(O)C=C(O)C2=C1OC(=CC2=O)C1=CC=C(O)C=C1
RETENTIONTIME:  
CCS:  -1
IONMODE:  Negative
INSTRUMENTTYPE:  
INSTRUMENT:  Maxis II HD Q-TOF Bruker
COLLISIONENERGY:  
Comment:  DB#=CCMSLIB00000845994; origin=GNPS
Num Peaks:  12
107.01168	20.0
117.03091	20.0
151.00288	310.0
220.07362	10.0
267.03473	20.0
375.06134	30.0
385.07358	220.0
409.04572	10.0
427.08575	20.0
443.04208	150.0
493.08994	20.0
537.08099	1000.0

NAME:  NCGC00169225-02!methyl 5-hydroxy-2-(2-hydroxy-6-methoxy-4-methylbenzoyl)-3-methoxybenzoate
PRECURSORMZ:  345.09797646783
PRECURSORTYPE:  [M-H]-
FORMULA:  C18H18O7
Ontology: Kingdom: Organic compounds;Superclass: Benzenoids;Class: Benzene and substituted derivatives;Subclass: Benzophenones
INCHIKEY:  XJOBKBUGVMLSEJ-UHFFFAOYSA-N
SMILES:  COC(=O)C1=C(C(=O)C2=C(O)C=C(C)C=C2OC)C(OC)=CC(O)=C1
RETENTIONTIME:  
CCS:  197.3397801
IONMODE:  Negative
INSTRUMENTTYPE:  
INSTRUMENT:  Maxis II HD Q-TOF Bruker
COLLISIONENERGY:  
Comment:  DB#=CCMSLIB00000845995; origin=GNPS
Num Peaks:  3
138.02916	30.0
166.0233	140.0
181.04944	1000.0

NAME:  NCGC00380983-01!
PRECURSORMZ:  691.01901784483
PRECURSORTYPE:  [M-H]-
FORMULA:  C28H24N2O11S4
Ontology: Kingdom: Organic compounds;Superclass: Benzenoids;Class: Benzene and substituted derivatives;Subclass: Diphenylethers
INCHIKEY:  XAOSFOYYQINANH-UHFFFAOYNA-N
SMILES:  COC1=C(OC2=C(O)C=CC(C=O)=C2)C=C(C=C1)C(=O)OC1C=COC=C2C(O)C34SSSSC(OC)(N(C)C3=O)C(=O)N4C12
RETENTIONTIME:  
CCS:  -1
IONMODE:  Negative
INSTRUMENTTYPE:  
INSTRUMENT:  Maxis II HD Q-TOF Bruker
COLLISIONENERGY:  
Comment:  DB#=CCMSLIB00000845997; origin=GNPS
Num Peaks:  40
76.0144	30.0
95.91887	70.0
125.00265	10.0
136.01804	50.0
136.6394	30.0
137.02362	250.0
143.37073	20.0
151.03841	90.0
158.96741	30.0
170.98257	20.0
183.04488	20.0
186.96533	30.0
187.0175	20.0
210.98721	20.0
211.04126	80.0
225.05246	30.0
225.12048	30.0
228.03355	30.0
228.14986	20.0
231.02315	30.0
243.07106	20.0
249.0334	20.0
255.03027	80.0
259.05161	30.0
260.03958	20.0
278.99435	10.0
279.04623	10.0
286.92636	10.0
287.05521	1000.0
287.29755	10.0
287.40656	10.0
293.01224	20.0
301.0744	30.0
347.01343	20.0
402.14374	10.0
417.1506	10.0
426.06839	30.0
515.10883	20.0
545.10388	20.0
567.06714	60.0

NAME:  NCGC00381440-01!(2S,3S)-3-decyl-2-hydroxy-2-(3-methoxy-3-oxopropyl)butanedioic acid
PRECURSORMZ:  359.20752691783
PRECURSORTYPE:  [M-H]-
FORMULA:  C18H32O7
Ontology: Kingdom: Organic compounds;Superclass: Organic acids and derivatives;Class: Carboxylic acids and derivatives;Subclass: Tricarboxylic acids and derivatives
INCHIKEY:  GTLYLWQDKQVONL-UHFFFAOYNA-N
SMILES:  CCCCCCCCCCC(C(O)=O)C(O)(CCC(=O)OC)C(O)=O
RETENTIONTIME:  
CCS:  -1
IONMODE:  Negative
INSTRUMENTTYPE:  
INSTRUMENT:  Maxis II HD Q-TOF Bruker
COLLISIONENERGY:  
Comment:  DB#=CCMSLIB00000846000; origin=GNPS
Num Peaks:  13
145.01231	110.0
159.03014	1000.0
237.18408	310.0
239.20294	870.0
265.18436	110.0
282.53003	80.0
282.59341	90.0
283.19183	310.0
283.5806	120.0
286.14819	100.0
297.20584	180.0
327.18362	500.0
359.21066	420.0

NAME:  NCGC00347582-02![4,5-dihydroxy-3,4-bis(hydroxymethyl)-4a,8,8-trimethyl-5,6,7,8a-tetrahydro-1H-naphthalen-1-yl] hexanoate
PRECURSORMZ:  429.24939142683
PRECURSORTYPE:  [M+FA-H]-
FORMULA:  C21H36O6
Ontology: Kingdom: Organic compounds;Superclass: Lipids and lipid;Class: Fatty Acyls;Subclass: Fatty acid esters
INCHIKEY:  PBKUOHTZGOWWBK-UHFFFAOYNA-N
SMILES:  CCCCCC(=O)OC1C=C(CO)C(O)(CO)C2(C)C(O)CCC(C)(C)C12
RETENTIONTIME:  
CCS:  -1
IONMODE:  Negative
INSTRUMENTTYPE:  
INSTRUMENT:  Maxis II HD Q-TOF Bruker
COLLISIONENERGY:  
Comment:  DB#=CCMSLIB00000846002; origin=GNPS
Num Peaks:  6
115.07549	1000.0
175.10458	30.0
189.13191	50.0
231.15144	80.0
249.14113	60.0
383.23727	160.0

NAME:  NCGC00091057-07!(2R,3R)-3,5,7-trihydroxy-2-[(2R,3R)-3-(4-hydroxy-3-methoxyphenyl)-2-(hydroxymethyl)-2,3-dihydro-1,4-benzodioxin-6-yl]-2,3-dihydrochromen-4-one
PRECURSORMZ:  481.11402045583
PRECURSORTYPE:  [M-H]-
FORMULA:  C25H22O10
Ontology: Kingdom: Organic compounds;Superclass: Lignans;Class: Flavonolignans;
INCHIKEY:  SEBFKMXJBCUCAI-UHFFFAOYNA-N
SMILES:  COC1=C(O)C=CC(=C1)C1OC2=C(OC1CO)C=CC(=C2)C1OC2=CC(O)=CC(O)=C2C(=O)C1O
RETENTIONTIME:  
CCS:  209.5331451
IONMODE:  Negative
INSTRUMENTTYPE:  
INSTRUMENT:  Maxis II HD Q-TOF Bruker
COLLISIONENERGY:  
Comment:  DB#=CCMSLIB00000846003; origin=GNPS
Num Peaks:  34
124.01691	100.0
125.02457	270.0
127.20502	20.0
146.03685	50.0
147.04573	50.0
149.02351	90.0
150.99722	180.0
152.01323	80.0
159.05708	190.0
159.46877	30.0
163.03777	90.0
164.01036	100.0
175.00351	30.0
178.99927	230.0
180.00661	150.0
191.03842	80.0
213.05783	90.0
215.02985	70.0
217.0442	140.0
219.23564	60.0
230.06653	50.0
231.40935	70.0
253.32011	30.0
257.03061	60.0
258.04556	50.0
273.04593	150.0
285.04947	80.0
301.03644	760.0
435.10394	120.0
437.11792	40.0
451.09415	50.0
453.11829	380.0
463.10394	70.0
481.11584	1000.0

NAME:  NCGC00180071-02!8-[(2R,3S)-5,7-dihydroxy-2-(4-hydroxyphenyl)-4-oxo-2,3-dihydrochromen-3-yl]-5,7-dihydroxy-2-(4-hydroxyphenyl)chromen-4-one
PRECURSORMZ:  539.09837039183
PRECURSORTYPE:  [M-H]-
FORMULA:  C30H20O10
Ontology: Kingdom: Organic compounds;Superclass: Phenylpropanoids and polyketides;Class: Flavonoids;Subclass: Biflavonoids and polyflavonoids
INCHIKEY:  YOGANETYFUQWIM-UHFFFAOYNA-N
SMILES:  OC1=CC=C(C=C1)C1OC2=CC(O)=CC(O)=C2C(=O)C1C1=C(O)C=C(O)C2=C1OC(=CC2=O)C1=CC=C(O)C=C1
RETENTIONTIME:  
CCS:  244.4521031
IONMODE:  Negative
INSTRUMENTTYPE:  
INSTRUMENT:  Maxis II HD Q-TOF Bruker
COLLISIONENERGY:  
Comment:  DB#=CCMSLIB00000846006; origin=GNPS
Num Peaks:  12
101.035	40.0
117.03554	70.0
142.1812	20.0
151.00362	1000.0
209.06142	60.0
239.0356	40.0
385.07758	40.0
387.0947	280.0
387.2919	30.0
389.06668	10.0
413.06674	1000.0
433.05841	20.0

NAME:  NCGC00180071-02!8-[(2R,3S)-5,7-dihydroxy-2-(4-hydroxyphenyl)-4-oxo-2,3-dihydrochromen-3-yl]-5,7-dihydroxy-2-(4-hydroxyphenyl)chromen-4-one
PRECURSORMZ:  585.10384939183
PRECURSORTYPE:  [M+FA-H]-
FORMULA:  C30H20O10
Ontology: ;;;
INCHIKEY:  YOGANETYFUQWIM-UHFFFAOYNA-N
SMILES:  OC1=CC=C(C=C1)C1OC2=CC(O)=CC(O)=C2C(=O)C1C1=C(O)C=C(O)C2=C1OC(=CC2=O)C1=CC=C(O)C=C1
RETENTIONTIME:  
CCS:  -1
IONMODE:  Negative
INSTRUMENTTYPE:  
INSTRUMENT:  Maxis II HD Q-TOF Bruker
COLLISIONENERGY:  
Comment:  DB#=CCMSLIB00000846007; origin=GNPS
Num Peaks:  20
86.38062	10.0
107.01489	60.0
125.02606	130.0
132.58664	20.0
150.80144	20.0
151.00348	1000.0
212.09454	10.0
335.06561	20.0
385.07306	10.0
387.09286	170.0
409.31564	10.0
411.77957	10.0
412.03488	10.0
412.07516	20.0
412.86893	20.0
413.06631	880.0
432.05975	30.0
433.06012	50.0
445.0556	40.0
539.10034	250.0

NAME:  NCGC00381441-01!2-[[6-[[17-[5,6-dimethyl-3-[3,4,5-trihydroxy-6-(hydroxymethyl)oxan-2-yl]oxyhept-5-en-2-yl]-1-hydroxy-10,13-dimethyl-2,3,4,7,8,9,11,12,14,15,16,17-dodecahydro-1H-cyclopenta[a]phenanthren-3-yl]oxy]-3,4,5-trihydroxyoxan-2-yl]methoxy]-6-(hydroxymethyl)oxane-3,4,5-triol
PRECURSORMZ:  961.50136815483
PRECURSORTYPE:  [M+FA-H]-
FORMULA:  C46H76O18
Ontology: Kingdom: Organic compounds;Superclass: Lipids and lipid;Class: Steroids and steroid derivatives;Subclass: Steroidal glycosides
INCHIKEY:  HBCGNAJUSBIBGA-UHFFFAOYNA-N
SMILES:  CC(C(CC(C)=C(C)C)OC1OC(CO)C(O)C(O)C1O)C1CCC2C3CC=C4CC(CC(O)C4(C)C3CCC12C)OC1OC(COC2OC(CO)C(O)C(O)C2O)C(O)C(O)C1O
RETENTIONTIME:  
CCS:  -1
IONMODE:  Negative
INSTRUMENTTYPE:  
INSTRUMENT:  Maxis II HD Q-TOF Bruker
COLLISIONENERGY:  
Comment:  DB#=CCMSLIB00000846009; origin=GNPS
Num Peaks:  41
71.01556	20.0
89.02357	80.0
95.01084	30.0
99.00928	20.0
101.02312	90.0
113.02459	190.0
119.03342	170.0
125.02603	40.0
126.02768	10.0
131.03362	90.0
141.01686	10.0
143.02953	20.0
149.04565	50.0
161.04642	360.0
162.04652	10.0
179.05595	480.0
180.06255	30.0
182.11827	20.0
191.05754	30.0
221.06686	410.0
245.06412	20.0
251.07492	20.0
263.0777	90.0
305.08679	20.0
341.10745	10.0
437.97113	10.0
573.40515	10.0
722.72217	20.0
725.55676	20.0
735.42566	20.0
753.42651	20.0
854.74133	10.0
911.9444	10.0
912.43701	10.0
914.39752	10.0
914.49969	10.0
915.1474	10.0
915.49347	1000.0
916.00543	10.0
916.49963	280.0
964.55023	10.0

NAME:  NCGC00385984-01!2-(3,5-dihydroxyphenyl)-5,7-dihydroxy-6,8-bis(3-methylbut-2-enyl)-2,3-dihydrochromen-4-one
PRECURSORMZ:  423.18131216983
PRECURSORTYPE:  [M-H]-
FORMULA:  C25H28O6
Ontology: Kingdom: Organic compounds;Superclass: Phenylpropanoids and polyketides;Class: Flavonoids;Subclass: Flavans
INCHIKEY:  OKBQXURKDRNMAB-UHFFFAOYNA-N
SMILES:  CC(C)=CCC1=C(O)C(CC=C(C)C)=C2OC(CC(=O)C2=C1O)C1=CC(O)=CC(O)=C1
RETENTIONTIME:  
CCS:  234.4442353
IONMODE:  Negative
INSTRUMENTTYPE:  
INSTRUMENT:  Maxis II HD Q-TOF Bruker
COLLISIONENERGY:  
Comment:  DB#=CCMSLIB00000846011; origin=GNPS
Num Peaks:  6
115.89083	40.0
135.0475	720.0
188.08502	210.0
261.15414	120.0
287.13104	1000.0
423.17993	440.0

NAME:  NCGC00385984-01!2-(3,5-dihydroxyphenyl)-5,7-dihydroxy-6,8-bis(3-methylbut-2-enyl)-2,3-dihydrochromen-4-one
PRECURSORMZ:  469.18679116983
PRECURSORTYPE:  [M+FA-H]-
FORMULA:  C25H28O6
Ontology: Kingdom: Organic compounds;Superclass: Phenylpropanoids and polyketides;Class: Flavonoids;Subclass: Flavans
INCHIKEY:  OKBQXURKDRNMAB-UHFFFAOYNA-N
SMILES:  CC(C)=CCC1=C(O)C(CC=C(C)C)=C2OC(CC(=O)C2=C1O)C1=CC(O)=CC(O)=C1
RETENTIONTIME:  
CCS:  -1
IONMODE:  Negative
INSTRUMENTTYPE:  
INSTRUMENT:  Maxis II HD Q-TOF Bruker
COLLISIONENERGY:  
Comment:  DB#=CCMSLIB00000846014; origin=GNPS
Num Peaks:  6
135.05043	510.0
225.71956	70.0
243.1391	150.0
261.14526	40.0
287.12939	660.0
423.18088	1000.0

NAME:  NCGC00380672-01!2-[3-(6-acetyloxy-2-hydroxy-6-methyl-3-oxoheptan-2-yl)-6-(carboxymethyl)-2-hydroxy-3a,5a,9b-trimethyl-5-oxo-2,3,4,6,9,9a-hexahydro-1H-cyclopenta[a]naphthalen-7-yl]-2-methylpropanoic acid
PRECURSORMZ:  591.31747129383
PRECURSORTYPE:  [M-H]-
FORMULA:  C32H48O10
Ontology: ;;;
INCHIKEY:  JRWYAESVJOLYCQ-UHFFFAOYNA-N
SMILES:  CC(=O)OC(C)(C)CCC(=O)C(C)(O)C1C(O)CC2(C)C3CC=C(C(CC(O)=O)C3(C)C(=O)CC12C)C(C)(C)C(O)=O
RETENTIONTIME:  
CCS:  -1
IONMODE:  Negative
INSTRUMENTTYPE:  
INSTRUMENT:  Maxis II HD Q-TOF Bruker
COLLISIONENERGY:  
Comment:  DB#=CCMSLIB00000846016; origin=GNPS
Num Peaks:  33
71.51231	10.0
120.05629	30.0
134.82956	10.0
135.08275	1000.0
137.05783	30.0
149.27252	10.0
153.09343	80.0
173.11781	40.0
213.14359	10.0
263.10977	20.0
285.21674	20.0
287.20679	10.0
289.1777	10.0
289.99893	10.0
299.20886	10.0
313.17227	20.0
329.22571	10.0
331.19278	80.0
333.19891	20.0
351.22421	10.0
375.21594	10.0
388.21713	20.0
393.22928	30.0
400.21701	10.0
425.31607	20.0
432.21942	20.0
441.29788	20.0
469.29889	80.0
487.30493	110.0
529.31396	20.0
547.32184	50.0
573.34021	20.0
591.31769	270.0

NAME:  NCGC00169437-02!5-[6-[[3,4-dihydroxy-4-(hydroxymethyl)oxolan-2-yl]oxymethyl]-3,4,5-trihydroxyoxan-2-yl]oxy-4-(3,4-dihydroxyphenyl)-7-methoxychromen-2-one
PRECURSORMZ:  593.15119381383
PRECURSORTYPE:  [M-H]-
FORMULA:  C27H30O15
Ontology: Kingdom: Organic compounds;Superclass: Phenylpropanoids and polyketides;Class: Coumarins and derivatives;Subclass: Coumarin glycosides
INCHIKEY:  KNCNSYQYJUBLPW-UHFFFAOYNA-N
SMILES:  COC1=CC2=C(C(OC3OC(COC4OCC(O)(CO)C4O)C(O)C(O)C3O)=C1)C(=CC(=O)O2)C1=CC(O)=C(O)C=C1
RETENTIONTIME:  
CCS:  239.2200965
IONMODE:  Negative
INSTRUMENTTYPE:  
INSTRUMENT:  Maxis II HD Q-TOF Bruker
COLLISIONENERGY:  
Comment:  DB#=CCMSLIB00000846017; origin=GNPS
Num Peaks:  3
284.03098	40.0
299.0582	1000.0
593.15387	140.0

NAME:  NCGC00169437-02!5-[6-[[3,4-dihydroxy-4-(hydroxymethyl)oxolan-2-yl]oxymethyl]-3,4,5-trihydroxyoxan-2-yl]oxy-4-(3,4-dihydroxyphenyl)-7-methoxychromen-2-one
PRECURSORMZ:  629.1278715259
PRECURSORTYPE:  [M+Cl]-
FORMULA:  C27H30O15
Ontology: Kingdom: Organic compounds;Superclass: Phenylpropanoids and polyketides;Class: Coumarins and derivatives;Subclass: Coumarin glycosides
INCHIKEY:  KNCNSYQYJUBLPW-UHFFFAOYNA-N
SMILES:  COC1=CC2=C(C(OC3OC(COC4OCC(O)(CO)C4O)C(O)C(O)C3O)=C1)C(=CC(=O)O2)C1=CC(O)=C(O)C=C1
RETENTIONTIME:  
CCS:  -1
IONMODE:  Negative
INSTRUMENTTYPE:  
INSTRUMENT:  Maxis II HD Q-TOF Bruker
COLLISIONENERGY:  
Comment:  DB#=CCMSLIB00000846020; origin=GNPS
Num Peaks:  5
292.69623	40.0
293.16666	120.0
298.20853	60.0
299.05679	1000.0
593.15308	340.0

NAME:  NCGC00380675-01![(2R,3S,4S,5R,6R)-6-[1,7-bis(3,4-dihydroxyphenyl)-5-oxoheptan-3-yl]oxy-3,4,5-trihydroxyoxan-2-yl]methyl (E)-3-(3,4-dimethoxyphenyl)prop-2-enoate
PRECURSORMZ:  697.25017957983
PRECURSORTYPE:  [M-H]-
FORMULA:  C36H42O14
Ontology: Kingdom: Organic compounds;Superclass: Phenylpropanoids and polyketides;Class: Diarylheptanoids;Subclass: Linear diarylheptanoids
INCHIKEY:  QXXKEARZEYWTST-UHFFFAOYNA-N
SMILES:  COC1=C(OC)C=C(C=CC(=O)OCC2OC(OC(CCC3=CC(O)=C(O)C=C3)CC(=O)CCC3=CC(O)=C(O)C=C3)C(O)C(O)C2O)C=C1
RETENTIONTIME:  
CCS:  302.5496913
IONMODE:  Negative
INSTRUMENTTYPE:  
INSTRUMENT:  Maxis II HD Q-TOF Bruker
COLLISIONENERGY:  
Comment:  DB#=CCMSLIB00000846022; origin=GNPS
Num Peaks:  13
121.02979	80.0
147.04735	20.0
187.07906	10.0
204.07706	10.0
205.08904	370.0
207.06575	30.0
221.08243	20.0
249.07358	20.0
325.10837	30.0
326.11673	20.0
327.12411	1000.0
328.12488	10.0
697.24927	70.0

NAME:  NCGC00380674-01![5-(5-acetyloxy-3,4-dihydroxy-6-methyloxan-2-yl)oxy-2-[6-[4-[3,4-dihydroxy-5-(hydroxymethyl)oxolan-2-yl]oxy-2,6-dihydroxy-3-[3-(4-hydroxyphenyl)propanoyl]phenyl]-4,5-dihydroxy-2-methyloxan-3-yl]oxy-3-hydroxy-6-methyloxan-4-yl] (E)-3-(4-hydroxyphenyl)prop-2-enoate
PRECURSORMZ:  1031.34017635983
PRECURSORTYPE:  [M-H]-
FORMULA:  C49H60O24
Ontology: Kingdom: Organic compounds;Superclass: Organic oxygen compounds;Class: Organooxygen compounds;Subclass: Carbohydrates and carbohydrate conjugates
INCHIKEY:  RMVGZKPTURZUMZ-UHFFFAOYNA-N
SMILES:  CC1OC(C(O)C(O)C1OC1OC(C)C(OC2OC(C)C(OC(C)=O)C(O)C2O)C(OC(=O)C=CC2=CC=C(O)C=C2)C1O)C1=C(O)C(C(=O)CCC2=CC=C(O)C=C2)=C(OC2OC(CO)C(O)C2O)C=C1O
RETENTIONTIME:  
CCS:  -1
IONMODE:  Negative
INSTRUMENTTYPE:  
INSTRUMENT:  Maxis II HD Q-TOF Bruker
COLLISIONENERGY:  
Comment:  DB#=CCMSLIB00000846024; origin=GNPS
Num Peaks:  71
93.03671	20.0
105.0345	10.0
119.0507	90.0
137.02232	10.0
147.04613	20.0
149.02779	40.0
163.04044	80.0
173.06625	10.0
175.03987	10.0
177.01903	20.0
178.02852	10.0
179.03554	90.0
189.02135	20.0
189.05698	60.0
190.02838	20.0
191.03555	100.0
193.05011	30.0
203.03432	30.0
204.04115	40.0
205.05193	60.0
207.03391	10.0
208.04149	10.0
217.05188	20.0
218.02365	20.0
219.02917	30.0
221.04716	70.0
231.02847	10.0
232.03989	20.0
233.04608	590.0
234.04753	20.0
235.06023	30.0
245.0448	90.0
259.0629	20.0
277.07413	90.0
285.077	10.0
286.08569	10.0
309.07745	10.0
311.08661	10.0
312.06461	10.0
327.08673	140.0
328.09537	10.0
338.07916	80.0
339.08813	1000.0
340.09048	80.0
355.08789	10.0
365.1037	10.0
383.11432	80.0
385.11148	10.0
457.14444	20.0
469.13785	30.0
495.15692	10.0
511.14221	30.0
513.16193	10.0
533.16382	20.0
589.19421	110.0
590.19037	30.0
605.19489	30.0
617.18811	250.0
618.18652	60.0
661.21301	50.0
662.22308	10.0
679.2262	30.0
811.26953	120.0
812.26788	20.0
825.26538	10.0
867.29382	440.0
868.2959	130.0
869.30878	20.0
885.30237	120.0
886.30756	20.0
1031.33667	30.0

NAME:  NCGC00179718-03!(1S,3R,4R,5R)-3,4-bis[[(E)-3-(3,4-dihydroxyphenyl)prop-2-enoyl]oxy]-1,5-dihydroxycyclohexane-1-carboxylic acid
PRECURSORMZ:  515.11949976083
PRECURSORTYPE:  [M-H]-
FORMULA:  C25H24O12
Ontology: Kingdom: Organic compounds;Superclass: Organic oxygen compounds;Class: Organooxygen compounds;Subclass: Alcohols and polyols
INCHIKEY:  UFCLZKMFXSILNL-UHFFFAOYNA-N
SMILES:  OC1CC(O)(CC(OC(=O)C=CC2=CC(O)=C(O)C=C2)C1OC(=O)C=CC1=CC(O)=C(O)C=C1)C(O)=O
RETENTIONTIME:  
CCS:  208.9993028
IONMODE:  Negative
INSTRUMENTTYPE:  
INSTRUMENT:  Maxis II HD Q-TOF Bruker
COLLISIONENERGY:  
Comment:  DB#=CCMSLIB00000846025; origin=GNPS
Num Peaks:  15
111.04198	20.0
115.24819	20.0
127.0362	30.0
134.03445	30.0
135.04256	140.0
173.04706	770.0
179.03572	340.0
180.67816	10.0
191.0571	260.0
203.03757	30.0
255.07053	20.0
351.25037	20.0
352.28586	10.0
353.08789	1000.0
515.11334	40.0

NAME:  NCGC00385686-01!3-(2,4-dihydroxyphenyl)-5,7-dihydroxy-6,8-bis(3-methylbut-2-enyl)chromen-4-one
PRECURSORMZ:  421.16566210483
PRECURSORTYPE:  [M-H]-
FORMULA:  C25H26O6
Ontology: Kingdom: Organic compounds;Superclass: Phenylpropanoids and polyketides;Class: Isoflavonoids;Subclass: Isoflavans
INCHIKEY:  VYELCIXMHUBNAL-UHFFFAOYSA-N
SMILES:  CC(C)=CCC1=C(O)C(CC=C(C)C)=C2OC=C(C(=O)C2=C1O)C1=C(O)C=C(O)C=C1
RETENTIONTIME:  
CCS:  229.2388507
IONMODE:  Negative
INSTRUMENTTYPE:  
INSTRUMENT:  Maxis II HD Q-TOF Bruker
COLLISIONENERGY:  
Comment:  DB#=CCMSLIB00000846027; origin=GNPS
Num Peaks:  17
148.01492	30.0
201.02039	40.0
201.05141	30.0
205.55943	10.0
219.14113	20.0
267.10001	30.0
284.03284	20.0
287.13977	40.0
291.09674	10.0
298.06445	30.0
309.0397	30.0
323.16379	30.0
351.08618	20.0
377.099	30.0
391.11789	30.0
421.16217	1000.0
422.16296	40.0

NAME:  NCGC00385721-01![(2R,3R,4S,5R,6S)-6-[5,7-dihydroxy-4-oxo-2-(3,4,5-trihydroxyphenyl)chromen-3-yl]oxy-3,4,5-trihydroxyoxan-2-yl]methyl 3,4,5-trihydroxybenzoate
PRECURSORMZ:  631.09407286083
PRECURSORTYPE:  [M-H]-
FORMULA:  C28H24O17
Ontology: Kingdom: Organic compounds;Superclass: Phenylpropanoids and polyketides;Class: Flavonoids;Subclass: Flavonoid glycosides
INCHIKEY:  FOMYLMGOSTVYEE-UHFFFAOYNA-N
SMILES:  OC1C(O)C(COC(=O)C2=CC(O)=C(O)C(O)=C2)OC(OC2=C(OC3=CC(O)=CC(O)=C3C2=O)C2=CC(O)=C(O)C(O)=C2)C1O
RETENTIONTIME:  
CCS:  242.9699486
IONMODE:  Negative
INSTRUMENTTYPE:  
INSTRUMENT:  Maxis II HD Q-TOF Bruker
COLLISIONENERGY:  
Comment:  DB#=CCMSLIB00000846030; origin=GNPS
Num Peaks:  29
123.00796	20.0
151.00139	20.0
155.6086	10.0
167.03629	10.0
169.01344	50.0
178.99812	30.0
204.05379	10.0
211.02638	20.0
236.63835	10.0
241.03322	20.0
242.02019	20.0
251.10965	10.0
259.02582	10.0
270.0202	40.0
271.02356	70.0
271.04974	30.0
287.0213	40.0
288.01892	20.0
289.03687	10.0
299.02005	80.0
313.05966	10.0
315.01093	10.0
316.02295	960.0
317.03134	150.0
478.94586	20.0
479.0845	660.0
488.37268	10.0
631.09424	1000.0
632.09009	40.0

NAME:  NCGC00384982-01!3,9,10-trihydroxy-4-(methoxymethyl)-1,7-dimethyl-6-oxobenzo[b][1,4]benzodioxepine-2-carboxylic acid
PRECURSORMZ:  375.07215564283
PRECURSORTYPE:  [M-H]-
FORMULA:  C18H16O9
Ontology: Kingdom: Organic compounds;Superclass: Phenylpropanoids and polyketides;Class: Depsides and depsidones;
INCHIKEY:  FXGOBECSEIQDAS-UHFFFAOYSA-N
SMILES:  COCC1=C(O)C(C(O)=O)=C(C)C2=C1OC(=O)C1=C(O2)C(O)=C(O)C=C1C
RETENTIONTIME:  
CCS:  -1
IONMODE:  Negative
INSTRUMENTTYPE:  
INSTRUMENT:  Maxis II HD Q-TOF Bruker
COLLISIONENERGY:  
Comment:  DB#=CCMSLIB00000846032; origin=GNPS
Num Peaks:  19
133.25563	50.0
135.04549	290.0
135.87137	120.0
137.02139	880.0
143.08121	120.0
163.00272	140.0
179.03174	480.0
225.05942	140.0
255.06664	290.0
271.05408	380.0
287.08609	140.0
299.05646	1000.0
325.02087	80.0
342.6514	40.0
342.7095	30.0
343.04977	190.0
375.0675	210.0
375.09973	110.0
720.53662	550.0

NAME:  NCGC00385001-01!5-[3-[[(E)-3-(3,4-dihydroxyphenyl)prop-2-enoyl]oxymethyl]-5-hydroxypentyl]-5,6,8a-trimethyl-3,4,4a,6,7,8-hexahydronaphthalene-1-carboxylic acid
PRECURSORMZ:  499.27012717583
PRECURSORTYPE:  [M-H]-
FORMULA:  C29H40O7
Ontology: Kingdom: Organic compounds;Superclass: Lipids and lipid;Class: Prenol lipids;Subclass: Diterpenoids
INCHIKEY:  UVGRPMWFXIDHJC-UHFFFAOYNA-N
SMILES:  CC1CCC2(C)C(CCC=C2C(O)=O)C1(C)CCC(CCO)COC(=O)C=CC1=CC(O)=C(O)C=C1
RETENTIONTIME:  
CCS:  -1
IONMODE:  Negative
INSTRUMENTTYPE:  
INSTRUMENT:  Maxis II HD Q-TOF Bruker
COLLISIONENERGY:  
Comment:  DB#=CCMSLIB00000846034; origin=GNPS
Num Peaks:  15
133.03207	30.0
134.03767	20.0
161.02429	210.0
179.02782	50.0
185.62471	10.0
411.24295	20.0
413.26804	20.0
454.29578	10.0
455.28491	160.0
481.25848	190.0
498.28806	30.0
499.26688	1000.0
499.47513	10.0
503.04922	20.0
517.91412	10.0

NAME:  NCGC00385008-01!3-[4-[5-(acetyloxymethyl)-3,4-dihydroxyoxolan-2-yl]oxy-3-(2,5-dihydroxy-6-methylhept-6-en-2-yl)-6,9a,9b-trimethyl-7-prop-1-en-2-yl-1,2,3,3a,4,5,5a,7,8,9-decahydrocyclopenta[a]naphthalen-6-yl]propanoic acid
PRECURSORMZ:  663.41137167983
PRECURSORTYPE:  [M-H]-
FORMULA:  C37H60O10
Ontology: ;;;
INCHIKEY:  GVVZGEKYZVYQLY-UHFFFAOYNA-N
SMILES:  CC(=O)OCC1OC(OC2CC3C(C)(CCC(O)=O)C(CCC3(C)C3(C)CCC(C23)C(C)(O)CCC(O)C(C)=C)C(C)=C)C(O)C1O
RETENTIONTIME:  
CCS:  -1
IONMODE:  Negative
INSTRUMENTTYPE:  
INSTRUMENT:  Maxis II HD Q-TOF Bruker
COLLISIONENERGY:  
Comment:  DB#=CCMSLIB00000846035; origin=GNPS
Num Peaks:  17
102.34686	30.0
311.2269	20.0
311.26181	10.0
333.62466	20.0
334.30606	10.0
360.57599	10.0
375.04596	10.0
471.36185	10.0
489.3508	100.0
531.36633	30.0
559.35492	10.0
603.3891	100.0
621.40094	320.0
663.18408	20.0
663.40643	1000.0
663.50781	10.0
664.41901	40.0

NAME:  NCGC00385008-01!3-[4-[5-(acetyloxymethyl)-3,4-dihydroxyoxolan-2-yl]oxy-3-(2,5-dihydroxy-6-methylhept-6-en-2-yl)-6,9a,9b-trimethyl-7-prop-1-en-2-yl-1,2,3,3a,4,5,5a,7,8,9-decahydrocyclopenta[a]naphthalen-6-yl]propanoic acid
PRECURSORMZ:  709.41685067983
PRECURSORTYPE:  [M+FA-H]-
FORMULA:  C37H60O10
Ontology: Kingdom: Organic compounds;Superclass: Lipids and lipid;Class: Prenol lipids;Subclass: Sesterterpenoids
INCHIKEY:  GVVZGEKYZVYQLY-UHFFFAOYNA-N
SMILES:  CC(=O)OCC1OC(OC2CC3C(C)(CCC(O)=O)C(CCC3(C)C3(C)CCC(C23)C(C)(O)CCC(O)C(C)=C)C(C)=C)C(O)C1O
RETENTIONTIME:  
CCS:  -1
IONMODE:  Negative
INSTRUMENTTYPE:  
INSTRUMENT:  Maxis II HD Q-TOF Bruker
COLLISIONENERGY:  
Comment:  DB#=CCMSLIB00000846038; origin=GNPS
Num Peaks:  14
85.02737	10.0
101.02392	10.0
113.02368	20.0
131.03372	10.0
347.02115	20.0
355.29324	20.0
401.30099	30.0
471.3493	110.0
489.36594	70.0
490.36722	20.0
500.89807	10.0
621.40381	20.0
663.40979	1000.0
664.41559	30.0

NAME:  NCGC00384983-01!3-[(2S,4S,6R)-6-[[(2R,3R,4R,5S,6S)-3,5-dihydroxy-6-methyl-4-[(2S,3R,4S,5S,6R)-3,4,5-trihydroxy-6-(hydroxymethyl)oxan-2-yl]oxyoxan-2-yl]oxymethyl]-3,4,5-trihydroxyoxan-2-yl]oxy-5,7-dihydroxy-2-(4-hydroxyphenyl)chromen-4-one
PRECURSORMZ:  755.20401723583
PRECURSORTYPE:  [M-H]-
FORMULA:  C33H40O20
Ontology: Kingdom: Organic compounds;Superclass: Phenylpropanoids and polyketides;Class: Flavonoids;Subclass: Flavonoid glycosides
INCHIKEY:  MFIXKYXSBNIMPX-UHFFFAOYNA-N
SMILES:  CC1OC(OCC2OC(OC3=C(OC4=CC(O)=CC(O)=C4C3=O)C3=CC=C(O)C=C3)C(O)C(O)C2O)C(O)C(OC2OC(CO)C(O)C(O)C2O)C1O
RETENTIONTIME:  
CCS:  272.4926459
IONMODE:  Negative
INSTRUMENTTYPE:  
INSTRUMENT:  Maxis II HD Q-TOF Bruker
COLLISIONENERGY:  
Comment:  DB#=CCMSLIB00000846040; origin=GNPS
Num Peaks:  17
183.0554	10.0
195.0424	10.0
200.04431	20.0
211.03661	10.0
227.03484	110.0
229.05034	80.0
241.04796	20.0
255.02957	150.0
256.03812	30.0
257.0477	50.0
284.03229	380.0
285.04074	1000.0
286.04443	30.0
327.04648	20.0
755.20514	740.0
756.21716	100.0
1141.58179	10.0

NAME:  NCGC00385014-01!(E)-1,7-bis(4-hydroxyphenyl)hept-1-en-3-one
PRECURSORMZ:  341.13944705183
PRECURSORTYPE:  [M+FA-H]-
FORMULA:  C19H20O3
Ontology: Kingdom: Organic compounds;Superclass: Phenylpropanoids and polyketides;Class: Diarylheptanoids;Subclass: Linear diarylheptanoids
INCHIKEY:  IHZRLGRBBLFVBQ-UHFFFAOYSA-N
SMILES:  OC1=CC=C(CCCCC(=O)C=CC2=CC=C(O)C=C2)C=C1
RETENTIONTIME:  
CCS:  -1
IONMODE:  Negative
INSTRUMENTTYPE:  
INSTRUMENT:  Maxis II HD Q-TOF Bruker
COLLISIONENERGY:  
Comment:  DB#=CCMSLIB00000846042; origin=GNPS
Num Peaks:  6
119.05298	20.0
132.05989	40.0
294.17596	30.0
295.13492	1000.0
295.38077	20.0
298.19049	40.0

NAME:  NCGC00385007-01!methyl 4-[1,3-dihydroxy-1-(4-hydroxy-3-methoxyphenyl)propan-2-yl]oxy-3-methoxybenzoate
PRECURSORMZ:  423.12967021583
PRECURSORTYPE:  [M+FA-H]-
FORMULA:  C19H22O8
Ontology: Kingdom: Organic compounds;Superclass: Lignans;;
INCHIKEY:  OMXHMQVMAFLCRB-UHFFFAOYNA-N
SMILES:  COC(=O)C1=CC(OC)=C(OC(CO)C(O)C2=CC(OC)=C(O)C=C2)C=C1
RETENTIONTIME:  
CCS:  -1
IONMODE:  Negative
INSTRUMENTTYPE:  
INSTRUMENT:  Maxis II HD Q-TOF Bruker
COLLISIONENERGY:  
Comment:  DB#=CCMSLIB00000846044; origin=GNPS
Num Peaks:  15
107.01922	60.0
108.39564	60.0
108.79039	100.0
149.01833	130.0
150.03313	410.0
151.00227	60.0
164.05043	80.0
165.05623	1000.0
166.02873	370.0
180.03769	100.0
181.05222	960.0
195.06641	930.0
223.07387	80.0
329.10645	200.0
549.97894	240.0

NAME:  NCGC00095966-03!4-hydroxy-9-(3,4,5-trimethoxyphenyl)-5a,6,8a,9-tetrahydro-5H-[2]benzofuro[5,6-f][1,3]benzodioxol-8-one
PRECURSORMZ:  459.12967021583
PRECURSORTYPE:  [M+FA-H]-
FORMULA:  C22H22O8
Ontology: Kingdom: Organic compounds;Superclass: Lignans;Class: Lignan lactones;
INCHIKEY:  HLBPOYVRLSXWJJ-UHFFFAOYNA-N
SMILES:  COC1=CC(=CC(OC)=C1OC)C1C2C(COC2=O)CC2=C(O)C3=C(OCO3)C=C12
RETENTIONTIME:  
CCS:  -1
IONMODE:  Negative
INSTRUMENTTYPE:  
INSTRUMENT:  Maxis II HD Q-TOF Bruker
COLLISIONENERGY:  
Comment:  DB#=CCMSLIB00000846045; origin=GNPS
Num Peaks:  22
129.52107	20.0
153.05354	20.0
171.04187	20.0
173.05856	50.0
200.02463	20.0
212.69977	10.0
245.04591	20.0
268.07019	30.0
288.10526	30.0
291.07458	30.0
296.08456	20.0
324.0957	30.0
341.10812	20.0
353.0994	20.0
355.07968	50.0
369.13373	30.0
370.1286	20.0
383.08234	20.0
385.13327	10.0
398.09277	50.0
413.12772	1000.0
413.24948	20.0

NAME:  NCGC00385025-01!2-[4-[(E)-2-carboxyethenyl]-2-(3,4-dihydroxyphenyl)-7-hydroxy-2,3-dihydro-1-benzofuran-3-carbonyl]oxy-3-(3,4-dihydroxyphenyl)propanoic acid
PRECURSORMZ:  537.10384969583
PRECURSORTYPE:  [M-H]-
FORMULA:  C27H22O12
Ontology: Kingdom: Organic compounds;Superclass: Phenylpropanoids and polyketides;;
INCHIKEY:  HHKGQYGYEDKXNE-UHFFFAOYNA-N
SMILES:  OC(=O)C=CC1=C2C(C(OC2=C(O)C=C1)C1=CC(O)=C(O)C=C1)C(=O)OC(CC1=CC(O)=C(O)C=C1)C(O)=O
RETENTIONTIME:  
CCS:  -1
IONMODE:  Negative
INSTRUMENTTYPE:  
INSTRUMENT:  Maxis II HD Q-TOF Bruker
COLLISIONENERGY:  
Comment:  DB#=CCMSLIB00000846047; origin=GNPS
Num Peaks:  27
109.03047	40.0
110.76546	20.0
123.04601	60.0
131.05205	30.0
135.04485	180.0
145.21877	40.0
157.03291	20.0
159.04768	50.0
173.02766	110.0
185.02321	390.0
186.03171	140.0
197.04619	170.0
203.04115	40.0
237.05022	40.0
249.05769	30.0
253.04686	30.0
254.06447	10.0
266.0542	20.0
269.08398	40.0
277.05048	40.0
294.30646	30.0
295.06329	1000.0
313.07675	180.0
374.53598	10.0
383.09232	10.0
462.51355	30.0
493.11914	60.0

NAME:  NCGC00169637-02!(2S)-2-(3,4-dihydroxyphenyl)-5-hydroxy-7-[(2S,3R,4S,5S,6R)-3,4,5-trihydroxy-6-(hydroxymethyl)oxan-2-yl]oxy-2,3-dihydrochromen-4-one
PRECURSORMZ:  449.10893507583
PRECURSORTYPE:  [M-H]-
FORMULA:  C21H22O11
Ontology: Kingdom: Organic compounds;Superclass: Phenylpropanoids and polyketides;Class: Flavonoids;Subclass: Flavonoid glycosides
INCHIKEY:  RAFHNDRXYHOLSH-UHFFFAOYNA-N
SMILES:  OCC1OC(OC2=CC(O)=C3C(=O)CC(OC3=C2)C2=CC(O)=C(O)C=C2)C(O)C(O)C1O
RETENTIONTIME:  
CCS:  227.4137512
IONMODE:  Negative
INSTRUMENTTYPE:  
INSTRUMENT:  Maxis II HD Q-TOF Bruker
COLLISIONENERGY:  
Comment:  DB#=CCMSLIB00000846049; origin=GNPS
Num Peaks:  11
78.54722	30.0
83.32253	10.0
125.02201	40.0
135.04549	40.0
151.00407	640.0
175.00049	90.0
205.019	20.0
287.05533	1000.0
313.05524	30.0
329.07245	40.0
449.11032	70.0

NAME:  NCGC00017248-12!2,5-dihydroxy-3-undecylcyclohexa-2,5-diene-1,4-dione
PRECURSORMZ:  293.17583286483
PRECURSORTYPE:  [M-H]-
FORMULA:  C17H26O4
Ontology: Kingdom: Organic compounds;Superclass: Organic oxygen compounds;Class: Organooxygen compounds;Subclass: Carbonyl compounds
INCHIKEY:  IRSFLDGTOHBADP-UHFFFAOYSA-N
SMILES:  CCCCCCCCCCCC1=C(O)C(=O)C=C(O)C1=O
RETENTIONTIME:  
CCS:  176.6308474
IONMODE:  Negative
INSTRUMENTTYPE:  
INSTRUMENT:  Maxis II HD Q-TOF Bruker
COLLISIONENERGY:  
Comment:  DB#=CCMSLIB00000846052; origin=GNPS
Num Peaks:  2
184.00237	50.0
293.17529	1000.0

NAME:  NCGC00169924-02!2-(3,4-dihydroxyphenyl)-5,7-dihydroxy-8-[3,4,5-trihydroxy-6-(hydroxymethyl)oxan-2-yl]chromen-4-one
PRECURSORMZ:  493.09876401183
PRECURSORTYPE:  [M+FA-H]-
FORMULA:  C21H20O11
Ontology: Kingdom: Organic compounds;Superclass: Phenylpropanoids and polyketides;Class: Flavonoids;Subclass: Flavonoid glycosides
INCHIKEY:  PLAPMLGJVGLZOV-UHFFFAOYNA-N
SMILES:  OCC1OC(C(O)C(O)C1O)C1=C(O)C=C(O)C2=C1OC(=CC2=O)C1=CC(O)=C(O)C=C1
RETENTIONTIME:  
CCS:  -1
IONMODE:  Negative
INSTRUMENTTYPE:  
INSTRUMENT:  Maxis II HD Q-TOF Bruker
COLLISIONENERGY:  
Comment:  DB#=CCMSLIB00000846053; origin=GNPS
Num Peaks:  19
105.03389	20.0
149.02237	20.0
181.12404	20.0
189.01852	20.0
284.03583	10.0
297.04327	30.0
307.064	20.0
309.04587	20.0
311.05902	30.0
327.05173	1000.0
339.05276	70.0
341.08182	20.0
357.06775	170.0
358.07828	20.0
369.06479	60.0
447.09024	630.0
447.77289	10.0
449.73825	20.0
493.10727	10.0

NAME:  NCGC00385059-01!5,7-dihydroxy-2-phenyl-6-[3,4,5-trihydroxy-6-(hydroxymethyl)oxan-2-yl]-8-(3,4,5-trihydroxyoxan-2-yl)chromen-4-one
PRECURSORMZ:  547.14571450983
PRECURSORTYPE:  [M-H]-
FORMULA:  C26H28O13
Ontology: Kingdom: Organic compounds;Superclass: Phenylpropanoids and polyketides;Class: Flavonoids;Subclass: Flavonoid glycosides
INCHIKEY:  ZGVGUTOTMNVHSX-UHFFFAOYNA-N
SMILES:  OCC1OC(C(O)C(O)C1O)C1=C(O)C(C2OCC(O)C(O)C2O)=C2OC(=CC(=O)C2=C1O)C1=CC=CC=C1
RETENTIONTIME:  
CCS:  243.7400395
IONMODE:  Negative
INSTRUMENTTYPE:  
INSTRUMENT:  Maxis II HD Q-TOF Bruker
COLLISIONENERGY:  
Comment:  DB#=CCMSLIB00000846055; origin=GNPS
Num Peaks:  28
174.02925	30.0
217.05573	10.0
223.07602	10.0
249.08669	10.0
251.07381	20.0
254.63846	10.0
261.91525	20.0
267.08582	10.0
281.08908	50.0
291.06726	10.0
291.10471	20.0
305.04382	10.0
307.05429	20.0
308.06403	10.0
309.08057	50.0
312.06516	50.0
321.07944	30.0
336.72198	10.0
337.07095	210.0
349.07648	30.0
367.08475	150.0
397.10831	30.0
409.09543	60.0
427.09836	60.0
439.10648	30.0
457.11487	170.0
547.14386	1000.0
548.14502	20.0

NAME:  NCGC00381188-01!(E,2S,3R,4R,5S)-2-acetamido-3,4,5,14-tetrahydroxyicos-6-enoic acid
PRECURSORMZ:  430.28102621183
PRECURSORTYPE:  [M-H]-
FORMULA:  C22H41NO7
Ontology: Kingdom: Organic compounds;Superclass: Lipids and lipid;Class: Sphingolipids;Subclass: Ceramides
INCHIKEY:  VKFZVQCKAPPEFZ-UHFFFAOYNA-N
SMILES:  CCCCCCC(O)CCCCCCC=CC(O)C(O)C(O)C(N=C(C)O)C(O)=O
RETENTIONTIME:  
CCS:  240.6816499
IONMODE:  Negative
INSTRUMENTTYPE:  
INSTRUMENT:  Maxis II HD Q-TOF Bruker
COLLISIONENERGY:  
Comment:  DB#=CCMSLIB00000846058; origin=GNPS
Num Peaks:  7
116.0329	260.0
140.03857	200.0
223.62744	90.0
226.34048	160.0
229.07487	120.0
279.23956	110.0
430.27512	1000.0

NAME:  NCGC00169399-03!(2R,6R)-6-[(3R,10S,12S,13R,17R)-3-(2-carboxyacetyl)oxy-12-hydroxy-4,4,10,13,14-pentamethyl-2,3,5,6,7,11,12,15,16,17-decahydro-1H-cyclopenta[a]phenanthren-17-yl]-2-methyl-3-methylideneheptanoic acid
PRECURSORMZ:  571.36402756183
PRECURSORTYPE:  [M-H]-
FORMULA:  C34H52O7
Ontology: Kingdom: Organic compounds;Superclass: Lipids and lipid;Class: Prenol lipids;Subclass: Triterpenoids
INCHIKEY:  HMOMGSPWDYKCAH-UHFFFAOYNA-N
SMILES:  CC(CCC(=C)C(C)C(O)=O)C1CCC2(C)C3=C(CC(O)C12C)C1(C)CCC(OC(=O)CC(O)=O)C(C)(C)C1CC3
RETENTIONTIME:  
CCS:  260.6381959
IONMODE:  Negative
INSTRUMENTTYPE:  
INSTRUMENT:  Maxis II HD Q-TOF Bruker
COLLISIONENERGY:  
Comment:  DB#=CCMSLIB00000846060; origin=GNPS
Num Peaks:  24
207.66458	40.0
233.45996	60.0
253.29034	40.0
259.1983	50.0
279.23462	30.0
425.34509	130.0
440.61993	30.0
441.25809	30.0
441.37488	1000.0
443.59064	20.0
459.39017	30.0
465.37677	40.0
467.32635	60.0
481.3512	40.0
483.23108	30.0
483.38174	950.0
485.36526	210.0
485.40775	30.0
497.36243	70.0
515.37457	30.0
527.3739	680.0
527.51239	10.0
528.41089	20.0
550.9715	30.0

NAME:  NCGC00384784-01!5-hydroxy-1,7-bis(4-hydroxyphenyl)heptan-3-one
PRECURSORMZ:  359.15001173583
PRECURSORTYPE:  [M+FA-H]-
FORMULA:  C19H22O4
Ontology: Kingdom: Organic compounds;Superclass: Phenylpropanoids and polyketides;Class: Diarylheptanoids;Subclass: Linear diarylheptanoids
INCHIKEY:  ZBFSUZGUYFFWGY-UHFFFAOYNA-N
SMILES:  OC(CCC1=CC=C(O)C=C1)CC(=O)CCC1=CC=C(O)C=C1
RETENTIONTIME:  
CCS:  -1
IONMODE:  Negative
INSTRUMENTTYPE:  
INSTRUMENT:  Maxis II HD Q-TOF Bruker
COLLISIONENERGY:  
Comment:  DB#=CCMSLIB00000846062; origin=GNPS
Num Peaks:  6
149.06039	1000.0
163.08929	220.0
207.10355	240.0
313.14069	660.0
332.33112	50.0
468.24063	60.0

NAME:  NCGC00347413-02!1,3,6,7-tetrahydroxy-2,8-bis(3-methylbut-2-enyl)xanthen-9-one
PRECURSORMZ:  395.15001204083
PRECURSORTYPE:  [M-H]-
FORMULA:  C23H24O6
Ontology: Kingdom: Organic compounds;Superclass: Organoheterocyclic compounds;Class: Benzopyrans;
INCHIKEY:  VEZXFTKZUMARDU-UHFFFAOYSA-N
SMILES:  CC(C)=CCC1=C(O)C2=C(OC3=CC(O)=C(O)C(CC=C(C)C)=C3C2=O)C=C1O
RETENTIONTIME:  
CCS:  212.0025818
IONMODE:  Negative
INSTRUMENTTYPE:  
INSTRUMENT:  Maxis II HD Q-TOF Bruker
COLLISIONENERGY:  
Comment:  DB#=CCMSLIB00000846063; origin=GNPS
Num Peaks:  10
271.02164	100.0
281.05585	60.0
282.72693	40.0
283.02502	70.0
283.63046	50.0
309.03592	100.0
339.10513	100.0
395.14728	1000.0
398.34668	40.0
415.70892	50.0

NAME:  NCGC00384769-01!6,8-dihydroxy-2,2,4,4-tetramethyl-5-(2-methylpropanoyl)-9-propan-2-yl-9H-xanthene-1,3-dione
PRECURSORMZ:  413.19696223383
PRECURSORTYPE:  [M-H]-
FORMULA:  C24H30O6
Ontology: Kingdom: Organic compounds;Superclass: Organoheterocyclic compounds;Class: Benzopyrans;
INCHIKEY:  AYAUOXWJIWVPSO-UHFFFAOYNA-N
SMILES:  CC(C)C1C2=C(OC3=C1C(=O)C(C)(C)C(=O)C3(C)C)C(C(=O)C(C)C)=C(O)C=C2O
RETENTIONTIME:  
CCS:  211.28957
IONMODE:  Negative
INSTRUMENTTYPE:  
INSTRUMENT:  Maxis II HD Q-TOF Bruker
COLLISIONENERGY:  
Comment:  DB#=CCMSLIB00000846066; origin=GNPS
Num Peaks:  4
204.36691	10.0
355.12027	250.0
413.19998	1000.0
1878.07776	20.0

NAME:  NCGC00384769-01!6,8-dihydroxy-2,2,4,4-tetramethyl-5-(2-methylpropanoyl)-9-propan-2-yl-9H-xanthene-1,3-dione
PRECURSORMZ:  459.20244123383
PRECURSORTYPE:  [M+FA-H]-
FORMULA:  C24H30O6
Ontology: Kingdom: Organic compounds;Superclass: Organoheterocyclic compounds;Class: Benzopyrans;
INCHIKEY:  AYAUOXWJIWVPSO-UHFFFAOYNA-N
SMILES:  CC(C)C1C2=C(OC3=C1C(=O)C(C)(C)C(=O)C3(C)C)C(C(=O)C(C)C)=C(O)C=C2O
RETENTIONTIME:  
CCS:  -1
IONMODE:  Negative
INSTRUMENTTYPE:  
INSTRUMENT:  Maxis II HD Q-TOF Bruker
COLLISIONENERGY:  
Comment:  DB#=CCMSLIB00000846067; origin=GNPS
Num Peaks:  4
181.08678	200.0
223.06361	1000.0
277.11328	220.0
459.18469	60.0

NAME:  NCGC00246211-02!3,9-dihydroxy-6-oxo-7-(2-oxoheptyl)-1-pentylbenzo[b][1,4]benzodioxepine-2-carboxylic acid
PRECURSORMZ:  469.18679147383
PRECURSORTYPE:  [M-H]-
FORMULA:  C26H30O8
Ontology: Kingdom: Organic compounds;Superclass: Phenylpropanoids and polyketides;Class: Depsides and depsidones;
INCHIKEY:  KVTYWHGIZSCFLG-UHFFFAOYSA-N
SMILES:  CCCCCC(=O)CC1=CC(O)=CC2=C1C(=O)OC1=C(O2)C(CCCCC)=C(C(O)=O)C(O)=C1
RETENTIONTIME:  
CCS:  241.4022187
IONMODE:  Negative
INSTRUMENTTYPE:  
INSTRUMENT:  Maxis II HD Q-TOF Bruker
COLLISIONENERGY:  
Comment:  DB#=CCMSLIB00000846069; origin=GNPS
Num Peaks:  53
123.05291	50.0
125.11961	20.0
133.10405	30.0
148.37801	20.0
149.0155	30.0
163.04121	60.0
163.08279	40.0
188.04927	40.0
198.06534	40.0
203.06133	30.0
211.5703	30.0
213.13567	30.0
221.12143	40.0
246.09886	80.0
247.09688	140.0
251.06767	40.0
255.05574	50.0
269.04935	40.0
271.14142	40.0
274.41229	30.0
280.11746	20.0
282.10849	30.0
283.13412	60.0
284.07538	20.0
285.1232	10.0
300.12854	20.0
311.20673	30.0
314.12491	70.0
316.10501	30.0
324.14716	110.0
336.01248	20.0
336.27615	10.0
336.74664	20.0
337.21362	30.0
340.13046	30.0
344.21286	40.0
353.2139	30.0
355.18686	40.0
356.97208	10.0
357.19302	40.0
357.21997	50.0
381.20868	740.0
382.20026	20.0
383.18777	480.0
384.28644	10.0
397.21512	10.0
407.19113	50.0
411.27386	10.0
425.19528	1000.0
425.26682	20.0
451.17502	70.0
469.18048	430.0
1692.52625	20.0

NAME:  NCGC00246211-02!3,9-dihydroxy-6-oxo-7-(2-oxoheptyl)-1-pentylbenzo[b][1,4]benzodioxepine-2-carboxylic acid
PRECURSORMZ:  515.19227047383
PRECURSORTYPE:  [M+FA-H]-
FORMULA:  C26H30O8
Ontology: Kingdom: Organic compounds;Superclass: Phenylpropanoids and polyketides;Class: Depsides and depsidones;
INCHIKEY:  KVTYWHGIZSCFLG-UHFFFAOYSA-N
SMILES:  CCCCCC(=O)CC1=CC(O)=CC2=C1C(=O)OC1=C(O2)C(CCCCC)=C(C(O)=O)C(O)=C1
RETENTIONTIME:  
CCS:  -1
IONMODE:  Negative
INSTRUMENTTYPE:  
INSTRUMENT:  Maxis II HD Q-TOF Bruker
COLLISIONENERGY:  
Comment:  DB#=CCMSLIB00000846071; origin=GNPS
Num Peaks:  40
123.04435	30.0
133.10455	30.0
139.15811	30.0
151.03883	30.0
155.30919	40.0
179.11472	30.0
190.02853	30.0
193.08801	20.0
194.06967	30.0
215.11261	30.0
217.30089	20.0
225.7813	20.0
246.09807	40.0
247.10368	140.0
253.12526	30.0
259.14172	20.0
262.08405	30.0
273.07556	30.0
291.10458	30.0
311.09659	20.0
327.12952	20.0
336.09149	20.0
350.12131	20.0
350.1524	30.0
353.10675	20.0
367.11432	30.0
379.1875	30.0
381.20795	80.0
383.17947	20.0
407.1886	110.0
421.12936	10.0
425.19739	270.0
451.05502	30.0
451.17926	880.0
452.17105	30.0
468.1799	20.0
469.18961	1000.0
469.33167	10.0
470.18076	30.0
487.18314	20.0

NAME:  NCGC00180260-02!5,7-dihydroxy-2-(4-methoxyphenyl)-6-(3-methylbut-2-enyl)-2,3-dihydrochromen-4-one
PRECURSORMZ:  353.13944735583
PRECURSORTYPE:  [M-H]-
FORMULA:  C21H22O5
Ontology: Kingdom: Organic compounds;Superclass: Phenylpropanoids and polyketides;Class: Flavonoids;Subclass: Flavans
INCHIKEY:  ZTDRTMVBTLHQII-UHFFFAOYNA-N
SMILES:  COC1=CC=C(C=C1)C1CC(=O)C2=C(O1)C=C(O)C(CC=C(C)C)=C2O
RETENTIONTIME:  
CCS:  -1
IONMODE:  Negative
INSTRUMENTTYPE:  
INSTRUMENT:  Maxis II HD Q-TOF Bruker
COLLISIONENERGY:  
Comment:  DB#=CCMSLIB00000846074; origin=GNPS
Num Peaks:  5
119.05126	80.0
177.02103	30.0
199.07658	70.0
281.08621	70.0
353.13873	1000.0

NAME:  NCGC00180260-02!5,7-dihydroxy-2-(4-methoxyphenyl)-6-(3-methylbut-2-enyl)-2,3-dihydrochromen-4-one
PRECURSORMZ:  389.1161250679
PRECURSORTYPE:  [M+Cl]-
FORMULA:  C21H22O5
Ontology: Kingdom: Organic compounds;Superclass: Phenylpropanoids and polyketides;Class: Flavonoids;Subclass: Flavans
INCHIKEY:  ZTDRTMVBTLHQII-UHFFFAOYNA-N
SMILES:  COC1=CC=C(C=C1)C1CC(=O)C2=C(O1)C=C(O)C(CC=C(C)C)=C2O
RETENTIONTIME:  
CCS:  -1
IONMODE:  Negative
INSTRUMENTTYPE:  
INSTRUMENT:  Maxis II HD Q-TOF Bruker
COLLISIONENERGY:  
Comment:  DB#=CCMSLIB00000846076; origin=GNPS
Num Peaks:  11
137.05893	370.0
167.03957	210.0
180.8094	350.0
181.04753	380.0
195.06285	1000.0
207.06589	840.0
209.0853	700.0
221.08406	450.0
389.12827	340.0
756.48901	260.0
771.66376	80.0

NAME:  NCGC00347607-02!2-acetyl-4-[(3-butanoyl-2,4,6-trihydroxy-5-methylphenyl)methyl]-3,5-dihydroxy-6,6-dimethylcyclohexa-2,4-dien-1-one
PRECURSORMZ:  417.15549134483
PRECURSORTYPE:  [M-H]-
FORMULA:  C22H26O8
Ontology: Kingdom: Organic compounds;Superclass: Organic oxygen compounds;Class: Organooxygen compounds;Subclass: Carbonyl compounds
INCHIKEY:  PPRFIMGXDRYLGD-UHFFFAOYSA-N
SMILES:  CCCC(=O)C1=C(O)C(C)=C(O)C(CC2=C(O)C(C)(C)C(=O)C(C(C)=O)=C2O)=C1O
RETENTIONTIME:  
CCS:  -1
IONMODE:  Negative
INSTRUMENTTYPE:  
INSTRUMENT:  Maxis II HD Q-TOF Bruker
COLLISIONENERGY:  
Comment:  DB#=CCMSLIB00000846077; origin=GNPS
Num Peaks:  18
78.95089	40.0
94.82858	20.0
111.0474	40.0
121.06893	90.0
139.0349	110.0
151.07744	270.0
165.01709	60.0
165.09058	160.0
195.06453	1000.0
197.62642	40.0
207.06677	550.0
209.08188	1000.0
209.40012	30.0
210.02751	30.0
221.08014	300.0
256.74573	50.0
417.15637	280.0
418.1601	60.0

NAME:  NCGC00347607-02!2-acetyl-4-[(3-butanoyl-2,4,6-trihydroxy-5-methylphenyl)methyl]-3,5-dihydroxy-6,6-dimethylcyclohexa-2,4-dien-1-one
PRECURSORMZ:  463.16097034483
PRECURSORTYPE:  [M+FA-H]-
FORMULA:  C22H26O8
Ontology: Kingdom: Organic compounds;Superclass: Organic oxygen compounds;Class: Organooxygen compounds;Subclass: Carbonyl compounds
INCHIKEY:  PPRFIMGXDRYLGD-UHFFFAOYSA-N
SMILES:  CCCC(=O)C1=C(O)C(C)=C(O)C(CC2=C(O)C(C)(C)C(=O)C(C(C)=O)=C2O)=C1O
RETENTIONTIME:  
CCS:  -1
IONMODE:  Negative
INSTRUMENTTYPE:  
INSTRUMENT:  Maxis II HD Q-TOF Bruker
COLLISIONENERGY:  
Comment:  DB#=CCMSLIB00000846080; origin=GNPS
Num Peaks:  9
164.99153	80.0
209.07745	1000.0
209.14165	50.0
219.19119	110.0
223.05728	240.0
255.08018	200.0
275.13303	100.0
463.17065	80.0
614.05365	130.0

NAME:  NCGC00385203-01!7-[(2S,3R,4S,5S,6R)-3,4,5-trihydroxy-6-[[(2S,3R,4S,5R)-3,4,5-trihydroxyoxan-2-yl]oxymethyl]oxan-2-yl]oxychromen-2-one
PRECURSORMZ:  501.12497876083
PRECURSORTYPE:  [M+FA-H]-
FORMULA:  C20H24O12
Ontology: Kingdom: Organic compounds;Superclass: Phenylpropanoids and polyketides;Class: Coumarins and derivatives;Subclass: Coumarin glycosides
INCHIKEY:  FCJIWTZAADYCGI-UHFFFAOYNA-N
SMILES:  OC1COC(OCC2OC(OC3=CC4=C(C=CC(=O)O4)C=C3)C(O)C(O)C2O)C(O)C1O
RETENTIONTIME:  
CCS:  -1
IONMODE:  Negative
INSTRUMENTTYPE:  
INSTRUMENT:  Maxis II HD Q-TOF Bruker
COLLISIONENERGY:  
Comment:  DB#=CCMSLIB00000846082; origin=GNPS
Num Peaks:  3
86.18954	10.0
161.02261	1000.0
455.13351	20.0

NAME:  NCGC00169133-02![(2R,3R,4S,5R,6S)-3-hydroxy-4,5,6-tris[(3,4,5-trihydroxybenzoyl)oxy]oxan-2-yl]methyl 3,4,5-trihydroxybenzoate
PRECURSORMZ:  787.09994608983
PRECURSORTYPE:  [M-H]-
FORMULA:  C34H28O22
Ontology: Kingdom: Organic compounds;Superclass: Phenylpropanoids and polyketides;Class: Tannins;
INCHIKEY:  RATQVALKDAUZBW-UHFFFAOYNA-N
SMILES:  OC1C(COC(=O)C2=CC(O)=C(O)C(O)=C2)OC(OC(=O)C2=CC(O)=C(O)C(O)=C2)C(OC(=O)C2=CC(O)=C(O)C(O)=C2)C1OC(=O)C1=CC(O)=C(O)C(O)=C1
RETENTIONTIME:  
CCS:  252.0587864
IONMODE:  Negative
INSTRUMENTTYPE:  
INSTRUMENT:  Maxis II HD Q-TOF Bruker
COLLISIONENERGY:  
Comment:  DB#=CCMSLIB00000846084; origin=GNPS
Num Peaks:  64
107.00773	20.0
115.03967	10.0
121.06232	10.0
123.00863	100.0
124.0146	30.0
125.02399	210.0
128.0602	10.0
130.01733	10.0
138.99992	10.0
141.01379	30.0
145.02452	20.0
151.00371	90.0
151.0381	10.0
159.04532	20.0
165.01534	20.0
166.99651	70.0
168.00771	40.0
169.01218	1000.0
170.01833	10.0
175.04898	10.0
177.01637	50.0
177.05498	20.0
179.03462	70.0
185.92685	10.0
190.99983	10.0
191.03445	60.0
193.0126	50.0
195.01457	10.0
205.00999	10.0
207.02792	10.0
211.02548	80.0
215.03123	50.0
221.0107	40.0
221.03896	70.0
235.02696	40.0
237.03442	30.0
241.03954	20.0
260.02814	10.0
261.04218	10.0
263.05478	10.0
267.06009	10.0
275.01508	10.0
277.03177	10.0
279.05121	30.0
295.04431	160.0
297.06424	20.0
313.05096	190.0
403.06726	60.0
421.06949	50.0
423.05817	10.0
447.05084	160.0
448.06796	30.0
449.07028	60.0
465.06476	680.0
466.06616	20.0
483.07031	30.0
573.09222	90.0
617.07721	800.0
618.07001	50.0
635.08936	110.0
641.81042	20.0
787.09955	500.0
788.10876	80.0
791.73279	10.0

NAME:  NCGC00169133-02![(2R,3R,4S,5R,6S)-3-hydroxy-4,5,6-tris[(3,4,5-trihydroxybenzoyl)oxy]oxan-2-yl]methyl 3,4,5-trihydroxybenzoate
PRECURSORMZ:  823.0766238019
PRECURSORTYPE:  [M+Cl]-
FORMULA:  C34H28O22
Ontology: Kingdom: Organic compounds;Superclass: Phenylpropanoids and polyketides;Class: Tannins;
INCHIKEY:  RATQVALKDAUZBW-UHFFFAOYNA-N
SMILES:  OC1C(COC(=O)C2=CC(O)=C(O)C(O)=C2)OC(OC(=O)C2=CC(O)=C(O)C(O)=C2)C(OC(=O)C2=CC(O)=C(O)C(O)=C2)C1OC(=O)C1=CC(O)=C(O)C(O)=C1
RETENTIONTIME:  
CCS:  -1
IONMODE:  Negative
INSTRUMENTTYPE:  
INSTRUMENT:  Maxis II HD Q-TOF Bruker
COLLISIONENERGY:  
Comment:  DB#=CCMSLIB00000846085; origin=GNPS
Num Peaks:  26
123.00831	220.0
125.02251	160.0
138.38498	180.0
138.68922	100.0
139.00826	250.0
139.61592	110.0
145.82013	130.0
163.00282	130.0
166.01909	160.0
166.9977	140.0
169.01215	1000.0
193.01529	140.0
241.0238	140.0
267.0441	170.0
269.07983	90.0
295.03705	310.0
313.05634	260.0
403.0643	70.0
447.04346	200.0
451.73907	80.0
465.06491	630.0
573.08264	80.0
617.07367	410.0
618.09143	90.0
787.10187	700.0
788.06958	60.0

NAME:  NCGC00347385-02!(2S,3S)-3,5,7-trihydroxy-2-(4-hydroxyphenyl)-8-(3-methylbut-2-enyl)-2,3-dihydrochromen-4-one
PRECURSORMZ:  355.11871191183
PRECURSORTYPE:  [M-H]-
FORMULA:  C20H20O6
Ontology: Kingdom: Organic compounds;Superclass: Phenylpropanoids and polyketides;Class: Flavonoids;Subclass: Flavans
INCHIKEY:  IPWPEUJWMOPJDG-UHFFFAOYNA-N
SMILES:  CC(C)=CCC1=C2OC(C(O)C(=O)C2=C(O)C=C1O)C1=CC=C(O)C=C1
RETENTIONTIME:  
CCS:  197.530041
IONMODE:  Negative
INSTRUMENTTYPE:  
INSTRUMENT:  Maxis II HD Q-TOF Bruker
COLLISIONENERGY:  
Comment:  DB#=CCMSLIB00000846088; origin=GNPS
Num Peaks:  11
152.01468	140.0
193.07631	80.0
203.0351	120.0
220.09074	90.0
240.07419	40.0
311.12741	260.0
326.35275	40.0
327.12601	600.0
327.93106	50.0
337.09869	130.0
355.1214	1000.0

NAME:  NCGC00163596-04!5,7-dihydroxy-3-[(2S,3R,4R,5R,6S)-3,4,5-trihydroxy-6-methyloxan-2-yl]oxy-2-(3,4,5-trihydroxyphenyl)chromen-4-one
PRECURSORMZ:  463.08819963183
PRECURSORTYPE:  [M-H]-
FORMULA:  C21H20O12
Ontology: Kingdom: Organic compounds;Superclass: Phenylpropanoids and polyketides;Class: Flavonoids;Subclass: Flavonoid glycosides
INCHIKEY:  DCYOADKBABEMIQ-UHFFFAOYNA-N
SMILES:  CC1OC(OC2=C(OC3=CC(O)=CC(O)=C3C2=O)C2=CC(O)=C(O)C(O)=C2)C(O)C(O)C1O
RETENTIONTIME:  
CCS:  202.9005839
IONMODE:  Negative
INSTRUMENTTYPE:  
INSTRUMENT:  Maxis II HD Q-TOF Bruker
COLLISIONENERGY:  
Comment:  DB#=CCMSLIB00000846090; origin=GNPS
Num Peaks:  13
91.01794	30.0
156.91521	30.0
180.96191	30.0
209.00671	20.0
224.87399	20.0
227.46519	20.0
269.01303	20.0
271.02475	60.0
287.02335	20.0
316.02536	1000.0
317.03247	100.0
463.08908	660.0
466.76825	20.0

NAME:  NCGC00386048-01!5-hydroxy-2-[1-hydroxy-4-[(2R,3R,4S,5S,6R)-3,4,5-trihydroxy-6-(hydroxymethyl)oxan-2-yl]oxycyclohexa-2,5-dien-1-yl]-7-methoxychromen-4-one
PRECURSORMZ:  509.13006414083
PRECURSORTYPE:  [M+FA-H]-
FORMULA:  C22H24O11
Ontology: Kingdom: Organic compounds;Superclass: Organic oxygen compounds;Class: Organooxygen compounds;Subclass: Carbohydrates and carbohydrate conjugates
INCHIKEY:  ACGWJYPSNRKNPW-UHFFFAOYNA-N
SMILES:  COC1=CC(O)=C2C(=O)C=C(OC2=C1)C1(O)C=CC(OC2OC(CO)C(O)C(O)C2O)C=C1
RETENTIONTIME:  
CCS:  -1
IONMODE:  Negative
INSTRUMENTTYPE:  
INSTRUMENT:  Maxis II HD Q-TOF Bruker
COLLISIONENERGY:  
Comment:  DB#=CCMSLIB00000846092; origin=GNPS
Num Peaks:  16
117.02985	40.0
137.33649	40.0
139.03967	80.0
161.02396	60.0
165.01463	20.0
207.03377	90.0
252.07124	20.0
266.3364	30.0
267.05875	50.0
267.85547	20.0
268.03632	100.0
283.06363	1000.0
285.2637	10.0
297.5813	30.0
301.07193	50.0
445.11639	120.0

NAME:  NCGC00386050-01!(2S,3S,4S,5R,6S)-3,4,5-trihydroxy-6-[5-hydroxy-6-methoxy-2-(4-methoxyphenyl)-4-oxochromen-7-yl]oxyoxane-2-carboxylic acid
PRECURSORMZ:  489.10384969583
PRECURSORTYPE:  [M-H]-
FORMULA:  C23H22O12
Ontology: Kingdom: Organic compounds;Superclass: Phenylpropanoids and polyketides;Class: Flavonoids;Subclass: Flavonoid glycosides
INCHIKEY:  ZEKXCIHGJAZTEW-UHFFFAOYNA-N
SMILES:  COC1=CC=C(C=C1)C1=CC(=O)C2=C(O)C(OC)=C(OC3OC(C(O)C(O)C3O)C(O)=O)C=C2O1
RETENTIONTIME:  
CCS:  239.4518291
IONMODE:  Negative
INSTRUMENTTYPE:  
INSTRUMENT:  Maxis II HD Q-TOF Bruker
COLLISIONENERGY:  
Comment:  DB#=CCMSLIB00000846093; origin=GNPS
Num Peaks:  4
175.02328	180.0
283.03131	140.0
298.05008	850.0
313.07242	1000.0

NAME:  NCGC00386049-01!3-[(2S,3R,4S,5R,6S)-3,4-dihydroxy-6-methyl-5-[(2S,3R,4S,5S,6R)-3,4,5-trihydroxy-6-(hydroxymethyl)oxan-2-yl]oxyoxan-2-yl]oxy-2-(3,4-dihydroxyphenyl)-5,7-dihydroxychromen-4-one
PRECURSORMZ:  609.14610843383
PRECURSORTYPE:  [M-H]-
FORMULA:  C27H30O16
Ontology: Kingdom: Organic compounds;Superclass: Phenylpropanoids and polyketides;Class: Flavonoids;Subclass: Flavonoid glycosides
INCHIKEY:  CAENGMLSMONNBU-UHFFFAOYNA-N
SMILES:  CC1OC(OC2=C(OC3=CC(O)=CC(O)=C3C2=O)C2=CC(O)=C(O)C=C2)C(O)C(O)C1OC1OC(CO)C(O)C(O)C1O
RETENTIONTIME:  
CCS:  227.6849107
IONMODE:  Negative
INSTRUMENTTYPE:  
INSTRUMENT:  Maxis II HD Q-TOF Bruker
COLLISIONENERGY:  
Comment:  DB#=CCMSLIB00000846096; origin=GNPS
Num Peaks:  23
111.01015	20.0
121.03217	20.0
125.02264	20.0
151.00572	30.0
153.61697	10.0
163.00613	30.0
174.03419	10.0
179.00031	30.0
180.05896	10.0
243.03236	10.0
244.03369	20.0
245.04501	30.0
255.03075	50.0
271.03119	70.0
272.03024	30.0
273.04382	20.0
299.5321	10.0
300.0285	380.0
301.03625	780.0
302.04086	10.0
343.04205	30.0
429.13345	10.0
609.14685	1000.0

NAME:  NCGC00386049-01!3-[(2S,3R,4S,5R,6S)-3,4-dihydroxy-6-methyl-5-[(2S,3R,4S,5S,6R)-3,4,5-trihydroxy-6-(hydroxymethyl)oxan-2-yl]oxyoxan-2-yl]oxy-2-(3,4-dihydroxyphenyl)-5,7-dihydroxychromen-4-one
PRECURSORMZ:  645.1227861459
PRECURSORTYPE:  [M+Cl]-
FORMULA:  C27H30O16
Ontology: Kingdom: Organic compounds;Superclass: Phenylpropanoids and polyketides;Class: Flavonoids;Subclass: Flavonoid glycosides
INCHIKEY:  CAENGMLSMONNBU-UHFFFAOYNA-N
SMILES:  CC1OC(OC2=C(OC3=CC(O)=CC(O)=C3C2=O)C2=CC(O)=C(O)C=C2)C(O)C(O)C1OC1OC(CO)C(O)C(O)C1O
RETENTIONTIME:  
CCS:  -1
IONMODE:  Negative
INSTRUMENTTYPE:  
INSTRUMENT:  Maxis II HD Q-TOF Bruker
COLLISIONENERGY:  
Comment:  DB#=CCMSLIB00000846097; origin=GNPS
Num Peaks:  6
283.02139	70.0
300.0271	160.0
301.04483	480.0
304.21167	110.0
364.98947	120.0
609.1485	1000.0

NAME:  NCGC00347406-02!5-(4-carboxy-3-methylbutyl)-5,6,8a-trimethyl-3-oxo-4a,6,7,8-tetrahydro-4H-naphthalene-1-carboxylic acid
PRECURSORMZ:  349.20204761383
PRECURSORTYPE:  [M-H]-
FORMULA:  C20H30O5
Ontology: Kingdom: Organic compounds;Superclass: Lipids and lipid;Class: Prenol lipids;Subclass: Diterpenoids
INCHIKEY:  XKXZAYIPFRBKHT-UHFFFAOYNA-N
SMILES:  CC(CCC1(C)C(C)CCC2(C)C1CC(=O)C=C2C(O)=O)CC(O)=O
RETENTIONTIME:  
CCS:  -1
IONMODE:  Negative
INSTRUMENTTYPE:  
INSTRUMENT:  Maxis II HD Q-TOF Bruker
COLLISIONENERGY:  
Comment:  DB#=CCMSLIB00000846099; origin=GNPS
Num Peaks:  4
205.99672	60.0
249.18771	50.0
305.20953	1000.0
349.20508	610.0

NAME:  NCGC00168963-02!2-(3,4-dihydroxyphenyl)-5,7-dihydroxy-3-[(2S,3R,4S,5S)-3,4,5-trihydroxyoxan-2-yl]oxychromen-4-one
PRECURSORMZ:  433.07763494783
PRECURSORTYPE:  [M-H]-
FORMULA:  C20H18O11
Ontology: Kingdom: Organic compounds;Superclass: Phenylpropanoids and polyketides;Class: Flavonoids;Subclass: Flavonoid glycosides
INCHIKEY:  PZZRDJXEMZMZFD-UHFFFAOYNA-N
SMILES:  OC1COC(OC2=C(OC3=CC(O)=CC(O)=C3C2=O)C2=CC(O)=C(O)C=C2)C(O)C1O
RETENTIONTIME:  
CCS:  215.6517048
IONMODE:  Negative
INSTRUMENTTYPE:  
INSTRUMENT:  Maxis II HD Q-TOF Bruker
COLLISIONENERGY:  
Comment:  DB#=CCMSLIB00000846101; origin=GNPS
Num Peaks:  10
178.99942	90.0
189.91464	40.0
226.14197	30.0
271.01804	60.0
300.0275	1000.0
301.03629	220.0
311.9501	50.0
312.008	40.0
433.08417	530.0
1345.74475	90.0

NAME:  NCGC00381059-01!5-[5-(3,5-dihydroxydecanoyloxy)-3-hydroxydecanoyl]oxy-3-hydroxydecanoic acid
PRECURSORMZ:  575.38007155083
PRECURSORTYPE:  [M-H]-
FORMULA:  C30H56O10
Ontology: Kingdom: Organic compounds;Superclass: Organic acids and derivatives;Class: Carboxylic acids and derivatives;Subclass: Tricarboxylic acids and derivatives
INCHIKEY:  RZQNQMRSGMXXMH-UHFFFAOYNA-N
SMILES:  CCCCCC(O)CC(O)CC(=O)OC(CCCCC)CC(O)CC(=O)OC(CCCCC)CC(O)CC(O)=O
RETENTIONTIME:  
CCS:  273.4656652
IONMODE:  Negative
INSTRUMENTTYPE:  
INSTRUMENT:  Maxis II HD Q-TOF Bruker
COLLISIONENERGY:  
Comment:  DB#=CCMSLIB00000846104; origin=GNPS
Num Peaks:  13
75.44123	10.0
99.08382	70.0
185.11806	340.0
202.59383	20.0
203.12737	1000.0
213.76553	10.0
242.90627	20.0
244.52815	20.0
245.13965	80.0
353.2272	30.0
389.25342	20.0
558.84247	20.0
575.37964	60.0

NAME:  NCGC00347392-02!(2S,3S,4S,5R,6R)-6-[[(2S,3R,4R,6aR,6bS,8aS,12aS,14bR)-4-carboxy-8a-[(2S,3R,4S,5S)-3-[(2S,3R,4S,5R,6S)-3,4-dihydroxy-6-methyl-5-[(2S,3R,4S,5R)-3,4,5-trihydroxyoxan-2-yl]oxyoxan-2-yl]oxy-4,5-dihydroxyoxan-2-yl]oxycarbonyl-2-hydroxy-4,6a,6b,11,11,14b-hexamethyl-1,2,3,4a,5,6,7,8,9,10,12,12a,14,14a-tetradecahydropicen-3-yl]oxy]-3,4,5-trihydroxyoxane-2-carboxylic acid
PRECURSORMZ:  1087.49667700383
PRECURSORTYPE:  [M-H]-
FORMULA:  C52H80O24
Ontology: Kingdom: Organic compounds;Superclass: Lipids and lipid;Class: Prenol lipids;Subclass: Terpene glycosides
INCHIKEY:  RPWKGRUCXRZSSG-UHFFFAOYNA-N
SMILES:  CC1OC(OC2C(O)C(O)COC2OC(=O)C23CCC(C)(C)CC2C2=CCC4C5(C)CC(O)C(OC6OC(C(O)C(O)C6O)C(O)=O)C(C)(C5CCC4(C)C2(C)CC3)C(O)=O)C(O)C(O)C1OC1OCC(O)C(O)C1O
RETENTIONTIME:  
CCS:  338.4335336
IONMODE:  Negative
INSTRUMENTTYPE:  
INSTRUMENT:  Maxis II HD Q-TOF Bruker
COLLISIONENERGY:  
Comment:  DB#=CCMSLIB00000846105; origin=GNPS
Num Peaks:  22
72.99551	20.0
85.0297	30.0
89.02316	40.0
95.01405	20.0
101.02406	50.0
103.00449	90.0
113.02363	410.0
115.00577	10.0
129.0163	30.0
131.03523	140.0
133.0123	100.0
149.04671	10.0
157.01343	30.0
163.02365	30.0
175.02414	50.0
193.03491	1000.0
194.03955	20.0
501.31921	30.0
911.46851	20.0
1087.4978	960.0
1088.49902	320.0
1089.51294	40.0

NAME:  NCGC00380612-01!3,8-dihydroxy-1-methoxy-4-(1,3,4-trihydroxybutan-2-yl)xanthen-9-one
PRECURSORMZ:  361.09289108783
PRECURSORTYPE:  [M-H]-
FORMULA:  C18H18O8
Ontology: Kingdom: Organic compounds;Superclass: Organoheterocyclic compounds;Class: Benzopyrans;
INCHIKEY:  WHNAJPFARNBVDZ-UHFFFAOYNA-N
SMILES:  COC1=C2C(=O)C3=C(O)C=CC=C3OC2=C(C(CO)C(O)CO)C(O)=C1
RETENTIONTIME:  
CCS:  191.071129
IONMODE:  Negative
INSTRUMENTTYPE:  
INSTRUMENT:  Maxis II HD Q-TOF Bruker
COLLISIONENERGY:  
Comment:  DB#=CCMSLIB00000846108; origin=GNPS
Num Peaks:  11
228.03395	150.0
256.03247	130.0
283.0675	90.0
295.01846	130.0
301.08081	370.0
301.17194	40.0
325.08026	190.0
331.06143	190.0
343.08099	140.0
361.0939	1000.0
1114.66809	320.0

NAME:  NCGC00385502-01!1-[2,4-dihydroxy-3-[(2S,3R,4R,5S,6R)-3,4,5-trihydroxy-6-(hydroxymethyl)oxan-2-yl]phenyl]-2-hydroxy-3-(4-hydroxyphenyl)propan-1-one
PRECURSORMZ:  435.12967052083
PRECURSORTYPE:  [M-H]-
FORMULA:  C21H24O10
Ontology: Kingdom: Organic compounds;Superclass: Phenylpropanoids and polyketides;Class: Linear ;Subclass: Chalcones and dihydrochalcones
INCHIKEY:  CSATWRZOLKGPRW-UHFFFAOYNA-N
SMILES:  OCC1OC(C(O)C(O)C1O)C1=C(O)C=CC(C(=O)C(O)CC2=CC=C(O)C=C2)=C1O
RETENTIONTIME:  
CCS:  214.5598291
IONMODE:  Negative
INSTRUMENTTYPE:  
INSTRUMENT:  Maxis II HD Q-TOF Bruker
COLLISIONENERGY:  
Comment:  DB#=CCMSLIB00000846109; origin=GNPS
Num Peaks:  12
135.0498	230.0
181.0555	460.0
190.03812	150.0
209.04756	730.0
220.0378	140.0
221.04637	580.0
271.09863	240.0
297.08112	650.0
315.08829	1000.0
327.08954	360.0
345.09494	210.0
435.14539	400.0

NAME:  NCGC00169505-02!3,5-dihydroxy-2-(4-hydroxyphenyl)-7-[3,4,5-trihydroxy-6-(hydroxymethyl)oxan-2-yl]oxy-2,3-dihydrochromen-4-one
PRECURSORMZ:  495.11441407583
PRECURSORTYPE:  [M+FA-H]-
FORMULA:  C21H22O11
Ontology: ;;;
INCHIKEY:  UDIXYHJHYVDNOG-UHFFFAOYNA-N
SMILES:  OCC1OC(OC2=CC(O)=C3C(=O)C(O)C(OC3=C2)C2=CC=C(O)C=C2)C(O)C(O)C1O
RETENTIONTIME:  
CCS:  -1
IONMODE:  Negative
INSTRUMENTTYPE:  
INSTRUMENT:  Maxis II HD Q-TOF Bruker
COLLISIONENERGY:  
Comment:  DB#=CCMSLIB00000846112; origin=GNPS
Num Peaks:  16
95.3783	70.0
125.02692	90.0
151.00179	90.0
152.01517	70.0
215.0674	90.0
219.06985	90.0
243.06885	200.0
259.06113	1000.0
283.05768	100.0
287.05692	1000.0
301.08081	90.0
313.04922	50.0
314.06204	50.0
343.06454	100.0
421.13348	120.0
449.10767	460.0

NAME:  NCGC00180544-02![(2R,3S,4R,5R,6R)-6-[2-(3,4-dihydroxyphenyl)ethoxy]-4,5-dihydroxy-2-[[(2R,3R,4R,5R,6S)-3,4,5-trihydroxy-6-methyloxan-2-yl]oxymethyl]oxan-3-yl] (E)-3-(3,4-dihydroxyphenyl)prop-2-enoate
PRECURSORMZ:  623.19814400683
PRECURSORTYPE:  [M-H]-
FORMULA:  C29H36O15
Ontology: Kingdom: Organic compounds;Superclass: Phenylpropanoids and polyketides;Class: Cinnamic acids and derivatives;Subclass: Hydroxycinnamic acids and derivatives
INCHIKEY:  DTOUWTJYUCZJQD-UHFFFAOYNA-N
SMILES:  CC1OC(OCC2OC(OCCC3=CC(O)=C(O)C=C3)C(O)C(O)C2OC(=O)C=CC2=CC(O)=C(O)C=C2)C(O)C(O)C1O
RETENTIONTIME:  
CCS:  224.6259835
IONMODE:  Negative
INSTRUMENTTYPE:  
INSTRUMENT:  Maxis II HD Q-TOF Bruker
COLLISIONENERGY:  
Comment:  DB#=CCMSLIB00000846114; origin=GNPS
Num Peaks:  17
101.02641	10.0
115.03786	10.0
132.0284	10.0
133.03133	90.0
135.04677	70.0
137.02661	20.0
139.03868	20.0
143.03568	10.0
161.02512	720.0
162.02	10.0
179.03543	70.0
295.22931	10.0
345.42551	10.0
443.15268	20.0
461.17105	70.0
623.20007	1000.0
624.20581	20.0

NAME:  NCGC00180544-02![(2R,3S,4R,5R,6R)-6-[2-(3,4-dihydroxyphenyl)ethoxy]-4,5-dihydroxy-2-[[(2R,3R,4R,5R,6S)-3,4,5-trihydroxy-6-methyloxan-2-yl]oxymethyl]oxan-3-yl] (E)-3-(3,4-dihydroxyphenyl)prop-2-enoate
PRECURSORMZ:  659.1748217189
PRECURSORTYPE:  [M+Cl]-
FORMULA:  C29H36O15
Ontology: Kingdom: Organic compounds;Superclass: Phenylpropanoids and polyketides;Class: Cinnamic acids and derivatives;Subclass: Hydroxycinnamic acids and derivatives
INCHIKEY:  DTOUWTJYUCZJQD-UHFFFAOYNA-N
SMILES:  CC1OC(OCC2OC(OCCC3=CC(O)=C(O)C=C3)C(O)C(O)C2OC(=O)C=CC2=CC(O)=C(O)C=C2)C(O)C(O)C1O
RETENTIONTIME:  
CCS:  -1
IONMODE:  Negative
INSTRUMENTTYPE:  
INSTRUMENT:  Maxis II HD Q-TOF Bruker
COLLISIONENERGY:  
Comment:  DB#=CCMSLIB00000846115; origin=GNPS
Num Peaks:  8
83.09805	120.0
135.04227	140.0
161.02628	700.0
179.0363	150.0
203.07355	180.0
315.1088	190.0
623.19348	1000.0
657.23962	70.0

NAME:  NCGC00381299-01!5-hydroxy-2,2-dimethyl-7,10-bis(2-methylbut-3-en-2-yl)pyrano[3,2-g]chromen-8-one
PRECURSORMZ:  379.19148292983
PRECURSORTYPE:  [M-H]-
FORMULA:  C24H28O4
Ontology: Kingdom: Organic compounds;Superclass: Phenylpropanoids and polyketides;Class: Coumarins and derivatives;Subclass: Pyranocoumarins
INCHIKEY:  LMEKIDFKWUPZGE-UHFFFAOYSA-N
SMILES:  CC(C)(C=C)C1=CC2=C(O)C3=C(OC(C)(C)C=C3)C(=C2OC1=O)C(C)(C)C=C
RETENTIONTIME:  
CCS:  205.2472769
IONMODE:  Negative
INSTRUMENTTYPE:  
INSTRUMENT:  Maxis II HD Q-TOF Bruker
COLLISIONENERGY:  
Comment:  DB#=CCMSLIB00000846118; origin=GNPS
Num Peaks:  10
186.96507	70.0
255.45772	40.0
293.15378	50.0
349.15198	30.0
350.14694	50.0
363.16516	60.0
363.19971	40.0
364.17245	110.0
379.19391	1000.0
379.27902	70.0

NAME:  NCGC00385574-01![5-acetyloxy-1,7-bis(3,4-dihydroxyphenyl)heptan-3-yl] acetate
PRECURSORMZ:  431.17114140983
PRECURSORTYPE:  [M-H]-
FORMULA:  C23H28O8
Ontology: Kingdom: Organic compounds;Superclass: Phenylpropanoids and polyketides;Class: Diarylheptanoids;Subclass: Linear diarylheptanoids
INCHIKEY:  BWSFBLYFHGZBRQ-UHFFFAOYNA-N
SMILES:  CC(=O)OC(CCC1=CC(O)=C(O)C=C1)CC(CCC1=CC(O)=C(O)C=C1)OC(C)=O
RETENTIONTIME:  
CCS:  210.7834817
IONMODE:  Negative
INSTRUMENTTYPE:  
INSTRUMENT:  Maxis II HD Q-TOF Bruker
COLLISIONENERGY:  
Comment:  DB#=CCMSLIB00000846119; origin=GNPS
Num Peaks:  10
89.40808	20.0
135.04718	60.0
161.05904	40.0
163.07841	100.0
189.09959	50.0
311.13388	360.0
329.14386	60.0
371.15469	310.0
431.17084	1000.0
684.62476	70.0

NAME:  NCGC00385574-01![5-acetyloxy-1,7-bis(3,4-dihydroxyphenyl)heptan-3-yl] acetate
PRECURSORMZ:  467.1478191219
PRECURSORTYPE:  [M+Cl]-
FORMULA:  C23H28O8
Ontology: Kingdom: Organic compounds;Superclass: Phenylpropanoids and polyketides;Class: Diarylheptanoids;Subclass: Linear diarylheptanoids
INCHIKEY:  BWSFBLYFHGZBRQ-UHFFFAOYNA-N
SMILES:  CC(=O)OC(CCC1=CC(O)=C(O)C=C1)CC(CCC1=CC(O)=C(O)C=C1)OC(C)=O
RETENTIONTIME:  
CCS:  -1
IONMODE:  Negative
INSTRUMENTTYPE:  
INSTRUMENT:  Maxis II HD Q-TOF Bruker
COLLISIONENERGY:  
Comment:  DB#=CCMSLIB00000846121; origin=GNPS
Num Peaks:  5
230.7793	20.0
311.13318	130.0
313.77499	40.0
371.13959	80.0
431.1698	1000.0

NAME:  NCGC00385561-01!5-hydroxy-8-methoxy-2-phenyl-7-[(2S,3R,4S,5S,6R)-3,4,5-trihydroxy-6-(hydroxymethyl)oxan-2-yl]oxychromen-4-one
PRECURSORMZ:  445.11402045583
PRECURSORTYPE:  [M-H]-
FORMULA:  C22H22O10
Ontology: Kingdom: Organic compounds;Superclass: Phenylpropanoids and polyketides;Class: Flavonoids;Subclass: Flavonoid glycosides
INCHIKEY:  YLOZPZMPWNUOJV-UHFFFAOYNA-N
SMILES:  COC1=C(OC2OC(CO)C(O)C(O)C2O)C=C(O)C2=C1OC(=CC2=O)C1=CC=CC=C1
RETENTIONTIME:  
CCS:  218.7711964
IONMODE:  Negative
INSTRUMENTTYPE:  
INSTRUMENT:  Maxis II HD Q-TOF Bruker
COLLISIONENERGY:  
Comment:  DB#=CCMSLIB00000846123; origin=GNPS
Num Peaks:  17
105.24141	100.0
115.6292	60.0
120.3891	70.0
134.08087	50.0
185.11955	80.0
225.05775	80.0
267.03192	480.0
268.0368	200.0
269.04868	1000.0
283.06421	240.0
426.95117	60.0
428.508	40.0
429.08548	50.0
429.86337	60.0
430.09412	310.0
445.10519	540.0
445.15225	150.0

NAME:  NCGC00384563-02!5,7-dihydroxy-2-(4-hydroxyphenyl)-6,8-bis(3,4,5-trihydroxyoxan-2-yl)chromen-4-one
PRECURSORMZ:  533.13006444483
PRECURSORTYPE:  [M-H]-
FORMULA:  C25H26O13
Ontology: Kingdom: Organic compounds;Superclass: Phenylpropanoids and polyketides;Class: Flavonoids;Subclass: Flavonoid glycosides
INCHIKEY:  LDVNKZYMYPZDAI-UHFFFAOYNA-N
SMILES:  OC1COC(C(O)C1O)C1=C(O)C(C2OCC(O)C(O)C2O)=C2OC(=CC(=O)C2=C1O)C1=CC=C(O)C=C1
RETENTIONTIME:  
CCS:  242.8234567
IONMODE:  Negative
INSTRUMENTTYPE:  
INSTRUMENT:  Maxis II HD Q-TOF Bruker
COLLISIONENERGY:  
Comment:  DB#=CCMSLIB00000846125; origin=GNPS
Num Peaks:  28
153.50391	10.0
161.05602	10.0
161.54919	110.0
177.05302	20.0
203.08415	30.0
281.08011	30.0
282.04095	30.0
286.24561	20.0
311.06699	50.0
321.06897	20.0
323.05603	20.0
353.07047	250.0
383.0723	100.0
383.10562	50.0
395.05496	40.0
413.095	20.0
425.08768	40.0
443.10086	200.0
443.14194	30.0
443.17374	20.0
455.10623	20.0
473.10229	150.0
515.08929	70.0
532.74243	10.0
533.13184	1000.0
533.21771	20.0
533.87048	10.0
541.94379	20.0

NAME:  NCGC00385133-01!7-[(2S,3R,4S,5S,6R)-4,5-dihydroxy-6-(hydroxymethyl)-3-[(2S,3R,4R,5R,6S)-3,4,5-trihydroxy-6-methyloxan-2-yl]oxyoxan-2-yl]oxy-3,5-dihydroxy-2-(4-hydroxyphenyl)chromen-4-one
PRECURSORMZ:  593.15119381383
PRECURSORTYPE:  [M-H]-
FORMULA:  C27H30O15
Ontology: Kingdom: Organic compounds;Superclass: Phenylpropanoids and polyketides;Class: Flavonoids;Subclass: Flavonoid glycosides
INCHIKEY:  ZEJXENDZTYVXDP-UHFFFAOYNA-N
SMILES:  CC1OC(OC2C(O)C(O)C(CO)OC2OC2=CC(O)=C3C(=O)C(O)=C(OC3=C2)C2=CC=C(O)C=C2)C(O)C(O)C1O
RETENTIONTIME:  
CCS:  239.0670965
IONMODE:  Negative
INSTRUMENTTYPE:  
INSTRUMENT:  Maxis II HD Q-TOF Bruker
COLLISIONENERGY:  
Comment:  DB#=CCMSLIB00000846129; origin=GNPS
Num Peaks:  12
132.02846	10.0
139.254	10.0
227.0309	30.0
241.04396	20.0
255.0316	120.0
257.04388	30.0
283.0278	20.0
284.03232	1000.0
285.04407	100.0
299.0535	10.0
447.08771	10.0
593.15033	610.0

NAME:  NCGC00179919-03!3-hydroxy-3-methyl-5-oxo-5-[[3,4,5-trihydroxy-6-[6-methoxy-2-oxo-3-(2-oxochromen-7-yl)oxychromen-7-yl]oxyoxan-2-yl]methoxy]pentanoic acid
PRECURSORMZ:  657.14610843383
PRECURSORTYPE:  [M-H]-
FORMULA:  C31H30O16
Ontology: Kingdom: Organic compounds;Superclass: Phenylpropanoids and polyketides;Class: Coumarins and derivatives;Subclass: Coumarin glycosides
INCHIKEY:  ZTLZGWDERZVHNS-UHFFFAOYNA-N
SMILES:  COC1=C(OC2OC(COC(=O)CC(C)(O)CC(O)=O)C(O)C(O)C2O)C=C2OC(=O)C(OC3=CC4=C(C=CC(=O)O4)C=C3)=CC2=C1
RETENTIONTIME:  
CCS:  260.1701834
IONMODE:  Negative
INSTRUMENTTYPE:  
INSTRUMENT:  Maxis II HD Q-TOF Bruker
COLLISIONENERGY:  
Comment:  DB#=CCMSLIB00000846132; origin=GNPS
Num Peaks:  24
113.02628	10.0
125.02911	30.0
135.00565	10.0
161.01971	10.0
161.04599	10.0
163.00554	80.0
170.27676	20.0
191.00165	100.0
203.05586	20.0
206.02133	20.0
227.04189	20.0
252.06001	10.0
295.05524	10.0
305.08771	20.0
308.02814	20.0
335.02899	10.0
336.02692	250.0
337.03943	10.0
350.0285	20.0
351.05206	1000.0
352.05573	20.0
364.05823	10.0
393.06204	30.0
657.15417	20.0

NAME:  NCGC00381236-01![(2S,3S,4R,5R,6R)-5-acetyloxy-3-hydroxy-2-methyl-6-[[(2R,3S,4S,5R,6S)-3,4,5-trihydroxy-6-[5-hydroxy-6-methoxy-2-(4-methoxyphenyl)-4-oxochromen-7-yl]oxyoxan-2-yl]methoxy]oxan-4-yl] acetate
PRECURSORMZ:  751.20910231183
PRECURSORTYPE:  [M+FA-H]-
FORMULA:  C33H38O17
Ontology: ;;;
INCHIKEY:  ZVMMEKFQYNWINU-UHFFFAOYNA-N
SMILES:  COC1=CC=C(C=C1)C1=CC(=O)C2=C(O)C(OC)=C(OC3OC(COC4OC(C)C(O)C(OC(C)=O)C4OC(C)=O)C(O)C(O)C3O)C=C2O1
RETENTIONTIME:  
CCS:  -1
IONMODE:  Negative
INSTRUMENTTYPE:  
INSTRUMENT:  Maxis II HD Q-TOF Bruker
COLLISIONENERGY:  
Comment:  DB#=CCMSLIB00000846134; origin=GNPS
Num Peaks:  10
169.0519	10.0
254.06015	20.0
255.03326	10.0
269.04492	30.0
283.02502	90.0
297.03717	70.0
298.04791	270.0
313.07217	1000.0
314.07516	40.0
705.20361	20.0

NAME:  NCGC00381235-01!3-[4,5-dihydroxy-3-[(2R,3R,4R,5R,6S)-3,4,5-trihydroxy-6-methyloxan-2-yl]oxy-6-[[(2R,3R,4R,5R,6S)-3,4,5-trihydroxy-6-methyloxan-2-yl]oxymethyl]oxan-2-yl]oxy-5-hydroxy-2-(4-hydroxyphenyl)-7-methoxychromen-4-one
PRECURSORMZ:  753.22475267983
PRECURSORTYPE:  [M-H]-
FORMULA:  C34H42O19
Ontology: Kingdom: Organic compounds;Superclass: Phenylpropanoids and polyketides;Class: Flavonoids;Subclass: Flavonoid glycosides
INCHIKEY:  JGDLCWFCXJLERP-UHFFFAOYNA-N
SMILES:  COC1=CC(O)=C2C(=O)C(OC3OC(COC4OC(C)C(O)C(O)C4O)C(O)C(O)C3OC3OC(C)C(O)C(O)C3O)=C(OC2=C1)C1=CC=C(O)C=C1
RETENTIONTIME:  
CCS:  261.0111582
IONMODE:  Negative
INSTRUMENTTYPE:  
INSTRUMENT:  Maxis II HD Q-TOF Bruker
COLLISIONENERGY:  
Comment:  DB#=CCMSLIB00000846136; origin=GNPS
Num Peaks:  14
227.03419	10.0
255.03029	90.0
269.0379	10.0
271.06641	30.0
283.02518	520.0
284.03232	30.0
297.03952	20.0
298.04904	1000.0
299.0571	210.0
353.06039	10.0
407.07449	10.0
589.15802	10.0
753.22241	540.0
754.22894	50.0

NAME:  NCGC00347874-02!5-hydroxy-2,2,6,6-tetramethyl-4-[2-methyl-1-[2,4,6-trihydroxy-3-(2-methylpropanoyl)phenyl]propyl]cyclohex-4-ene-1,3-dione
PRECURSORMZ:  431.20752691783
PRECURSORTYPE:  [M-H]-
FORMULA:  C24H32O7
Ontology: Kingdom: Organic compounds;Superclass: Organic oxygen compounds;Class: Organooxygen compounds;Subclass: Carbonyl compounds
INCHIKEY:  JUXUXBIHGDQKND-UHFFFAOYNA-N
SMILES:  CC(C)C(C1=C(O)C(C(=O)C(C)C)=C(O)C=C1O)C1=C(O)C(C)(C)C(=O)C(C)(C)C1=O
RETENTIONTIME:  
CCS:  -1
IONMODE:  Negative
INSTRUMENTTYPE:  
INSTRUMENT:  Maxis II HD Q-TOF Bruker
COLLISIONENERGY:  
Comment:  DB#=CCMSLIB00000846137; origin=GNPS
Num Peaks:  9
107.01189	20.0
111.44889	10.0
151.00092	10.0
151.0764	140.0
153.36098	10.0
181.07951	30.0
195.06656	1000.0
249.11375	120.0
431.20721	260.0

NAME:  NCGC00347874-02!5-hydroxy-2,2,6,6-tetramethyl-4-[2-methyl-1-[2,4,6-trihydroxy-3-(2-methylpropanoyl)phenyl]propyl]cyclohex-4-ene-1,3-dione
PRECURSORMZ:  413.19696223783
PRECURSORTYPE:  [M-H2O-H]-
FORMULA:  C24H32O7
Ontology: Kingdom: Organic compounds;Superclass: Organic oxygen compounds;Class: Organooxygen compounds;Subclass: Carbonyl compounds
INCHIKEY:  JUXUXBIHGDQKND-UHFFFAOYNA-N
SMILES:  CC(C)C(C1=C(O)C(C(=O)C(C)C)=C(O)C=C1O)C1=C(O)C(C)(C)C(=O)C(C)(C)C1=O
RETENTIONTIME:  
CCS:  -1
IONMODE:  Negative
INSTRUMENTTYPE:  
INSTRUMENT:  Maxis II HD Q-TOF Bruker
COLLISIONENERGY:  
Comment:  DB#=CCMSLIB00000846139; origin=GNPS
Num Peaks:  4
179.0676	80.0
355.11542	470.0
412.86771	60.0
413.19742	1000.0

NAME:  NCGC00385068-01!methyl 4-methoxy-2-[(2S,3R,4S,5S,6R)-3,4,5-trihydroxy-6-[[(2S,3R,4S,5R)-3,4,5-trihydroxyoxan-2-yl]oxymethyl]oxan-2-yl]oxybenzoate
PRECURSORMZ:  521.15119350983
PRECURSORTYPE:  [M+FA-H]-
FORMULA:  C20H28O13
Ontology: Kingdom: Organic compounds;Superclass: Organic oxygen compounds;Class: Organooxygen compounds;Subclass: Carbohydrates and carbohydrate conjugates
INCHIKEY:  DZRVGBRAMLSZDQ-UHFFFAOYNA-N
SMILES:  COC(=O)C1=C(OC2OC(COC3OCC(O)C(O)C3O)C(O)C(O)C2O)C=C(OC)C=C1
RETENTIONTIME:  
CCS:  -1
IONMODE:  Negative
INSTRUMENTTYPE:  
INSTRUMENT:  Maxis II HD Q-TOF Bruker
COLLISIONENERGY:  
Comment:  DB#=CCMSLIB00000846142; origin=GNPS
Num Peaks:  19
83.30529	50.0
108.02237	110.0
113.022	70.0
119.03014	140.0
125.01835	120.0
143.03154	40.0
149.04271	320.0
152.00919	60.0
166.02945	450.0
181.04839	320.0
182.05952	130.0
191.05411	90.0
205.03299	50.0
209.04781	120.0
233.06586	710.0
293.09064	1000.0
311.07608	190.0
521.12054	90.0
1558.28442	200.0

NAME:  NCGC00381435-01!13-dodecan-2-yl-6-(1-hydroxyethyl)-3-(hydroxymethyl)-12-methyl-9-propan-2-yl-1-oxa-4,7,10-triazacyclotridecane-2,5,8,11-tetrone
PRECURSORMZ:  576.3421022539
PRECURSORTYPE:  [M+Cl]-
FORMULA:  C28H51N3O7
Ontology: Kingdom: Organic compounds;Superclass: Organic acids and derivatives;Class: Peptidomimetics;Subclass: Depsipeptides
INCHIKEY:  PVAWVKQDYYTSIE-UHFFFAOYNA-N
SMILES:  CCCCCCCCCCC(C)C1OC(=O)C(CO)N=C(O)C(N=C(O)C(N=C(O)C1C)C(C)C)C(C)O
RETENTIONTIME:  
CCS:  -1
IONMODE:  Negative
INSTRUMENTTYPE:  
INSTRUMENT:  Maxis II HD Q-TOF Bruker
COLLISIONENERGY:  
Comment:  DB#=CCMSLIB00000846144; origin=GNPS
Num Peaks:  13
113.03062	310.0
153.09903	170.0
157.05614	290.0
167.22592	90.0
169.10124	130.0
171.11378	1000.0
184.6983	260.0
232.96565	90.0
352.28775	970.0
369.31699	470.0
466.31686	760.0
510.34058	190.0
576.32855	130.0

NAME:  NCGC00381435-01!13-dodecan-2-yl-6-(1-hydroxyethyl)-3-(hydroxymethyl)-12-methyl-9-propan-2-yl-1-oxa-4,7,10-triazacyclotridecane-2,5,8,11-tetrone
PRECURSORMZ:  586.37090354183
PRECURSORTYPE:  [M+FA-H]-
FORMULA:  C28H51N3O7
Ontology: Kingdom: Organic compounds;Superclass: Organic acids and derivatives;Class: Peptidomimetics;Subclass: Depsipeptides
INCHIKEY:  PVAWVKQDYYTSIE-UHFFFAOYNA-N
SMILES:  CCCCCCCCCCC(C)C1OC(=O)C(CO)N=C(O)C(N=C(O)C(N=C(O)C1C)C(C)C)C(C)O
RETENTIONTIME:  
CCS:  -1
IONMODE:  Negative
INSTRUMENTTYPE:  
INSTRUMENT:  Maxis II HD Q-TOF Bruker
COLLISIONENERGY:  
Comment:  DB#=CCMSLIB00000846146; origin=GNPS
Num Peaks:  24
113.03518	60.0
115.08739	70.0
125.03422	10.0
143.04472	10.0
153.10231	10.0
154.08578	20.0
171.11449	1000.0
224.14105	20.0
252.2336	10.0
254.14758	20.0
268.12775	10.0
351.30814	10.0
352.28757	250.0
369.31406	440.0
370.30792	10.0
409.29932	10.0
422.34787	20.0
434.33908	20.0
466.33035	520.0
478.34604	20.0
496.33444	30.0
510.35754	100.0
522.35913	20.0
540.36505	120.0

NAME:  NCGC00179918-02!5-hydroxy-2-(4-hydroxyphenyl)-7-(3,4,5-trihydroxy-6-methyloxan-2-yl)oxy-3-(3,4,5-trihydroxyoxan-2-yl)oxychromen-4-one
PRECURSORMZ:  563.14062912983
PRECURSORTYPE:  [M-H]-
FORMULA:  C26H28O14
Ontology: Kingdom: Organic compounds;Superclass: Phenylpropanoids and polyketides;Class: Flavonoids;Subclass: Flavonoid glycosides
INCHIKEY:  DQBVFTJNUYZVQL-UHFFFAOYNA-N
SMILES:  CC1OC(OC2=CC(O)=C3C(=O)C(OC4OCC(O)C(O)C4O)=C(OC3=C2)C2=CC=C(O)C=C2)C(O)C(O)C1O
RETENTIONTIME:  
CCS:  232.1428298
IONMODE:  Negative
INSTRUMENTTYPE:  
INSTRUMENT:  Maxis II HD Q-TOF Bruker
COLLISIONENERGY:  
Comment:  DB#=CCMSLIB00000846148; origin=GNPS
Num Peaks:  12
255.02644	80.0
256.03192	40.0
274.41302	30.0
283.02582	770.0
284.03546	100.0
285.0423	250.0
301.68817	40.0
417.08716	190.0
430.09128	1000.0
431.10504	200.0
555.54413	20.0
563.14111	650.0

NAME:  NCGC00381433-01!4-[3-(3,5-dihydroxy-4-methoxy-6-methyloxan-2-yl)oxy-4,5-dihydroxy-6-methyloxan-2-yl]oxy-12-hydroxy-7-methyl-6-oxonaphtho[1,2-c]isochromene-10-carboxylic acid
PRECURSORMZ:  641.18757932283
PRECURSORTYPE:  [M-H]-
FORMULA:  C32H34O14
Ontology: Kingdom: Organic compounds;Superclass: Organic oxygen compounds;Class: Organooxygen compounds;Subclass: Carbohydrates and carbohydrate conjugates
INCHIKEY:  ZVUYNAQSHSSBDQ-UHFFFAOYNA-N
SMILES:  COC1C(O)C(C)OC(OC2C(O)C(O)C(C)OC2OC2=CC=CC3=C(O)C=C4C(OC(=O)C5=C(C)C=CC(C(O)=O)=C45)=C23)C1O
RETENTIONTIME:  
CCS:  -1
IONMODE:  Negative
INSTRUMENTTYPE:  
INSTRUMENT:  Maxis II HD Q-TOF Bruker
COLLISIONENERGY:  
Comment:  DB#=CCMSLIB00000846150; origin=GNPS
Num Peaks:  31
139.60683	20.0
206.0713	30.0
233.07674	40.0
234.06888	50.0
235.08427	20.0
236.45747	20.0
262.06076	110.0
289.68921	10.0
290.061	1000.0
290.48495	20.0
290.5322	10.0
291.06717	720.0
291.23544	10.0
291.46475	10.0
301.05392	20.0
307.05579	30.0
315.06839	40.0
345.0477	90.0
357.11548	10.0
419.1232	50.0
437.12363	40.0
493.14471	20.0
595.9765	10.0
596.4093	10.0
596.49487	10.0
596.52948	10.0
596.76227	10.0
597.00787	20.0
597.20111	610.0
598.23584	30.0
641.20142	90.0

NAME:  NCGC00381433-01!4-[3-(3,5-dihydroxy-4-methoxy-6-methyloxan-2-yl)oxy-4,5-dihydroxy-6-methyloxan-2-yl]oxy-12-hydroxy-7-methyl-6-oxonaphtho[1,2-c]isochromene-10-carboxylic acid
PRECURSORMZ:  687.19305832283
PRECURSORTYPE:  [M+FA-H]-
FORMULA:  C32H34O14
Ontology: ;;;
INCHIKEY:  ZVUYNAQSHSSBDQ-UHFFFAOYNA-N
SMILES:  COC1C(O)C(C)OC(OC2C(O)C(O)C(C)OC2OC2=CC=CC3=C(O)C=C4C(OC(=O)C5=C(C)C=CC(C(O)=O)=C45)=C23)C1O
RETENTIONTIME:  
CCS:  -1
IONMODE:  Negative
INSTRUMENTTYPE:  
INSTRUMENT:  Maxis II HD Q-TOF Bruker
COLLISIONENERGY:  
Comment:  DB#=CCMSLIB00000846152; origin=GNPS
Num Peaks:  28
127.03954	20.0
141.18552	20.0
219.07933	10.0
234.07251	90.0
246.06236	20.0
261.05527	10.0
262.06595	70.0
263.07266	20.0
289.6116	20.0
290.05841	750.0
291.0675	560.0
291.89871	10.0
298.44363	10.0
301.05624	10.0
304.07925	30.0
305.0679	20.0
306.07425	10.0
315.07397	20.0
345.07529	30.0
346.07901	20.0
357.06732	10.0
365.9678	20.0
381.05228	20.0
419.12729	10.0
562.52203	10.0
596.45416	10.0
597.1969	1000.0
641.18433	80.0

NAME:  NCGC00380685-01![(2S,3R,4S,5R,6R)-5-hydroxy-2,4-bis[(3,4,5-trihydroxybenzoyl)oxy]-6-[(3,4,5-trihydroxybenzoyl)oxymethyl]oxan-3-yl] 3,4,5-trihydroxy-2-(2-methoxy-2-oxoethyl)benzoate
PRECURSORMZ:  859.12107545783
PRECURSORTYPE:  [M-H]-
FORMULA:  C37H32O24
Ontology: Kingdom: Organic compounds;Superclass: Phenylpropanoids and polyketides;Class: Tannins;
INCHIKEY:  YMFLMFCNFNRUFO-UHFFFAOYNA-N
SMILES:  COC(=O)CC1=C(O)C(O)=C(O)C=C1C(=O)OC1C(OC(=O)C2=CC(O)=C(O)C(O)=C2)OC(COC(=O)C2=CC(O)=C(O)C(O)=C2)C(O)C1OC(=O)C1=CC(O)=C(O)C(O)=C1
RETENTIONTIME:  
CCS:  -1
IONMODE:  Negative
INSTRUMENTTYPE:  
INSTRUMENT:  Maxis II HD Q-TOF Bruker
COLLISIONENERGY:  
Comment:  DB#=CCMSLIB00000846154; origin=GNPS
Num Peaks:  113
101.02653	20.0
107.01671	20.0
111.01465	10.0
119.05021	20.0
122.00455	10.0
123.00852	100.0
124.018	20.0
125.02528	350.0
137.02707	40.0
139.00395	30.0
140.01199	20.0
141.02344	40.0
151.01756	20.0
153.01585	10.0
159.04822	20.0
161.02763	40.0
162.03693	20.0
162.16006	10.0
163.00618	140.0
163.04419	10.0
164.01164	20.0
165.02003	140.0
165.06	20.0
166.99835	40.0
167.03	30.0
167.81425	10.0
168.00545	80.0
169.01456	1000.0
170.98816	10.0
177.01822	30.0
178.00784	10.0
179.87274	10.0
181.01489	40.0
181.05605	10.0
190.99738	50.0
191.03644	20.0
192.00883	30.0
192.03511	10.0
193.00688	20.0
193.04854	20.0
195.02892	10.0
197.05225	10.0
206.98943	10.0
207.06195	10.0
208.00299	60.0
209.01074	310.0
211.02322	60.0
215.02919	10.0
217.01009	10.0
219.02943	10.0
221.04327	50.0
226.81706	20.0
227.05748	10.0
233.04539	20.0
235.0211	40.0
239.02243	20.0
241.03801	60.0
246.00896	10.0
247.03082	20.0
249.04398	20.0
253.02907	20.0
257.89615	10.0
267.05405	30.0
271.05466	20.0
273.04312	20.0
275.0224	10.0
277.03308	10.0
279.0466	40.0
295.04623	160.0
297.04318	10.0
307.04446	30.0
313.05881	350.0
314.05124	10.0
335.04251	10.0
385.05389	10.0
389.98254	10.0
405.086	20.0
415.05505	10.0
421.08987	20.0
443.08075	10.0
445.03809	20.0
447.05566	140.0
448.06216	10.0
449.07047	60.0
450.08557	10.0
461.07812	10.0
464.44247	10.0
465.06906	900.0
466.06601	40.0
483.12558	20.0
487.06192	40.0
489.06564	30.0
505.06049	80.0
506.08527	10.0
519.09076	20.0
537.09869	30.0
613.07294	20.0
617.07855	70.0
635.06506	20.0
635.10724	30.0
646.13293	10.0
657.07556	440.0
658.07416	40.0
675.08746	30.0
688.0033	10.0
689.10449	290.0
690.10522	70.0
707.10022	10.0
827.09375	210.0
828.08643	50.0
858.94208	10.0
859.12469	380.0
860.12555	80.0

NAME:  NCGC00380274-01!methyl (1S,3R,4R,5R)-3-[(E)-3-(3,4-dihydroxyphenyl)prop-2-enoyl]oxy-1,4,5-trihydroxycyclohexane-1-carboxylate
PRECURSORMZ:  367.10345577183
PRECURSORTYPE:  [M-H]-
FORMULA:  C17H20O9
Ontology: Kingdom: Organic compounds;Superclass: Organic oxygen compounds;Class: Organooxygen compounds;Subclass: Alcohols and polyols
INCHIKEY:  MZNIJRAPCCELQX-UHFFFAOYNA-N
SMILES:  COC(=O)C1(O)CC(O)C(O)C(C1)OC(=O)C=CC1=CC(O)=C(O)C=C1
RETENTIONTIME:  
CCS:  200.6780133
IONMODE:  Negative
INSTRUMENTTYPE:  
INSTRUMENT:  Maxis II HD Q-TOF Bruker
COLLISIONENERGY:  
Comment:  DB#=CCMSLIB00000846156; origin=GNPS
Num Peaks:  8
79.54284	140.0
91.12348	220.0
133.02994	140.0
134.03905	300.0
135.04237	800.0
161.02147	270.0
179.03664	600.0
367.10098	1000.0

NAME:  NCGC00385073-01!5-hydroxy-3-(4-methoxyphenyl)-7-[3,4,5-trihydroxy-6-[(3,4,5-trihydroxy-6-methyloxan-2-yl)oxymethyl]oxan-2-yl]oxychromen-4-one
PRECURSORMZ:  637.17740825783
PRECURSORTYPE:  [M+FA-H]-
FORMULA:  C28H32O14
Ontology: Kingdom: Organic compounds;Superclass: Phenylpropanoids and polyketides;Class: Isoflavonoids;Subclass: Isoflavonoid O
INCHIKEY:  WWSNSDWQADMAJB-UHFFFAOYNA-N
SMILES:  COC1=CC=C(C=C1)C1=COC2=CC(OC3OC(COC4OC(C)C(O)C(O)C4O)C(O)C(O)C3O)=CC(O)=C2C1=O
RETENTIONTIME:  
CCS:  -1
IONMODE:  Negative
INSTRUMENTTYPE:  
INSTRUMENT:  Maxis II HD Q-TOF Bruker
COLLISIONENERGY:  
Comment:  DB#=CCMSLIB00000846157; origin=GNPS
Num Peaks:  2
268.03888	120.0
283.06186	1000.0

NAME:  NCGC00169146-02!2-[[(2R,3S)-2-(3,4-dihydroxyphenyl)-3,5-dihydroxy-3,4-dihydro-2H-chromen-7-yl]oxy]oxane-3,4,5-triol
PRECURSORMZ:  421.11402045583
PRECURSORTYPE:  [M-H]-
FORMULA:  C20H22O10
Ontology: Kingdom: Organic compounds;Superclass: Phenylpropanoids and polyketides;Class: Flavonoids;Subclass: Flavonoid glycosides
INCHIKEY:  UQKKDJWFQBNZBJ-UHFFFAOYNA-N
SMILES:  OC1COC(OC2=CC(O)=C3CC(O)C(OC3=C2)C2=CC(O)=C(O)C=C2)C(O)C1O
RETENTIONTIME:  
CCS:  195.2282166
IONMODE:  Negative
INSTRUMENTTYPE:  
INSTRUMENT:  Maxis II HD Q-TOF Bruker
COLLISIONENERGY:  
Comment:  DB#=CCMSLIB00000846159; origin=GNPS
Num Peaks:  11
95.05191	90.0
151.03865	70.0
165.02612	80.0
203.06931	60.0
245.07921	120.0
288.41129	30.0
289.07123	1000.0
290.66129	50.0
297.05975	30.0
421.11398	120.0
1082.37097	30.0

NAME:  NCGC00347765-02![(7R)-5-chloro-3-[(1E,3E,5S)-3,5-dimethylhepta-1,3-dienyl]-2-(2-hydroxyethyl)-7-methyl-6,8-dioxoisoquinolin-7-yl] acetate
PRECURSORMZ:  478.16380324783
PRECURSORTYPE:  [M+FA-H]-
FORMULA:  C23H28ClNO5
Ontology: Kingdom: Organic compounds;Superclass: Organoheterocyclic compounds;Class: Azaphilones;
INCHIKEY:  ZQLIAKJHIRHCFA-UHFFFAOYNA-N
SMILES:  CCC(C)C=C(C)C=CC1=CC2=C(Cl)C(=O)C(C)(OC(C)=O)C(=O)C2=CN1CCO
RETENTIONTIME:  
CCS:  -1
IONMODE:  Negative
INSTRUMENTTYPE:  
INSTRUMENT:  Maxis II HD Q-TOF Bruker
COLLISIONENERGY:  
Comment:  DB#=CCMSLIB00000846162; origin=GNPS
Num Peaks:  6
278.08194	110.0
342.12967	1000.0
372.13092	130.0
388.12579	460.0
431.35226	80.0
932.2655	550.0

NAME:  NCGC00386071-01![3-methyl-1-[3-methyl-1-oxo-1-(2,3,4,5,6-pentahydroxyhexoxy)pentan-2-yl]oxy-1-oxopentan-2-yl] 2-hydroxy-3-methylpentanoate
PRECURSORMZ:  569.28147940483
PRECURSORTYPE:  [M+FA-H]-
FORMULA:  C24H44O12
Ontology: Kingdom: Organic compounds;Superclass: Organic acids and derivatives;Class: Peptidomimetics;Subclass: Depsipeptides
INCHIKEY:  UCAFTLMODRRASO-UHFFFAOYNA-N
SMILES:  CCC(C)C(O)C(=O)OC(C(C)CC)C(=O)OC(C(C)CC)C(=O)OCC(O)C(O)C(O)C(O)CO
RETENTIONTIME:  
CCS:  -1
IONMODE:  Negative
INSTRUMENTTYPE:  
INSTRUMENT:  Maxis II HD Q-TOF Bruker
COLLISIONENERGY:  
Comment:  DB#=CCMSLIB00000846163; origin=GNPS
Num Peaks:  4
129.05559	10.0
131.07121	1000.0
245.14119	350.0
359.21179	80.0

NAME:  NCGC00386083-01!dimethyl (2E,6E,11Z)-19-(2-amino-2-oxoethyl)-9,13-dihydroxy-8-methoxy-10,12,14-trimethyl-15-oxohenicosa-2,6,11-trienedioate
PRECURSORMZ:  598.32328464483
PRECURSORTYPE:  [M+FA-H]-
FORMULA:  C29H47NO9
Ontology: Kingdom: Organic compounds;Superclass: Lipids and lipid;Class: Fatty Acyls;Subclass: Fatty acid esters
INCHIKEY:  BJMXBTRNBWZGEQ-UHFFFAOYNA-N
SMILES:  COC(C=CCCC=CC(=O)OC)C(O)C(C)C=C(C)C(O)C(C)C(=O)CCCC(CC(O)=N)CC(=O)OC
RETENTIONTIME:  
CCS:  -1
IONMODE:  Negative
INSTRUMENTTYPE:  
INSTRUMENT:  Maxis II HD Q-TOF Bruker
COLLISIONENERGY:  
Comment:  DB#=CCMSLIB00000846165; origin=GNPS
Num Peaks:  20
151.07761	470.0
151.11658	150.0
159.08069	130.0
179.9352	40.0
180.0657	30.0
191.10733	680.0
192.11162	110.0
216.13837	100.0
222.11859	130.0
250.14653	230.0
258.37451	60.0
262.14236	60.0
278.14252	200.0
290.17593	1000.0
456.24466	70.0
488.2757	250.0
501.99966	40.0
502.97842	50.0
506.25507	30.0
520.29614	270.0

NAME:  NCGC00386067-01!2-[2-(19-acetamido-16,18-dihydroxy-5,9-dimethyl-6-oxoicosan-7-yl)oxy-2-oxoethyl]butanedioic acid
PRECURSORMZ:  586.35967045883
PRECURSORTYPE:  [M-H]-
FORMULA:  C30H53NO10
Ontology: Kingdom: Organic compounds;Superclass: Organic acids and derivatives;Class: Carboxylic acids and derivatives;Subclass: Tricarboxylic acids and derivatives
INCHIKEY:  CYKDMNNWBMLNSF-UHFFFAOYNA-N
SMILES:  CCCCC(C)C(=O)C(CC(C)CCCCCCC(O)CC(O)C(C)N=C(C)O)OC(=O)CC(CC(O)=O)C(O)=O
RETENTIONTIME:  
CCS:  -1
IONMODE:  Negative
INSTRUMENTTYPE:  
INSTRUMENT:  Maxis II HD Q-TOF Bruker
COLLISIONENERGY:  
Comment:  DB#=CCMSLIB00000846168; origin=GNPS
Num Peaks:  3
113.0247	30.0
157.01375	1000.0
586.3631	180.0

NAME:  NCGC00384483-01!(3Z,5E,7R,8S,9S,11E,13E,15S,16R)-16-[(E,2S,3R,4S,8S,9R)-3,9-dihydroxy-4,8,10-trimethyl-5-oxoundec-6-en-2-yl]-8-hydroxy-3,15-dimethoxy-5,7,9,11-tetramethyl-1-oxacyclohexadeca-3,5,11,13-tetraen-2-one
PRECURSORMZ:  649.39572131083
PRECURSORTYPE:  [M+FA-H]-
FORMULA:  C35H56O8
Ontology: Kingdom: Organic compounds;Superclass: Phenylpropanoids and polyketides;Class: Macrolides and analogues;
INCHIKEY:  ZKOTUWJMGBWBEO-UHFFFAOYNA-N
SMILES:  COC1C=CC=C(C)CC(C)C(O)C(C)C=C(C)C=C(OC)C(=O)OC1C(C)C(O)C(C)C(=O)C=CC(C)C(O)C(C)C
RETENTIONTIME:  
CCS:  -1
IONMODE:  Negative
INSTRUMENTTYPE:  
INSTRUMENT:  Maxis II HD Q-TOF Bruker
COLLISIONENERGY:  
Comment:  DB#=CCMSLIB00000846169; origin=GNPS
Num Peaks:  9
150.14032	10.0
157.19812	20.0
183.01106	80.0
310.0704	10.0
310.15857	20.0
311.16876	1000.0
312.17203	10.0
354.9761	20.0
484.97247	20.0

NAME:  NCGC00386102-01![3-methyl-1-[3-methyl-1-[3-methyl-1-[3-methyl-1-oxo-1-(2,3,4,5-tetrahydroxypentoxy)pentan-2-yl]oxy-1-oxopentan-2-yl]oxy-1-oxopentan-2-yl]oxy-1-oxopentan-2-yl] 2-acetyloxy-3-methylpentanoate
PRECURSORMZ:  809.41763852883
PRECURSORTYPE:  [M+FA-H]-
FORMULA:  C37H64O16
Ontology: Kingdom: Organic compounds;Superclass: Organic acids and derivatives;Class: Carboxylic acids and derivatives;Subclass: Hexacarboxylic acids and derivatives
INCHIKEY:  YJXRPXBRYBCYRH-UHFFFAOYNA-N
SMILES:  CCC(C)C(OC(=O)C(OC(=O)C(OC(=O)C(OC(=O)C(OC(C)=O)C(C)CC)C(C)CC)C(C)CC)C(C)CC)C(=O)OCC(O)C(O)C(O)CO
RETENTIONTIME:  
CCS:  -1
IONMODE:  Negative
INSTRUMENTTYPE:  
INSTRUMENT:  Maxis II HD Q-TOF Bruker
COLLISIONENERGY:  
Comment:  DB#=CCMSLIB00000846172; origin=GNPS
Num Peaks:  11
113.06094	70.0
131.07019	400.0
173.08208	1000.0
258.03714	10.0
287.1507	960.0
288.15271	20.0
401.21945	800.0
402.21832	40.0
515.28162	210.0
516.29474	40.0
629.34991	20.0

NAME:  NCGC00164319-09![(2R,3R)-5,7-dihydroxy-2-(3,4,5-trihydroxyphenyl)-3,4-dihydro-2H-chromen-3-yl] 3,4,5-trihydroxybenzoate
PRECURSORMZ:  457.07763494783
PRECURSORTYPE:  [M-H]-
FORMULA:  C22H18O11
Ontology: Kingdom: Organic compounds;Superclass: Phenylpropanoids and polyketides;Class: Flavonoids;Subclass: Flavans
INCHIKEY:  WMBWREPUVVBILR-UHFFFAOYNA-N
SMILES:  OC1=CC(O)=C2CC(OC(=O)C3=CC(O)=C(O)C(O)=C3)C(OC2=C1)C1=CC(O)=C(O)C(O)=C1
RETENTIONTIME:  
CCS:  201.529803
IONMODE:  Negative
INSTRUMENTTYPE:  
INSTRUMENT:  Maxis II HD Q-TOF Bruker
COLLISIONENERGY:  
Comment:  DB#=CCMSLIB00000846173; origin=GNPS
Num Peaks:  16
112.6863	10.0
112.73936	30.0
125.02582	140.0
126.02403	40.0
137.02202	30.0
161.0239	40.0
165.01294	40.0
166.99931	50.0
168.0067	50.0
169.01427	1000.0
171.30551	10.0
203.08478	40.0
269.04749	30.0
305.06418	60.0
319.02567	30.0
330.03943	50.0

NAME:  NCGC00164319-09![(2R,3R)-5,7-dihydroxy-2-(3,4,5-trihydroxyphenyl)-3,4-dihydro-2H-chromen-3-yl] 3,4,5-trihydroxybenzoate
PRECURSORMZ:  503.08311394783
PRECURSORTYPE:  [M+FA-H]-
FORMULA:  C22H18O11
Ontology: Kingdom: Organic compounds;Superclass: Phenylpropanoids and polyketides;Class: Flavonoids;Subclass: Flavans
INCHIKEY:  WMBWREPUVVBILR-UHFFFAOYNA-N
SMILES:  OC1=CC(O)=C2CC(OC(=O)C3=CC(O)=C(O)C(O)=C3)C(OC2=C1)C1=CC(O)=C(O)C(O)=C1
RETENTIONTIME:  
CCS:  -1
IONMODE:  Negative
INSTRUMENTTYPE:  
INSTRUMENT:  Maxis II HD Q-TOF Bruker
COLLISIONENERGY:  
Comment:  DB#=CCMSLIB00000846175; origin=GNPS
Num Peaks:  13
125.02384	140.0
137.0238	10.0
161.02293	50.0
168.00723	30.0
168.76158	20.0
169.01387	1000.0
170.01237	40.0
205.00943	20.0
230.4295	20.0
269.05338	60.0
287.05722	20.0
305.06277	190.0
457.07849	140.0

NAME:  NCGC00385832-01!5,7-dihydroxy-3-(4-hydroxyphenyl)-6,8-bis[3,4,5-trihydroxy-6-(hydroxymethyl)oxan-2-yl]chromen-4-one
PRECURSORMZ:  593.15119381383
PRECURSORTYPE:  [M-H]-
FORMULA:  C27H30O15
Ontology: Kingdom: Organic compounds;Superclass: Phenylpropanoids and polyketides;Class: Isoflavonoids;Subclass: Isoflavonoid C
INCHIKEY:  ISNRVVKKHPECQN-UHFFFAOYNA-N
SMILES:  OCC1OC(C(O)C(O)C1O)C1=C(O)C2=C(OC=C(C2=O)C2=CC=C(O)C=C2)C(C2OC(CO)C(O)C(O)C2O)=C1O
RETENTIONTIME:  
CCS:  232.5400178
IONMODE:  Negative
INSTRUMENTTYPE:  
INSTRUMENT:  Maxis II HD Q-TOF Bruker
COLLISIONENERGY:  
Comment:  DB#=CCMSLIB00000846177; origin=GNPS
Num Peaks:  29
133.02866	10.0
162.78214	10.0
221.04062	20.0
223.09317	10.0
246.9325	20.0
268.07336	10.0
295.04337	10.0
308.92459	10.0
311.06006	30.0
317.85254	10.0
325.06683	40.0
328.06436	30.0
339.02911	10.0
352.05826	10.0
353.06525	290.0
356.0498	20.0
365.0723	20.0
377.03793	10.0
383.08035	180.0
437.24881	10.0
473.10391	220.0
503.12964	50.0
503.19391	10.0
533.1217	10.0
545.1123	20.0
560.78802	20.0
575.13654	30.0
592.67474	10.0
593.15271	1000.0

NAME:  NCGC00385821-01!(3R,5R)-4-(4-carboxy-3-hydroxy-3-methylbutanoyl)oxy-3,5-bis[[(E)-3-(3,4-dihydroxyphenyl)prop-2-enoyl]oxy]-1-hydroxycyclohexane-1-carboxylic acid
PRECURSORMZ:  659.16175849783
PRECURSORTYPE:  [M-H]-
FORMULA:  C31H32O16
Ontology: Kingdom: Organic compounds;Superclass: Organic acids and derivatives;Class: Carboxylic acids and derivatives;Subclass: Pentacarboxylic acids and derivatives
INCHIKEY:  OOGPWQHGQYUIAW-UHFFFAOYNA-N
SMILES:  CC(O)(CC(O)=O)CC(=O)OC1C(CC(O)(CC1OC(=O)C=CC1=CC(O)=C(O)C=C1)C(O)=O)OC(=O)C=CC1=CC(O)=C(O)C=C1
RETENTIONTIME:  
CCS:  290.7298191
IONMODE:  Negative
INSTRUMENTTYPE:  
INSTRUMENT:  Maxis II HD Q-TOF Bruker
COLLISIONENERGY:  
Comment:  DB#=CCMSLIB00000846180; origin=GNPS
Num Peaks:  30
93.03517	30.0
101.02433	20.0
127.03744	30.0
134.04242	40.0
135.04559	60.0
137.02669	50.0
155.03091	20.0
156.3575	10.0
161.04529	750.0
161.09396	10.0
161.4662	20.0
173.04607	480.0
176.40466	30.0
179.03421	150.0
186.59576	20.0
191.05705	490.0
192.05475	20.0
203.56424	40.0
221.28802	20.0
233.06691	170.0
247.05731	20.0
273.10074	90.0
335.07779	500.0
353.08386	220.0
395.10468	40.0
435.13129	70.0
497.12772	1000.0
515.12354	30.0
654.49506	20.0
659.15686	60.0

NAME:  NCGC00381103-01!5-[[(2R,3S,4S,5R,6S)-3,4-dihydroxy-6-[[5-hydroxy-2-(4-hydroxyphenyl)-4-oxo-2,3-dihydrochromen-7-yl]oxy]-5-[(2S,3R,4R,5R,6S)-3,4,5-trihydroxy-6-methyloxan-2-yl]oxyoxan-2-yl]methoxy]-3-hydroxy-3-methyl-5-oxopentanoic acid
PRECURSORMZ:  723.21418799583
PRECURSORTYPE:  [M-H]-
FORMULA:  C33H40O18
Ontology: Kingdom: Organic compounds;Superclass: Phenylpropanoids and polyketides;Class: Flavonoids;Subclass: Flavonoid glycosides
INCHIKEY:  NEFQWEGQYZRALY-UHFFFAOYNA-N
SMILES:  CC1OC(OC2C(O)C(O)C(COC(=O)CC(C)(O)CC(O)=O)OC2OC2=CC(O)=C3C(=O)CC(OC3=C2)C2=CC=C(O)C=C2)C(O)C(O)C1O
RETENTIONTIME:  
CCS:  268.2683007
IONMODE:  Negative
INSTRUMENTTYPE:  
INSTRUMENT:  Maxis II HD Q-TOF Bruker
COLLISIONENERGY:  
Comment:  DB#=CCMSLIB00000846182; origin=GNPS
Num Peaks:  63
83.01355	20.0
98.30881	10.0
99.0496	20.0
101.02477	20.0
105.09676	10.0
107.01513	30.0
117.03447	10.0
119.05106	100.0
121.9992	20.0
125.02613	60.0
135.0092	20.0
145.02763	30.0
151.00374	710.0
161.049	10.0
163.05966	10.0
169.01189	10.0
169.03516	10.0
177.02141	30.0
187.04465	10.0
191.03302	20.0
193.01411	40.0
213.01637	10.0
218.0206	10.0
219.03271	30.0
227.07141	20.0
229.05162	10.0
235.01828	40.0
269.05695	10.0
270.05118	20.0
271.06155	800.0
272.07446	10.0
277.16943	10.0
285.07596	30.0
290.83539	10.0
294.04599	20.0
313.07092	10.0
318.84592	10.0
337.06073	10.0
339.07376	60.0
355.09988	20.0
369.10919	10.0
387.41296	10.0
459.11456	100.0
477.1188	10.0
485.13687	10.0
501.12595	200.0
535.21869	10.0
541.15558	50.0
541.17175	40.0
561.14307	20.0
578.16644	10.0
579.1709	1000.0
580.16888	80.0
582.69214	10.0
590.41284	20.0
617.79877	10.0
621.18073	940.0
622.22015	40.0
661.20691	150.0
662.20654	20.0
723.21234	440.0
724.23303	10.0
1236.67908	20.0

NAME:  NCGC00380260-01!2-(2-acetyloxy-12-hydroxytridecyl)-4,6-dihydroxybenzoic acid
PRECURSORMZ:  409.22317698283
PRECURSORTYPE:  [M-H]-
FORMULA:  C22H34O7
Ontology: Kingdom: Organic compounds;Superclass: Lipids and lipid;Class: Fatty Acyls;Subclass: Fatty alcohols
INCHIKEY:  NDPYMEUORCDDDL-UHFFFAOYNA-N
SMILES:  CC(O)CCCCCCCCCC(CC1=CC(O)=CC(O)=C1C(O)=O)OC(C)=O
RETENTIONTIME:  
CCS:  230.4215856
IONMODE:  Negative
INSTRUMENTTYPE:  
INSTRUMENT:  Maxis II HD Q-TOF Bruker
COLLISIONENERGY:  
Comment:  DB#=CCMSLIB00000846184; origin=GNPS
Num Peaks:  12
104.65647	30.0
147.45396	20.0
158.07561	40.0
188.20871	60.0
206.01125	60.0
263.19583	30.0
304.1991	50.0
305.21912	90.0
331.18927	320.0
348.16016	40.0
349.20316	1000.0
349.40363	20.0

NAME:  NCGC00380251-01!
PRECURSORMZ:  415.13984128083
PRECURSORTYPE:  [M-H]-
FORMULA:  C22H24O8
Ontology: Kingdom: Organic compounds;Superclass: Organoheterocyclic compounds;Class: Naphthofurans;
INCHIKEY:  BADPZPNBPIOSER-UHFFFAOYNA-N
SMILES:  COC1(CC(O)C(O)=O)C(=O)C2=C(O)C3=C(OC(C)C3(C)C)C3=C2C1=C(O)C=C3C
RETENTIONTIME:  
CCS:  -1
IONMODE:  Negative
INSTRUMENTTYPE:  
INSTRUMENT:  Maxis II HD Q-TOF Bruker
COLLISIONENERGY:  
Comment:  DB#=CCMSLIB00000846185; origin=GNPS
Num Peaks:  9
293.07788	20.0
294.1257	40.0
295.09039	10.0
296.11658	40.0
309.11487	1000.0
309.16589	60.0
310.11011	20.0
339.12619	550.0
383.10172	80.0

NAME:  NCGC00347393-02![4,5,8-trihydroxy-5-(hydroxymethyl)-3-(3-methoxy-3-oxoprop-1-en-2-yl)-8a-methyl-1,2,3,4,4a,6,7,8-octahydronaphthalen-2-yl] 3,4-dihydroxy-2-methylidenebutanoate
PRECURSORMZ:  489.19774977783
PRECURSORTYPE:  [M+FA-H]-
FORMULA:  C21H32O10
Ontology: Kingdom: Organic compounds;Superclass: Lipids and lipid;Class: Prenol lipids;Subclass: Sesquiterpenoids
INCHIKEY:  RRUQYJBEEQBWGK-UHFFFAOYNA-N
SMILES:  COC(=O)C(=C)C1C(O)C2C(O)(CO)CCC(O)C2(C)CC1OC(=O)C(=C)C(O)CO
RETENTIONTIME:  
CCS:  -1
IONMODE:  Negative
INSTRUMENTTYPE:  
INSTRUMENT:  Maxis II HD Q-TOF Bruker
COLLISIONENERGY:  
Comment:  DB#=CCMSLIB00000846188; origin=GNPS
Num Peaks:  13
113.02265	30.0
131.03563	1000.0
140.56917	20.0
148.99971	10.0
163.07614	30.0
163.46442	20.0
172.67924	50.0
251.13048	40.0
261.12814	80.0
279.12347	20.0
297.12567	20.0
329.1532	10.0
393.1637	30.0

NAME:  NCGC00380256-01!2-[[4-(2,4-dihydroxy-3,5,6-trimethylbenzoyl)oxy-2-hydroxy-6-methylbenzoyl]amino]-3-hydroxybutanoic acid
PRECURSORMZ:  446.14565493683
PRECURSORTYPE:  [M-H]-
FORMULA:  C22H25NO9
Ontology: Kingdom: Organic compounds;Superclass: Phenylpropanoids and polyketides;Class: Depsides and depsidones;
INCHIKEY:  NJVQCZVYEIAGLE-UHFFFAOYNA-N
SMILES:  CC(O)C(N=C(O)C1=C(O)C=C(OC(=O)C2=C(O)C(C)=C(O)C(C)=C2C)C=C1C)C(O)=O
RETENTIONTIME:  
CCS:  -1
IONMODE:  Negative
INSTRUMENTTYPE:  
INSTRUMENT:  Maxis II HD Q-TOF Bruker
COLLISIONENERGY:  
Comment:  DB#=CCMSLIB00000846190; origin=GNPS
Num Peaks:  23
70.27776	50.0
80.27834	40.0
100.00385	60.0
123.0425	30.0
144.02986	150.0
149.02415	80.0
151.07657	150.0
160.07774	30.0
162.08707	90.0
167.03447	150.0
177.05482	200.0
190.08607	80.0
195.06796	70.0
234.07721	70.0
234.11989	20.0
252.08887	380.0
253.10616	10.0
296.11325	1000.0
433.35892	20.0
445.15948	20.0
446.15186	50.0
792.32526	10.0
933.21838	10.0

NAME:  NCGC00380378-01![(2R,3R,4S,5S,6R)-3-acetyloxy-2-(acetyloxymethyl)-5-hexanoyloxy-6-[(2S,3R)-2,3,4-trihydroxybutoxy]oxan-4-yl] 14-hydroxytetradecanoate
PRECURSORMZ:  737.39650915983
PRECURSORTYPE:  [M+FA-H]-
FORMULA:  C34H60O14
Ontology: Kingdom: Organic compounds;Superclass: Lipids and lipid;Class: Saccharolipids;
INCHIKEY:  QYCCCSUFDHWKRW-UHFFFAOYNA-N
SMILES:  CCCCCC(=O)OC1C(OCC(O)C(O)CO)OC(COC(C)=O)C(OC(C)=O)C1OC(=O)CCCCCCCCCCCCCO
RETENTIONTIME:  
CCS:  -1
IONMODE:  Negative
INSTRUMENTTYPE:  
INSTRUMENT:  Maxis II HD Q-TOF Bruker
COLLISIONENERGY:  
Comment:  DB#=CCMSLIB00000846192; origin=GNPS
Num Peaks:  12
112.45359	380.0
114.46436	230.0
115.07781	670.0
116.49038	50.0
120.44155	190.0
225.17879	320.0
243.19704	1000.0
350.11563	240.0
437.02405	130.0
465.19559	130.0
466.95914	150.0
736.41479	270.0

NAME:  NCGC00380722-01![(2S,3R,4S,5S,6R)-4,5-dihydroxy-6-(hydroxymethyl)-2-[2,4,6-trihydroxy-3-(4-hydroxybenzoyl)phenyl]oxan-3-yl] 4-hydroxybenzoate
PRECURSORMZ:  527.11949976083
PRECURSORTYPE:  [M-H]-
FORMULA:  C26H24O12
Ontology: Kingdom: Organic compounds;Superclass: Organic oxygen compounds;Class: Organooxygen compounds;Subclass: Carbohydrates and carbohydrate conjugates
INCHIKEY:  CIQDSZUZMUTHGY-UHFFFAOYNA-N
SMILES:  OCC1OC(C(OC(=O)C2=CC=C(O)C=C2)C(O)C1O)C1=C(O)C=C(O)C(C(=O)C2=CC=C(O)C=C2)=C1O
RETENTIONTIME:  
CCS:  -1
IONMODE:  Negative
INSTRUMENTTYPE:  
INSTRUMENT:  Maxis II HD Q-TOF Bruker
COLLISIONENERGY:  
Comment:  DB#=CCMSLIB00000846194; origin=GNPS
Num Peaks:  26
125.03161	10.0
131.0154	10.0
137.02089	40.0
142.50258	10.0
148.44543	20.0
149.02217	20.0
151.00281	30.0
155.03578	20.0
161.02887	30.0
165.01686	20.0
175.0013	40.0
203.03258	20.0
215.06476	10.0
217.00891	10.0
226.0204	10.0
235.02544	20.0
241.07013	20.0
245.05013	10.0
269.04517	1000.0
287.05698	290.0
311.05765	190.0
317.06714	100.0
353.06796	20.0
389.09146	90.0
390.09091	10.0
407.09674	70.0

NAME:  NCGC00380722-01![(2S,3R,4S,5S,6R)-4,5-dihydroxy-6-(hydroxymethyl)-2-[2,4,6-trihydroxy-3-(4-hydroxybenzoyl)phenyl]oxan-3-yl] 4-hydroxybenzoate
PRECURSORMZ:  563.0961774729
PRECURSORTYPE:  [M+Cl]-
FORMULA:  C26H24O12
Ontology: Kingdom: Organic compounds;Superclass: Organic oxygen compounds;Class: Organooxygen compounds;Subclass: Carbohydrates and carbohydrate conjugates
INCHIKEY:  CIQDSZUZMUTHGY-UHFFFAOYNA-N
SMILES:  OCC1OC(C(OC(=O)C2=CC=C(O)C=C2)C(O)C1O)C1=C(O)C=C(O)C(C(=O)C2=CC=C(O)C=C2)=C1O
RETENTIONTIME:  
CCS:  -1
IONMODE:  Negative
INSTRUMENTTYPE:  
INSTRUMENT:  Maxis II HD Q-TOF Bruker
COLLISIONENERGY:  
Comment:  DB#=CCMSLIB00000846196; origin=GNPS
Num Peaks:  9
70.60835	710.0
108.98138	240.0
257.0451	270.0
269.04565	1000.0
287.05554	120.0
311.05734	790.0
389.08524	490.0
407.10437	110.0
1938.77441	110.0

NAME:  NCGC00380841-01!2-[2-[(5R,6R,7S,9S,11R,18S,19S)-19-amino-6-[(3R)-3,4-dicarboxybutanoyl]oxy-11,18-dihydroxy-5,9-dimethylicosan-7-yl]oxy-2-oxoethyl]butanedioic acid
PRECURSORMZ:  704.38627913183
PRECURSORTYPE:  [M-H]-
FORMULA:  C34H59NO14
Ontology: Kingdom: Organic compounds;Superclass: Organic acids and derivatives;Class: Carboxylic acids and derivatives;Subclass: Fumonisins
INCHIKEY:  CPCRJSQNWHCGOP-UHFFFAOYNA-N
SMILES:  CCCCC(C)C(OC(=O)CC(CC(O)=O)C(O)=O)C(CC(C)CC(O)CCCCCCC(O)C(C)N)OC(=O)CC(CC(O)=O)C(O)=O
RETENTIONTIME:  
CCS:  285.3086033
IONMODE:  Negative
INSTRUMENTTYPE:  
INSTRUMENT:  Maxis II HD Q-TOF Bruker
COLLISIONENERGY:  
Comment:  DB#=CCMSLIB00000846198; origin=GNPS
Num Peaks:  6
113.02554	50.0
157.01295	1000.0
546.36365	220.0
547.3728	10.0
686.37793	30.0
704.38843	220.0

NAME:  NCGC00384565-01!6-hydroxy-8-(7-hydroxy-2-oxochromen-8-yl)-7-[3,4,5-trihydroxy-6-(hydroxymethyl)oxan-2-yl]oxychromen-2-one
PRECURSORMZ:  499.08819963183
PRECURSORTYPE:  [M-H]-
FORMULA:  C24H20O12
Ontology: Kingdom: Organic compounds;Superclass: Phenylpropanoids and polyketides;Class: Coumarins and derivatives;Subclass: Coumarin glycosides
INCHIKEY:  WTPJPYNIRFDQSR-UHFFFAOYNA-N
SMILES:  OCC1OC(OC2=C(O)C=C3C=CC(=O)OC3=C2C2=C(O)C=CC3=C2OC(=O)C=C3)C(O)C(O)C1O
RETENTIONTIME:  
CCS:  -1
IONMODE:  Negative
INSTRUMENTTYPE:  
INSTRUMENT:  Maxis II HD Q-TOF Bruker
COLLISIONENERGY:  
Comment:  DB#=CCMSLIB00000846200; origin=GNPS
Num Peaks:  15
113.02359	20.0
219.04289	20.0
236.90688	30.0
255.03668	10.0
262.38913	10.0
291.03143	40.0
292.04193	60.0
293.04224	40.0
296.03259	20.0
308.03162	10.0
319.02484	220.0
323.02499	10.0
336.02817	180.0
337.03619	160.0
499.08969	1000.0

NAME:  NCGC00384563-01!5,7-dihydroxy-2-(4-hydroxyphenyl)-6,8-bis(3,4,5-trihydroxyoxan-2-yl)chromen-4-one
PRECURSORMZ:  533.13006444483
PRECURSORTYPE:  [M-H]-
FORMULA:  C25H26O13
Ontology: Kingdom: Organic compounds;Superclass: Phenylpropanoids and polyketides;Class: Flavonoids;Subclass: Flavonoid glycosides
INCHIKEY:  LDVNKZYMYPZDAI-UHFFFAOYNA-N
SMILES:  OC1COC(C(O)C1O)C1=C(O)C(C2OCC(O)C(O)C2O)=C2OC(=CC(=O)C2=C1O)C1=CC=C(O)C=C1
RETENTIONTIME:  
CCS:  242.8234567
IONMODE:  Negative
INSTRUMENTTYPE:  
INSTRUMENT:  Maxis II HD Q-TOF Bruker
COLLISIONENERGY:  
Comment:  DB#=CCMSLIB00000846202; origin=GNPS
Num Peaks:  30
137.02534	20.0
145.03099	30.0
159.75836	20.0
161.02795	20.0
187.04402	30.0
268.07883	30.0
295.05905	20.0
297.07468	20.0
307.06143	10.0
311.04721	30.0
319.06821	20.0
353.06754	150.0
355.07938	10.0
356.05582	30.0
365.06683	30.0
379.10513	20.0
383.07971	80.0
386.06491	20.0
395.08029	20.0
413.08472	20.0
425.08313	20.0
443.10052	190.0
472.86197	10.0
473.11188	80.0
473.29395	20.0
497.09207	20.0
515.12793	70.0
533.13177	1000.0
533.2171	10.0
816.96552	10.0

NAME:  NCGC00384654-01![(2S,3R,4S,5S,6R)-4,5-dihydroxy-6-[[(E)-3-(4-hydroxyphenyl)prop-2-enoyl]oxymethyl]-2-(3,4,5-trihydroxybenzoyl)oxyoxan-3-yl] 3,4,5-trihydroxybenzoate
PRECURSORMZ:  629.11480830483
PRECURSORTYPE:  [M-H]-
FORMULA:  C29H26O16
Ontology: Kingdom: Organic compounds;Superclass: Phenylpropanoids and polyketides;Class: Tannins;
INCHIKEY:  QDSDUIWGMCGLHI-UHFFFAOYNA-N
SMILES:  OC1C(COC(=O)C=CC2=CC=C(O)C=C2)OC(OC(=O)C2=CC(O)=C(O)C(O)=C2)C(OC(=O)C2=CC(O)=C(O)C(O)=C2)C1O
RETENTIONTIME:  
CCS:  248.747439
IONMODE:  Negative
INSTRUMENTTYPE:  
INSTRUMENT:  Maxis II HD Q-TOF Bruker
COLLISIONENERGY:  
Comment:  DB#=CCMSLIB00000846206; origin=GNPS
Num Peaks:  51
113.02525	50.0
119.04801	80.0
123.01886	60.0
124.03891	80.0
125.02354	180.0
140.01518	80.0
145.02998	820.0
159.0464	120.0
161.06258	80.0
163.03824	100.0
166.00957	40.0
168.00082	90.0
168.03288	60.0
169.01427	740.0
171.99931	30.0
186.05472	50.0
187.04369	150.0
188.03931	40.0
204.06931	110.0
205.05635	50.0
210.04544	60.0
211.02571	60.0
221.04431	20.0
223.02872	90.0
224.90932	70.0
227.62785	40.0
267.05701	50.0
271.04788	220.0
282.69696	10.0
285.6134	40.0
286.60181	10.0
286.86911	40.0
287.44797	40.0
295.04895	40.0
297.06516	20.0
313.05746	390.0
314.06018	70.0
332.27838	80.0
435.01297	60.0
459.0954	1000.0
459.18869	40.0
460.10962	70.0
464.08554	310.0
465.06744	390.0
477.11734	60.0
483.06863	60.0
537.01874	80.0
582.1897	30.0
595.52063	40.0
628.13232	700.0
629.12988	260.0

NAME:  NCGC00384648-01!3-[(2S,3R,4S,5S,6R)-4,5-dihydroxy-6-(hydroxymethyl)-3-[(2S,3R,4S,5S,6R)-3,4,5-trihydroxy-6-(hydroxymethyl)oxan-2-yl]oxyoxan-2-yl]oxy-2-(3,4-dihydroxyphenyl)-5-hydroxy-7-methoxychromen-4-one
PRECURSORMZ:  639.15667311783
PRECURSORTYPE:  [M-H]-
FORMULA:  C28H32O17
Ontology: Kingdom: Organic compounds;Superclass: Phenylpropanoids and polyketides;Class: Flavonoids;Subclass: Flavonoid glycosides
INCHIKEY:  CEZKIFXYWPTANH-UHFFFAOYNA-N
SMILES:  COC1=CC(O)=C2C(=O)C(OC3OC(CO)C(O)C(O)C3OC3OC(CO)C(O)C(O)C3O)=C(OC2=C1)C1=CC(O)=C(O)C=C1
RETENTIONTIME:  
CCS:  252.2507738
IONMODE:  Negative
INSTRUMENTTYPE:  
INSTRUMENT:  Maxis II HD Q-TOF Bruker
COLLISIONENERGY:  
Comment:  DB#=CCMSLIB00000846208; origin=GNPS
Num Peaks:  17
151.00464	10.0
165.01913	50.0
193.0127	10.0
216.03564	10.0
217.06293	10.0
271.02161	60.0
272.87827	10.0
285.0397	20.0
299.01965	260.0
311.41171	20.0
313.03769	30.0
313.68268	10.0
314.0434	1000.0
315.05219	120.0
339.06287	20.0
519.11584	20.0
639.15668	580.0

NAME:  NCGC00384517-01!(2S)-2-phenyl-7-[(2S,3R,4S,5S,6R)-3,4,5-trihydroxy-6-(hydroxymethyl)oxan-2-yl]oxy-2,3-dihydrochromen-4-one
PRECURSORMZ:  447.12967021583
PRECURSORTYPE:  [M+FA-H]-
FORMULA:  C21H22O8
Ontology: Kingdom: Organic compounds;Superclass: Phenylpropanoids and polyketides;Class: Flavonoids;Subclass: Flavonoid glycosides
INCHIKEY:  HPMCYOSTTZQBAP-UHFFFAOYNA-N
SMILES:  OCC1OC(OC2=CC3=C(C=C2)C(=O)CC(O3)C2=CC=CC=C2)C(O)C(O)C1O
RETENTIONTIME:  
CCS:  -1
IONMODE:  Negative
INSTRUMENTTYPE:  
INSTRUMENT:  Maxis II HD Q-TOF Bruker
COLLISIONENERGY:  
Comment:  DB#=CCMSLIB00000846210; origin=GNPS
Num Peaks:  9
138.02361	30.0
197.05899	100.0
237.93124	10.0
238.20297	20.0
238.49918	20.0
238.65144	10.0
238.97552	60.0
239.07008	1000.0
1957.51636	20.0

NAME:  NCGC00169119-03!(9R,10R)-10-hydroxy-8,8-dimethyl-9-[(2S,3R,4S,5S,6R)-3,4,5-trihydroxy-6-(hydroxymethyl)oxan-2-yl]oxy-9,10-dihydropyrano[2,3-f]chromen-2-one
PRECURSORMZ:  469.13514952083
PRECURSORTYPE:  [M+FA-H]-
FORMULA:  C20H24O10
Ontology: Kingdom: Organic compounds;Superclass: Phenylpropanoids and polyketides;Class: Coumarins and derivatives;Subclass: Pyranocoumarins
INCHIKEY:  QAUDHOGPLBDVAX-UHFFFAOYNA-N
SMILES:  CC1(C)OC2=C(C(O)C1OC1OC(CO)C(O)C(O)C1O)C1=C(C=CC(=O)O1)C=C2
RETENTIONTIME:  
CCS:  -1
IONMODE:  Negative
INSTRUMENTTYPE:  
INSTRUMENT:  Maxis II HD Q-TOF Bruker
COLLISIONENERGY:  
Comment:  DB#=CCMSLIB00000846212; origin=GNPS
Num Peaks:  10
85.03069	140.0
101.02247	90.0
119.04366	140.0
161.04243	320.0
189.01212	100.0
189.02843	110.0
243.0676	110.0
261.07883	120.0
405.13058	110.0
423.134	1000.0

NAME:  NCGC00384516-01!9-methoxy-7-[4-[(2S,3R,4S,5S,6R)-3,4,5-trihydroxy-6-[[(2R,3R,4S,5S,6R)-3,4,5-trihydroxy-6-(hydroxymethyl)oxan-2-yl]oxymethyl]oxan-2-yl]oxyphenyl]-[1,3]dioxolo[4,5-g]chromen-8-one
PRECURSORMZ:  681.16723749783
PRECURSORTYPE:  [M+FA-H]-
FORMULA:  C29H32O16
Ontology: Kingdom: Organic compounds;Superclass: Phenylpropanoids and polyketides;Class: Isoflavonoids;Subclass: Isoflavonoid O
INCHIKEY:  FIMKKXUVGBDUNE-UHFFFAOYNA-N
SMILES:  COC1=C2C(=O)C(=COC2=CC2=C1OCO2)C1=CC=C(OC2OC(COC3OC(CO)C(O)C(O)C3O)C(O)C(O)C2O)C=C1
RETENTIONTIME:  
CCS:  -1
IONMODE:  Negative
INSTRUMENTTYPE:  
INSTRUMENT:  Maxis II HD Q-TOF Bruker
COLLISIONENERGY:  
Comment:  DB#=CCMSLIB00000846214; origin=GNPS
Num Peaks:  15
85.02888	180.0
101.02171	110.0
113.02209	250.0
119.03241	180.0
125.02859	220.0
132.01999	70.0
179.05536	400.0
221.06264	520.0
224.05081	100.0
245.07544	140.0
263.0882	340.0
267.02951	210.0
296.02634	310.0
311.06479	1000.0
323.09299	810.0

NAME:  NCGC00347714-02!(2S)-2-[2-[(5R,6R,7S,9S,16R,18S,19S)-19-amino-6-[(3S)-3,4-dicarboxybutanoyl]oxy-16,18-dihydroxy-5,9-dimethylicosan-7-yl]oxy-2-oxoethyl]butanedioic acid
PRECURSORMZ:  704.38627913183
PRECURSORTYPE:  [M-H]-
FORMULA:  C34H59NO14
Ontology: Kingdom: Organic compounds;Superclass: Organic acids and derivatives;Class: Carboxylic acids and derivatives;Subclass: Fumonisins
INCHIKEY:  UXDPXZQHTDAXOZ-UHFFFAOYNA-N
SMILES:  CCCCC(C)C(OC(=O)CC(CC(O)=O)C(O)=O)C(CC(C)CCCCCCC(O)CC(O)C(C)N)OC(=O)CC(CC(O)=O)C(O)=O
RETENTIONTIME:  
CCS:  264.1522636
IONMODE:  Negative
INSTRUMENTTYPE:  
INSTRUMENT:  Maxis II HD Q-TOF Bruker
COLLISIONENERGY:  
Comment:  DB#=CCMSLIB00000846216; origin=GNPS
Num Peaks:  9
84.49158	20.0
113.02548	90.0
157.01454	1000.0
158.02086	20.0
175.02483	30.0
546.3645	210.0
686.37994	40.0
704.38873	230.0
705.38574	30.0

NAME:  NCGC00384519-01!(2S,3R)-5-hydroxy-3-[(2S,3R)-5-hydroxy-2-(4-hydroxyphenyl)-4-oxo-7-[(2S,3R,4S,5S,6R)-3,4,5-trihydroxy-6-(hydroxymethyl)oxan-2-yl]oxy-2,3-dihydrochromen-3-yl]-2-(4-hydroxyphenyl)-7-[(2S,3R,4S,5S,6R)-3,4,5-trihydroxy-6-(hydroxymethyl)oxan-2-yl]oxy-2,3-dihydrochromen-4-one
PRECURSORMZ:  865.21966729983
PRECURSORTYPE:  [M-H]-
FORMULA:  C42H42O20
Ontology: Kingdom: Organic compounds;Superclass: Phenylpropanoids and polyketides;Class: Flavonoids;Subclass: Biflavonoids and polyflavonoids
INCHIKEY:  RVPPNKOUWPOQRX-UHFFFAOYNA-N
SMILES:  OCC1OC(OC2=CC(O)=C3C(=O)C(C(OC3=C2)C2=CC=C(O)C=C2)C2C(OC3=CC(OC4OC(CO)C(O)C(O)C4O)=CC(O)=C3C2=O)C2=CC=C(O)C=C2)C(O)C(O)C1O
RETENTIONTIME:  
CCS:  321.2938025
IONMODE:  Negative
INSTRUMENTTYPE:  
INSTRUMENT:  Maxis II HD Q-TOF Bruker
COLLISIONENERGY:  
Comment:  DB#=CCMSLIB00000846218; origin=GNPS
Num Peaks:  59
89.87417	180.0
93.0381	140.0
105.75662	60.0
119.0501	100.0
125.02554	470.0
149.02483	70.0
151.00403	490.0
167.03413	130.0
202.11334	110.0
217.01352	70.0
229.04887	80.0
237.09972	240.0
247.0195	110.0
251.07202	130.0
252.06454	80.0
257.0459	80.0
267.06015	90.0
283.05771	230.0
297.0415	60.0
299.10803	60.0
303.08035	110.0
305.06653	70.0
309.04208	320.0
313.06189	100.0
330.81146	110.0
331.67297	30.0
332.19791	70.0
340.03891	130.0
341.02985	130.0
361.08698	120.0
371.10501	40.0
373.06488	70.0
406.07065	60.0
415.08163	420.0
431.12167	80.0
435.07022	250.0
445.11533	70.0
447.05539	110.0
461.10727	70.0
471.11002	170.0
472.09515	80.0
479.10992	50.0
489.09958	50.0
497.12177	110.0
503.07999	300.0
505.09695	80.0
541.11145	1000.0
542.10864	410.0
545.10309	40.0
597.13092	50.0
609.12317	60.0
617.16089	110.0
659.17468	30.0
685.17059	90.0
689.49005	80.0
703.16699	920.0
704.16534	210.0
759.15277	70.0
1158.42493	70.0

NAME:  NCGC00384519-01!(2S,3R)-5-hydroxy-3-[(2S,3R)-5-hydroxy-2-(4-hydroxyphenyl)-4-oxo-7-[(2S,3R,4S,5S,6R)-3,4,5-trihydroxy-6-(hydroxymethyl)oxan-2-yl]oxy-2,3-dihydrochromen-3-yl]-2-(4-hydroxyphenyl)-7-[(2S,3R,4S,5S,6R)-3,4,5-trihydroxy-6-(hydroxymethyl)oxan-2-yl]oxy-2,3-dihydrochromen-4-one
PRECURSORMZ:  911.22514629983
PRECURSORTYPE:  [M+FA-H]-
FORMULA:  C42H42O20
Ontology: Kingdom: Organic compounds;Superclass: Phenylpropanoids and polyketides;Class: Flavonoids;Subclass: Biflavonoids and polyflavonoids
INCHIKEY:  RVPPNKOUWPOQRX-UHFFFAOYNA-N
SMILES:  OCC1OC(OC2=CC(O)=C3C(=O)C(C(OC3=C2)C2=CC=C(O)C=C2)C2C(OC3=CC(OC4OC(CO)C(O)C(O)C4O)=CC(O)=C3C2=O)C2=CC=C(O)C=C2)C(O)C(O)C1O
RETENTIONTIME:  
CCS:  -1
IONMODE:  Negative
INSTRUMENTTYPE:  
INSTRUMENT:  Maxis II HD Q-TOF Bruker
COLLISIONENERGY:  
Comment:  DB#=CCMSLIB00000846220; origin=GNPS
Num Peaks:  29
121.02401	250.0
125.02152	740.0
151.00302	240.0
273.03619	210.0
283.05841	160.0
285.96982	270.0
295.05688	200.0
309.03986	300.0
323.11328	360.0
339.07745	170.0
361.06744	280.0
371.09882	720.0
371.1911	140.0
373.08047	180.0
393.18268	180.0
411.05923	280.0
415.08505	270.0
486.88065	190.0
503.08603	300.0
541.11877	1000.0
542.12311	210.0
551.13586	230.0
565.11823	250.0
597.1156	140.0
597.17987	190.0
677.74609	200.0
685.12067	120.0
703.15869	420.0
865.2113	280.0

NAME:  NCGC00385547-01!(2R,3R)-3,5-dihydroxy-2-(4-hydroxyphenyl)-7-(3-methylbut-2-enoxy)-2,3-dihydrochromen-4-one
PRECURSORMZ:  355.11871191183
PRECURSORTYPE:  [M-H]-
FORMULA:  C20H20O6
Ontology: Kingdom: Organic compounds;Superclass: Phenylpropanoids and polyketides;Class: Flavonoids;Subclass: Flavans
INCHIKEY:  CITFYDYEWQIEPX-UHFFFAOYNA-N
SMILES:  CC(C)=CCOC1=CC(O)=C2C(=O)C(O)C(OC2=C1)C1=CC=C(O)C=C1
RETENTIONTIME:  
CCS:  205.947041
IONMODE:  Negative
INSTRUMENTTYPE:  
INSTRUMENT:  Maxis II HD Q-TOF Bruker
COLLISIONENERGY:  
Comment:  DB#=CCMSLIB00000846222; origin=GNPS
Num Peaks:  9
124.01514	220.0
137.05617	200.0
179.00105	360.0
201.06439	260.0
203.0414	110.0
311.1283	180.0
327.12457	270.0
355.11877	1000.0
1751.0387	90.0

NAME:  NCGC00169184-02!7-hydroxy-6-methoxy-8-[(2S,3R,4S,5S,6R)-3,4,5-trihydroxy-6-(hydroxymethyl)oxan-2-yl]oxychromen-2-one
PRECURSORMZ:  369.08272032783
PRECURSORTYPE:  [M-H]-
FORMULA:  C16H18O10
Ontology: Kingdom: Organic compounds;Superclass: Phenylpropanoids and polyketides;Class: Coumarins and derivatives;Subclass: Coumarin glycosides
INCHIKEY:  CRSFLLTWRCYNNX-UHFFFAOYNA-N
SMILES:  COC1=C(O)C(OC2OC(CO)C(O)C(O)C2O)=C2OC(=O)C=CC2=C1
RETENTIONTIME:  
CCS:  180.8432736
IONMODE:  Negative
INSTRUMENTTYPE:  
INSTRUMENT:  Maxis II HD Q-TOF Bruker
COLLISIONENERGY:  
Comment:  DB#=CCMSLIB00000846224; origin=GNPS
Num Peaks:  7
123.01067	130.0
149.02834	150.0
191.0	260.0
192.00792	660.0
206.02188	450.0
207.03351	1000.0
369.08386	720.0

NAME:  NCGC00385558-01!(2R,3S,4S,5R,6R)-2-[[(2R,3R,4R)-3,4-dihydroxy-4-(hydroxymethyl)oxolan-2-yl]oxymethyl]-6-oct-1-en-3-yloxyoxane-3,4,5-triol
PRECURSORMZ:  467.21339984283
PRECURSORTYPE:  [M+FA-H]-
FORMULA:  C19H34O10
Ontology: Kingdom: Organic compounds;Superclass: Lipids and lipid;Class: Fatty Acyls;Subclass: Fatty acyl glycosides
INCHIKEY:  MUPQSGHACLOUTE-UHFFFAOYNA-N
SMILES:  CCCCCC(OC1OC(COC2OCC(O)(CO)C2O)C(O)C(O)C1O)C=C
RETENTIONTIME:  
CCS:  -1
IONMODE:  Negative
INSTRUMENTTYPE:  
INSTRUMENT:  Maxis II HD Q-TOF Bruker
COLLISIONENERGY:  
Comment:  DB#=CCMSLIB00000846226; origin=GNPS
Num Peaks:  21
101.02536	50.0
111.00608	30.0
113.02336	30.0
115.40309	30.0
125.02764	50.0
127.10944	20.0
131.0361	20.0
143.03604	20.0
161.04456	270.0
165.12946	30.0
183.13654	30.0
211.13202	20.0
233.06427	30.0
289.16464	380.0
293.1123	20.0
416.33792	10.0
420.20044	10.0
420.49454	10.0
420.59747	20.0
421.20819	1000.0
423.77811	10.0

NAME:  NCGC00180129-02!5-hydroxy-2-(4-hydroxyphenyl)-8-[3,4,5-trihydroxy-6-(hydroxymethyl)oxan-2-yl]-7-(3,4,5-trihydroxy-6-methyloxan-2-yl)oxychromen-4-one
PRECURSORMZ:  577.15627919383
PRECURSORTYPE:  [M-H]-
FORMULA:  C27H30O14
Ontology: Kingdom: Organic compounds;Superclass: Phenylpropanoids and polyketides;Class: Flavonoids;Subclass: Flavonoid glycosides
INCHIKEY:  KAFSORTZFREQSQ-UHFFFAOYNA-N
SMILES:  CC1OC(OC2=C(C3OC(CO)C(O)C(O)C3O)C3=C(C(O)=C2)C(=O)C=C(O3)C2=CC=C(O)C=C2)C(O)C(O)C1O
RETENTIONTIME:  
CCS:  -1
IONMODE:  Negative
INSTRUMENTTYPE:  
INSTRUMENT:  Maxis II HD Q-TOF Bruker
COLLISIONENERGY:  
Comment:  DB#=CCMSLIB00000846228; origin=GNPS
Num Peaks:  20
123.04387	10.0
191.03114	10.0
269.0401	50.0
275.98508	20.0
282.05753	110.0
283.07019	30.0
297.04688	240.0
311.05386	350.0
323.06198	30.0
330.63144	20.0
335.05371	20.0
353.06967	10.0
372.04276	20.0
403.16562	20.0
414.09232	40.0
415.10791	160.0
415.19418	20.0
577.15833	1000.0
578.15759	20.0
581.37543	10.0

NAME:  NCGC00381310-01!(2S,3S,4S,5R,6S)-5-[(2S,3R,4R,5S,6S)-4-acetyloxy-3,5-dihydroxy-6-methyloxan-2-yl]oxy-6-[2-(3,4-dihydroxyphenyl)-5-hydroxy-4-oxochromen-7-yl]oxy-3,4-dihydroxyoxane-2-carboxylic acid
PRECURSORMZ:  649.14102305383
PRECURSORTYPE:  [M-H]-
FORMULA:  C29H30O17
Ontology: Kingdom: Organic compounds;Superclass: Phenylpropanoids and polyketides;Class: Flavonoids;Subclass: Flavonoid glycosides
INCHIKEY:  AKKVGSBMNDOALT-UHFFFAOYNA-N
SMILES:  CC1OC(OC2C(O)C(O)C(OC2OC2=CC(O)=C3C(=O)C=C(OC3=C2)C2=CC(O)=C(O)C=C2)C(O)=O)C(O)C(OC(C)=O)C1O
RETENTIONTIME:  
CCS:  -1
IONMODE:  Negative
INSTRUMENTTYPE:  
INSTRUMENT:  Maxis II HD Q-TOF Bruker
COLLISIONENERGY:  
Comment:  DB#=CCMSLIB00000846230; origin=GNPS
Num Peaks:  15
150.99669	20.0
248.82112	20.0
260.14615	10.0
285.04089	1000.0
286.04086	20.0
327.04797	30.0
339.04816	10.0
357.06601	10.0
363.08551	10.0
381.04419	20.0
500.41425	10.0
515.1178	20.0
607.12482	10.0
649.13708	180.0
650.1496	30.0

NAME:  NCGC00381310-01!(2S,3S,4S,5R,6S)-5-[(2S,3R,4R,5S,6S)-4-acetyloxy-3,5-dihydroxy-6-methyloxan-2-yl]oxy-6-[2-(3,4-dihydroxyphenyl)-5-hydroxy-4-oxochromen-7-yl]oxy-3,4-dihydroxyoxane-2-carboxylic acid
PRECURSORMZ:  631.13045837383
PRECURSORTYPE:  [M-H2O-H]-
FORMULA:  C29H30O17
Ontology: Kingdom: Organic compounds;Superclass: Phenylpropanoids and polyketides;Class: Flavonoids;Subclass: Flavonoid glycosides
INCHIKEY:  AKKVGSBMNDOALT-UHFFFAOYNA-N
SMILES:  CC1OC(OC2C(O)C(O)C(OC2OC2=CC(O)=C3C(=O)C=C(OC3=C2)C2=CC(O)=C(O)C=C2)C(O)=O)C(O)C(OC(C)=O)C1O
RETENTIONTIME:  
CCS:  -1
IONMODE:  Negative
INSTRUMENTTYPE:  
INSTRUMENT:  Maxis II HD Q-TOF Bruker
COLLISIONENERGY:  
Comment:  DB#=CCMSLIB00000846232; origin=GNPS
Num Peaks:  11
126.82499	40.0
138.75	20.0
140.00719	30.0
140.91116	30.0
168.00368	30.0
169.0132	70.0
169.40346	40.0
176.784	20.0
302.9978	10.0
314.07501	30.0
315.0722	1000.0

NAME:  NCGC00380651-01!5-[(2R,3R,4S,5S,6R)-4,5-dihydroxy-6-(hydroxymethyl)-3-sulfanyloxan-2-yl]oxy-2,3,8,12b-tetrahydroxy-3-methyl-4a-[(2R,3R,4S,5S,6R)-3,4,5-trihydroxy-6-(hydroxymethyl)oxan-2-yl]oxy-2,4-dihydrobenzo[a]anthracene-1,7,12-trione
PRECURSORMZ:  727.15495904083
PRECURSORTYPE:  [M-H]-
FORMULA:  C31H36O18S
Ontology: Kingdom: Organic compounds;Superclass: Benzenoids;Class: Anthracenes;Subclass: Anthraquinones
INCHIKEY:  GTNPVPDWWGQDMU-UHFFFAOYNA-N
SMILES:  CC1(O)CC2(OC3OC(CO)C(O)C(O)C3O)C(OC3OC(CO)C(O)C(O)C3S)=CC3=C(C(=O)C4=C(C(O)=CC=C4)C3=O)C2(O)C(=O)C1O
RETENTIONTIME:  
CCS:  251.1286108
IONMODE:  Negative
INSTRUMENTTYPE:  
INSTRUMENT:  Maxis II HD Q-TOF Bruker
COLLISIONENERGY:  
Comment:  DB#=CCMSLIB00000846234; origin=GNPS
Num Peaks:  93
86.98983	60.0
90.98759	40.0
95.01206	30.0
102.98379	40.0
103.05611	10.0
119.03153	30.0
142.84821	10.0
155.05737	20.0
159.02104	30.0
159.19998	30.0
161.02432	10.0
166.0152	30.0
177.02278	260.0
179.05499	40.0
188.81041	10.0
190.83789	10.0
195.03949	50.0
196.05698	20.0
198.03932	10.0
201.06046	20.0
225.0163	50.0
226.02646	30.0
227.04755	60.0
229.05209	10.0
237.05797	50.0
241.00766	20.0
241.06374	10.0
242.0275	30.0
243.0291	30.0
246.00102	90.0
251.07239	30.0
252.0397	30.0
253.04942	20.0
254.02328	20.0
255.03137	40.0
256.02112	20.0
259.01596	40.0
264.03503	20.0
267.02493	30.0
267.06552	20.0
269.04404	70.0
270.00272	20.0
271.02722	20.0
272.02811	20.0
277.04666	20.0
279.01666	10.0
281.08698	50.0
283.02701	20.0
284.01746	20.0
285.01367	50.0
287.00845	20.0
289.08578	30.0
291.02106	30.0
295.05777	20.0
297.04428	190.0
298.00702	20.0
298.05762	30.0
300.03165	60.0
307.0596	60.0
309.01645	30.0
310.04599	10.0
311.0715	20.0
312.04144	20.0
313.05634	20.0
323.05765	40.0
325.07303	620.0
326.07736	40.0
327.03247	120.0
333.04419	30.0
339.05383	30.0
341.07196	50.0
342.06631	20.0
343.02866	20.0
351.05304	110.0
356.80078	10.0
357.08533	1000.0
358.11038	30.0
369.06113	240.0
369.19037	20.0
387.07507	90.0
402.04535	60.0
547.08691	20.0
547.13818	10.0
571.08771	40.0
572.16522	10.0
623.16986	20.0
648.7666	10.0
652.14044	20.0
691.12445	10.0
707.44299	10.0
727.15955	310.0
728.15564	70.0
775.69202	20.0

NAME:  NCGC00385598-01!(2R,3R)-2-(3,4-dihydroxyphenyl)-5,7-dihydroxy-3-[(2S,3R,4S,5S,6R)-3,4,5-trihydroxy-6-(hydroxymethyl)oxan-2-yl]oxy-2,3-dihydrochromen-4-one
PRECURSORMZ:  465.10384969583
PRECURSORTYPE:  [M-H]-
FORMULA:  C21H22O12
Ontology: Kingdom: Organic compounds;Superclass: Phenylpropanoids and polyketides;Class: Flavonoids;Subclass: Flavonoid glycosides
INCHIKEY:  FVQOMEDMFUMIMO-UHFFFAOYNA-N
SMILES:  OCC1OC(OC2C(OC3=CC(O)=CC(O)=C3C2=O)C2=CC(O)=C(O)C=C2)C(O)C(O)C1O
RETENTIONTIME:  
CCS:  220.4162485
IONMODE:  Negative
INSTRUMENTTYPE:  
INSTRUMENT:  Maxis II HD Q-TOF Bruker
COLLISIONENERGY:  
Comment:  DB#=CCMSLIB00000846236; origin=GNPS
Num Peaks:  24
90.40645	50.0
107.02227	40.0
110.47767	20.0
125.02286	60.0
150.02834	30.0
151.00238	1000.0
151.04242	70.0
152.00941	30.0
153.24631	10.0
165.0531	10.0
178.99747	240.0
180.01639	50.0
199.03387	30.0
257.04306	50.0
258.04672	30.0
259.05493	40.0
275.05063	30.0
285.0415	660.0
303.05356	30.0
313.09433	80.0
339.07584	50.0
447.09445	20.0
465.10104	390.0
468.52673	20.0

NAME:  NCGC00385598-01!(2R,3R)-2-(3,4-dihydroxyphenyl)-5,7-dihydroxy-3-[(2S,3R,4S,5S,6R)-3,4,5-trihydroxy-6-(hydroxymethyl)oxan-2-yl]oxy-2,3-dihydrochromen-4-one
PRECURSORMZ:  511.10932869583
PRECURSORTYPE:  [M+FA-H]-
FORMULA:  C21H22O12
Ontology: ;;;
INCHIKEY:  FVQOMEDMFUMIMO-UHFFFAOYNA-N
SMILES:  OCC1OC(OC2C(OC3=CC(O)=CC(O)=C3C2=O)C2=CC(O)=C(O)C=C2)C(O)C(O)C1O
RETENTIONTIME:  
CCS:  -1
IONMODE:  Negative
INSTRUMENTTYPE:  
INSTRUMENT:  Maxis II HD Q-TOF Bruker
COLLISIONENERGY:  
Comment:  DB#=CCMSLIB00000846238; origin=GNPS
Num Peaks:  14
107.02254	140.0
151.00401	1000.0
151.03658	390.0
151.06262	130.0
152.01044	70.0
192.06767	120.0
257.03632	130.0
285.03745	730.0
302.04459	140.0
303.05768	280.0
387.06967	160.0
463.03986	160.0
465.10696	470.0
1651.35791	70.0

NAME:  NCGC00381325-01![3,4,5-trihydroxy-6-[[(E)-3-(4-hydroxyphenyl)prop-2-enoyl]oxymethyl]oxan-2-yl] 3,4,5-trihydroxybenzoate
PRECURSORMZ:  477.10384969583
PRECURSORTYPE:  [M-H]-
FORMULA:  C22H22O12
Ontology: Kingdom: Organic compounds;Superclass: Phenylpropanoids and polyketides;Class: Tannins;
INCHIKEY:  LWOXGQKLDYQLMZ-UHFFFAOYNA-N
SMILES:  OC1C(COC(=O)C=CC2=CC=C(O)C=C2)OC(OC(=O)C2=CC(O)=C(O)C(O)=C2)C(O)C1O
RETENTIONTIME:  
CCS:  -1
IONMODE:  Negative
INSTRUMENTTYPE:  
INSTRUMENT:  Maxis II HD Q-TOF Bruker
COLLISIONENERGY:  
Comment:  DB#=CCMSLIB00000846240; origin=GNPS
Num Peaks:  36
86.7552	50.0
101.02564	40.0
109.02742	20.0
119.05008	30.0
123.00764	50.0
124.01131	20.0
125.02368	120.0
141.02336	30.0
145.02806	160.0
146.79135	10.0
150.87236	10.0
151.00185	50.0
151.92592	30.0
161.05801	40.0
163.04057	100.0
166.99432	30.0
169.01497	380.0
177.05309	20.0
193.01299	30.0
205.01512	50.0
205.04988	100.0
205.14882	20.0
211.02742	100.0
235.06789	100.0
253.0401	20.0
265.07382	250.0
269.04614	20.0
307.0892	30.0
313.05658	100.0
315.05667	20.0
325.08743	30.0
417.08279	80.0
475.63245	20.0
477.1055	1000.0
639.17169	10.0
668.40967	10.0

NAME:  NCGC00385587-01![3-hydroxy-3-[(4-hydroxyphenyl)methyl]-4-oxo-4-[[4-[3,4,5-trihydroxy-6-(hydroxymethyl)oxan-2-yl]oxyphenyl]methoxy]butan-2-yl] 3-acetyloxy-2-hydroxy-2-[(4-hydroxyphenyl)methyl]butanoate
PRECURSORMZ:  743.25565888483
PRECURSORTYPE:  [M-H]-
FORMULA:  C37H44O16
Ontology: Kingdom: Organic compounds;Superclass: Organic oxygen compounds;Class: Organooxygen compounds;Subclass: Carbohydrates and carbohydrate conjugates
INCHIKEY:  WUGDTLGNIVJAFV-UHFFFAOYNA-N
SMILES:  CC(OC(C)=O)C(O)(CC1=CC=C(O)C=C1)C(=O)OC(C)C(O)(CC1=CC=C(O)C=C1)C(=O)OCC1=CC=C(OC2OC(CO)C(O)C(O)C2O)C=C1
RETENTIONTIME:  
CCS:  -1
IONMODE:  Negative
INSTRUMENTTYPE:  
INSTRUMENT:  Maxis II HD Q-TOF Bruker
COLLISIONENERGY:  
Comment:  DB#=CCMSLIB00000846243; origin=GNPS
Num Peaks:  15
119.04913	10.0
134.03644	60.0
135.0457	20.0
135.32314	10.0
163.0368	20.0
163.07526	1000.0
181.06506	20.0
207.0699	100.0
221.08458	10.0
223.06592	10.0
225.07898	60.0
267.08905	740.0
268.09235	50.0
475.15314	20.0
743.25867	10.0

NAME:  NCGC00385587-01![3-hydroxy-3-[(4-hydroxyphenyl)methyl]-4-oxo-4-[[4-[3,4,5-trihydroxy-6-(hydroxymethyl)oxan-2-yl]oxyphenyl]methoxy]butan-2-yl] 3-acetyloxy-2-hydroxy-2-[(4-hydroxyphenyl)methyl]butanoate
PRECURSORMZ:  789.26113788483
PRECURSORTYPE:  [M+FA-H]-
FORMULA:  C37H44O16
Ontology: Kingdom: Organic compounds;Superclass: Organic oxygen compounds;Class: Organooxygen compounds;Subclass: Carbohydrates and carbohydrate conjugates
INCHIKEY:  WUGDTLGNIVJAFV-UHFFFAOYNA-N
SMILES:  CC(OC(C)=O)C(O)(CC1=CC=C(O)C=C1)C(=O)OC(C)C(O)(CC1=CC=C(O)C=C1)C(=O)OCC1=CC=C(OC2OC(CO)C(O)C(O)C2O)C=C1
RETENTIONTIME:  
CCS:  -1
IONMODE:  Negative
INSTRUMENTTYPE:  
INSTRUMENT:  Maxis II HD Q-TOF Bruker
COLLISIONENERGY:  
Comment:  DB#=CCMSLIB00000846244; origin=GNPS
Num Peaks:  13
103.37099	10.0
134.03629	70.0
163.0383	20.0
163.07607	1000.0
179.0712	10.0
207.06596	80.0
219.06375	10.0
225.08188	50.0
267.08777	870.0
268.08682	30.0
475.16116	50.0
743.25586	40.0
744.26587	20.0

NAME:  NCGC00385582-01!
PRECURSORMZ:  1155.58040632583
PRECURSORTYPE:  [M+FA-H]-
FORMULA:  C53H90O24
Ontology: Kingdom: Organic compounds;Superclass: Lipids and lipid;Class: Steroids and steroid derivatives;Subclass: Steroidal glycosides
INCHIKEY:  MTTKHXWBJPJKFK-UHFFFAOYNA-N
SMILES:  CC(CCC(OC1OCC(O)C(O)C1O)C(C)(C)OC1OC(CO)C(O)C(O)C1O)C1CCC2(C)C3C(O)CC4C5(CC35CCC12C)C(O)CC(OC1OC(CO)C(OC2OC(CO)C(O)C(O)C2O)C(O)C1O)C4(C)C
RETENTIONTIME:  
CCS:  -1
IONMODE:  Negative
INSTRUMENTTYPE:  
INSTRUMENT:  Maxis II HD Q-TOF Bruker
COLLISIONENERGY:  
Comment:  DB#=CCMSLIB00000846247; origin=GNPS
Num Peaks:  47
85.03351	70.0
89.02444	110.0
95.01546	10.0
96.02221	20.0
99.01144	10.0
101.02442	80.0
103.00111	10.0
112.00968	10.0
113.02361	130.0
119.03279	30.0
131.03394	50.0
143.0359	30.0
146.95872	50.0
149.04016	40.0
159.99352	20.0
161.0442	110.0
174.95557	30.0
175.9614	20.0
179.05458	50.0
191.05728	90.0
215.05043	20.0
473.35327	10.0
487.15363	10.0
527.41809	10.0
537.15485	20.0
538.79846	10.0
545.78955	10.0
555.02618	20.0
557.93054	20.0
558.9212	10.0
635.3996	20.0
653.42365	30.0
654.42438	10.0
673.28699	10.0
797.47186	70.0
798.46478	20.0
815.47736	170.0
816.49408	20.0
909.28668	20.0
959.51263	20.0
960.52679	10.0
977.5473	150.0
978.52582	70.0
1108.32471	10.0
1109.57629	1000.0
1110.58276	390.0
1111.57544	60.0

NAME:  NCGC00385656-01!9-(1H-indol-3-ylmethyl)-6,12-dimethyl-3-propan-2-yl-1,4,7,10,13-pentazacyclopentadecane-2,5,8,11,14-pentone
PRECURSORMZ:  529.24162070183
PRECURSORTYPE:  [M+FA-H]-
FORMULA:  C24H32N6O5
Ontology: ;;;
INCHIKEY:  NYPFHMYOQFDZQG-UHFFFAOYNA-N
SMILES:  CC(C)C1N=C(O)C(C)N=C(O)C(CC2=CNC3=CC=CC=C23)N=C(O)C(C)N=C(O)CN=C1O
RETENTIONTIME:  
CCS:  -1
IONMODE:  Negative
INSTRUMENTTYPE:  
INSTRUMENT:  Maxis II HD Q-TOF Bruker
COLLISIONENERGY:  
Comment:  DB#=CCMSLIB00000846249; origin=GNPS
Num Peaks:  15
110.02676	10.0
124.0362	10.0
127.05437	10.0
182.12393	20.0
186.12729	10.0
197.0999	20.0
201.09418	10.0
212.10388	20.0
243.14507	60.0
243.23236	20.0
310.18961	10.0
326.16779	10.0
354.17987	260.0
366.17938	30.0
483.23981	1000.0

NAME:  NCGC00385665-01!(3R,4R,5R)-5-[3-[3,4-dihydroxy-5-(3,4,5-trihydroxybenzoyl)oxybenzoyl]oxy-4,5-dihydroxybenzoyl]oxy-3,4-dihydroxycyclohexene-1-carboxylic acid
PRECURSORMZ:  629.07842279583
PRECURSORTYPE:  [M-H]-
FORMULA:  C28H22O17
Ontology: Kingdom: Organic compounds;Superclass: Phenylpropanoids and polyketides;Class: Depsides and depsidones;
INCHIKEY:  DXAGBMWERLPHQP-UHFFFAOYNA-N
SMILES:  OC1C=C(CC(OC(=O)C2=CC(O)=C(O)C(OC(=O)C3=CC(O)=C(O)C(OC(=O)C4=CC(O)=C(O)C(O)=C4)=C3)=C2)C1O)C(O)=O
RETENTIONTIME:  
CCS:  228.6001828
IONMODE:  Negative
INSTRUMENTTYPE:  
INSTRUMENT:  Maxis II HD Q-TOF Bruker
COLLISIONENERGY:  
Comment:  DB#=CCMSLIB00000846250; origin=GNPS
Num Peaks:  6
107.01146	20.0
125.0233	50.0
169.01271	240.0
303.03738	10.0
325.05713	1000.0
477.06519	60.0

NAME:  NCGC00385650-01![(2R,3R,4R,5R,6S)-5-hydroxy-3,4,6-tris[(3,4,5-trihydroxybenzoyl)oxy]oxan-2-yl]methyl 3,4,5-trihydroxybenzoate
PRECURSORMZ:  787.09994608983
PRECURSORTYPE:  [M-H]-
FORMULA:  C34H28O22
Ontology: ;;;
INCHIKEY:  NRQJFEDEWHTAPZ-UHFFFAOYNA-N
SMILES:  OC1C(OC(=O)C2=CC(O)=C(O)C(O)=C2)OC(COC(=O)C2=CC(O)=C(O)C(O)=C2)C(OC(=O)C2=CC(O)=C(O)C(O)=C2)C1OC(=O)C1=CC(O)=C(O)C(O)=C1
RETENTIONTIME:  
CCS:  256.9983904
IONMODE:  Negative
INSTRUMENTTYPE:  
INSTRUMENT:  Maxis II HD Q-TOF Bruker
COLLISIONENERGY:  
Comment:  DB#=CCMSLIB00000846253; origin=GNPS
Num Peaks:  36
123.00768	30.0
125.02055	110.0
125.03505	100.0
161.05829	60.0
166.99426	50.0
168.84897	30.0
169.01358	740.0
195.00058	30.0
205.00871	60.0
207.02998	40.0
211.02931	60.0
221.04416	90.0
233.04626	60.0
235.02956	30.0
271.04077	70.0
277.03275	40.0
279.05392	40.0
290.61304	30.0
295.03891	180.0
295.07178	70.0
313.05655	200.0
369.2525	20.0
419.05505	20.0
421.08447	10.0
447.05823	110.0
449.07376	40.0
465.06583	300.0
466.05945	30.0
483.0824	50.0
617.0697	220.0
635.0777	180.0
636.08813	30.0
786.10736	60.0
787.09729	1000.0
788.11462	20.0
1240.96069	10.0

NAME:  NCGC00380559-01!(2S)-2-(2-hydroxypropan-2-yl)-9-[(2S,3R,4S,5S,6R)-3,4,5-trihydroxy-6-(hydroxymethyl)oxan-2-yl]oxy-2,3-dihydrofuro[3,2-g]chromen-7-one
PRECURSORMZ:  469.13514952083
PRECURSORTYPE:  [M+FA-H]-
FORMULA:  C20H24O10
Ontology: Kingdom: Organic compounds;Superclass: Phenylpropanoids and polyketides;Class: Coumarins and derivatives;Subclass: Coumarin glycosides
INCHIKEY:  JWWFVRMFYKPZNE-UHFFFAOYNA-N
SMILES:  CC(C)(O)C1CC2=C(O1)C(OC1OC(CO)C(O)C(O)C1O)=C1OC(=O)C=CC1=C2
RETENTIONTIME:  
CCS:  -1
IONMODE:  Negative
INSTRUMENTTYPE:  
INSTRUMENT:  Maxis II HD Q-TOF Bruker
COLLISIONENERGY:  
Comment:  DB#=CCMSLIB00000846254; origin=GNPS
Num Peaks:  6
131.03568	80.0
134.10298	20.0
243.06618	80.0
261.07635	1000.0
261.17072	10.0
423.12103	40.0

NAME:  NCGC00347692-02!5,6-dibenzoyloxy-7-methoxycarbonyl-1-[3,4,5-trihydroxy-6-(hydroxymethyl)oxan-2-yl]oxy-1,4a,5,6,7,7a-hexahydrocyclopenta[c]pyran-4-carboxylic acid
PRECURSORMZ:  643.16684387783
PRECURSORTYPE:  [M-H]-
FORMULA:  C31H32O15
Ontology: ;;;
INCHIKEY:  JQOQJRICPWKBGN-UHFFFAOYNA-N
SMILES:  COC(=O)C1C(OC(=O)C2=CC=CC=C2)C(OC(=O)C2=CC=CC=C2)C2C1C(OC1OC(CO)C(O)C(O)C1O)OC=C2C(O)=O
RETENTIONTIME:  
CCS:  -1
IONMODE:  Negative
INSTRUMENTTYPE:  
INSTRUMENT:  Maxis II HD Q-TOF Bruker
COLLISIONENERGY:  
Comment:  DB#=CCMSLIB00000846257; origin=GNPS
Num Peaks:  11
121.03022	1000.0
121.9628	40.0
133.02928	90.0
147.04028	90.0
149.11539	30.0
175.03767	590.0
193.05894	130.0
203.03311	90.0
209.04352	80.0
219.02162	80.0
521.1347	50.0

NAME:  NCGC00347692-02!5,6-dibenzoyloxy-7-methoxycarbonyl-1-[3,4,5-trihydroxy-6-(hydroxymethyl)oxan-2-yl]oxy-1,4a,5,6,7,7a-hexahydrocyclopenta[c]pyran-4-carboxylic acid
PRECURSORMZ:  689.17232287783
PRECURSORTYPE:  [M+FA-H]-
FORMULA:  C31H32O15
Ontology: ;;;
INCHIKEY:  JQOQJRICPWKBGN-UHFFFAOYNA-N
SMILES:  COC(=O)C1C(OC(=O)C2=CC=CC=C2)C(OC(=O)C2=CC=CC=C2)C2C1C(OC1OC(CO)C(O)C(O)C1O)OC=C2C(O)=O
RETENTIONTIME:  
CCS:  -1
IONMODE:  Negative
INSTRUMENTTYPE:  
INSTRUMENT:  Maxis II HD Q-TOF Bruker
COLLISIONENERGY:  
Comment:  DB#=CCMSLIB00000846259; origin=GNPS
Num Peaks:  30
85.03543	40.0
98.98279	10.0
100.244	10.0
101.39129	40.0
116.02368	70.0
121.02883	1000.0
123.00571	50.0
123.16493	10.0
133.95209	20.0
147.04393	50.0
161.01724	50.0
174.65269	40.0
174.93739	20.0
175.03761	640.0
175.21321	30.0
179.05733	20.0
191.03661	50.0
192.04221	50.0
193.04973	200.0
219.02765	290.0
235.05928	60.0
236.02551	10.0
237.04176	50.0
269.09	30.0
279.05258	20.0
297.07529	140.0
359.07062	70.0
399.08606	100.0
445.10638	20.0
521.13043	130.0

NAME:  NCGC00380178-01!6-[[8a-carboxy-4,4,6a,6b,11,11,14b-heptamethyl-10-[3,4,5-trihydroxy-6-(hydroxymethyl)oxan-2-yl]oxy-1,2,3,4a,5,6,9,10,12,12a,14,14a-dodecahydropicen-3-yl]oxy]-3,4-dihydroxy-5-[3,4,5-trihydroxy-6-(hydroxymethyl)oxan-2-yl]oxyoxane-2-carboxylic acid
PRECURSORMZ:  969.47006833083
PRECURSORTYPE:  [M-H]-
FORMULA:  C48H74O20
Ontology: ;;;
INCHIKEY:  RTTRTWCKPYQXFS-UHFFFAOYNA-N
SMILES:  CC1(C)CC2C3=CCC4C5(C)CCC(OC6OC(C(O)C(O)C6OC6OC(CO)C(O)C(O)C6O)C(O)=O)C(C)(C)C5CCC4(C)C3(C)C=CC2(CC1OC1OC(CO)C(O)C(O)C1O)C(O)=O
RETENTIONTIME:  
CCS:  -1
IONMODE:  Negative
INSTRUMENTTYPE:  
INSTRUMENT:  Maxis II HD Q-TOF Bruker
COLLISIONENERGY:  
Comment:  DB#=CCMSLIB00000846260; origin=GNPS
Num Peaks:  11
113.02425	20.0
119.03313	30.0
157.01617	20.0
450.95267	10.0
925.48047	20.0
969.46997	1000.0
969.62952	20.0
969.9198	10.0
969.97803	10.0
970.48126	170.0
971.44421	10.0

NAME:  NCGC00180712-02!(3R,5R)-1-[(E)-3-(3,4-dihydroxyphenyl)prop-2-enoyl]oxy-3,4,5-trihydroxycyclohexane-1-carboxylic acid
PRECURSORMZ:  353.08780570783
PRECURSORTYPE:  [M-H]-
FORMULA:  C16H18O9
Ontology: ;;;
INCHIKEY:  GWTUHAXUUFROTF-UHFFFAOYNA-N
SMILES:  OC1CC(CC(O)C1O)(OC(=O)C=CC1=CC(O)=C(O)C=C1)C(O)=O
RETENTIONTIME:  
CCS:  203.2527122
IONMODE:  Negative
INSTRUMENTTYPE:  
INSTRUMENT:  Maxis II HD Q-TOF Bruker
COLLISIONENERGY:  
Comment:  DB#=CCMSLIB00000846263; origin=GNPS
Num Peaks:  12
85.02761	410.0
87.8591	200.0
172.00716	180.0
172.51511	80.0
172.7003	140.0
172.89455	190.0
173.04323	1000.0
173.26746	140.0
179.03606	990.0
191.05806	280.0
353.08795	380.0
890.97937	170.0

NAME:  NCGC00384809-01!5-[5-hydroxy-3-(hydroxymethyl)pentyl]-8a-(hydroxymethyl)-5,6-dimethyl-3,4,4a,6,7,8-hexahydronaphthalene-1-carboxylic acid
PRECURSORMZ:  399.23882674283
PRECURSORTYPE:  [M+FA-H]-
FORMULA:  C20H34O5
Ontology: ;;;
INCHIKEY:  VOCJFEUCJDTXSA-UHFFFAOYNA-N
SMILES:  CC1CCC2(CO)C(CCC=C2C(O)=O)C1(C)CCC(CO)CCO
RETENTIONTIME:  
CCS:  -1
IONMODE:  Negative
INSTRUMENTTYPE:  
INSTRUMENT:  Maxis II HD Q-TOF Bruker
COLLISIONENERGY:  
Comment:  DB#=CCMSLIB00000846265; origin=GNPS
Num Peaks:  4
189.99634	70.0
323.22443	50.0
352.21725	60.0
353.23148	1000.0

NAME:  NCGC00384787-01!2-(3,4-dihydroxyphenyl)-5,7-dihydroxy-6-[3,4,5-trihydroxy-6-(hydroxymethyl)oxan-2-yl]-2,3-dihydrochromen-4-one
PRECURSORMZ:  449.10893507583
PRECURSORTYPE:  [M-H]-
FORMULA:  C21H22O11
Ontology: ;;;
INCHIKEY:  FNJRUYGFVNGXTL-UHFFFAOYNA-N
SMILES:  OCC1OC(C(O)C(O)C1O)C1=C(O)C2=C(OC(CC2=O)C2=CC(O)=C(O)C=C2)C=C1O
RETENTIONTIME:  
CCS:  219.0860512
IONMODE:  Negative
INSTRUMENTTYPE:  
INSTRUMENT:  Maxis II HD Q-TOF Bruker
COLLISIONENERGY:  
Comment:  DB#=CCMSLIB00000846267; origin=GNPS
Num Peaks:  21
135.0451	140.0
149.02075	100.0
167.02469	10.0
193.01324	530.0
209.04498	70.0
211.02206	90.0
223.02066	100.0
237.03886	90.0
239.05856	70.0
259.06012	40.0
269.06583	50.0
287.0499	40.0
329.06451	1000.0
343.08728	70.0
359.07874	470.0
371.07217	60.0
389.07181	60.0
404.39261	80.0
413.09406	30.0
449.13214	70.0
470.95435	70.0

NAME:  NCGC00384810-01!
PRECURSORMZ:  607.34877111783
PRECURSORTYPE:  [M+FA-H]-
FORMULA:  C32H50O8
Ontology: ;;;
INCHIKEY:  JGUYJMIAKPTIAH-UHFFFAOYNA-N
SMILES:  CCCCCCCCCCCC(=O)OC12CC(C)C3(O)C4C=C(C)C(=O)C4(O)C(O)C4(CO)OC4C3C1C2(C)C
RETENTIONTIME:  
CCS:  -1
IONMODE:  Negative
INSTRUMENTTYPE:  
INSTRUMENT:  Maxis II HD Q-TOF Bruker
COLLISIONENERGY:  
Comment:  DB#=CCMSLIB00000846268; origin=GNPS
Num Peaks:  21
139.04134	20.0
149.09839	20.0
163.032	10.0
181.05212	10.0
191.11084	20.0
199.16888	1000.0
221.11745	20.0
227.14456	20.0
240.11592	10.0
243.13437	10.0
254.1312	10.0
255.14012	110.0
257.11301	10.0
263.15765	10.0
273.14532	20.0
281.15585	20.0
287.16391	20.0
297.14685	30.0
351.0015	20.0
434.67746	10.0
495.30569	10.0

NAME:  NCGC00169526-02!8-[(2S,3R,4S,5S,6R)-4,5-dihydroxy-6-(hydroxymethyl)-3-[(2S,3R,4R,5R,6S)-3,4,5-trihydroxy-6-methyloxan-2-yl]oxyoxan-2-yl]-5,7-dihydroxy-2-(4-hydroxyphenyl)chromen-4-one
PRECURSORMZ:  577.15627919383
PRECURSORTYPE:  [M-H]-
FORMULA:  C27H30O14
Ontology: Kingdom: Organic compounds;Superclass: Phenylpropanoids and polyketides;Class: Flavonoids;Subclass: Flavonoid glycosides
INCHIKEY:  LYGPBZVKGHHTIE-UHFFFAOYNA-N
SMILES:  CC1OC(OC2C(O)C(O)C(CO)OC2C2=C(O)C=C(O)C3=C2OC(=CC3=O)C2=CC=C(O)C=C2)C(O)C(O)C1O
RETENTIONTIME:  
CCS:  230.8394309
IONMODE:  Negative
INSTRUMENTTYPE:  
INSTRUMENT:  Maxis II HD Q-TOF Bruker
COLLISIONENERGY:  
Comment:  DB#=CCMSLIB00000846271; origin=GNPS
Num Peaks:  8
212.8754	20.0
249.04913	60.0
293.04684	340.0
353.06256	50.0
413.09058	1000.0
457.11212	30.0
577.15826	290.0
1740.69861	30.0

NAME:  NCGC00179993-02!
PRECURSORMZ:  405.11910553183
PRECURSORTYPE:  [M+FA-H]-
FORMULA:  C19H20O7
Ontology: Kingdom: Organic compounds;Superclass: Benzenoids;Class: Tetralins;
INCHIKEY:  MHCYVCDXRQGUFW-UHFFFAOYNA-N
SMILES:  CC1CC(=O)C2C34OC3(C(O)CC2(O)C1)C(O)C1=C(C=CC=C1O)C4=O
RETENTIONTIME:  
CCS:  -1
IONMODE:  Negative
INSTRUMENTTYPE:  
INSTRUMENT:  Maxis II HD Q-TOF Bruker
COLLISIONENERGY:  
Comment:  DB#=CCMSLIB00000846273; origin=GNPS
Num Peaks:  11
205.51512	100.0
207.07999	30.0
218.02438	40.0
237.05386	50.0
253.05109	190.0
297.12802	100.0
305.07614	40.0
323.09558	800.0
341.10876	1000.0
359.11392	360.0
419.61218	30.0

NAME:  NCGC00380656-01!2-[7-acetyloxy-5-chloro-3-[(1E,3E)-3,5-dimethylhepta-1,3-dienyl]-7-methyl-6,8-dioxoisoquinolin-2-yl]propanoic acid
PRECURSORMZ:  460.15323884783
PRECURSORTYPE:  [M-H]-
FORMULA:  C24H28ClNO6
Ontology: ;;;
INCHIKEY:  WCFJCDWCDZAMPA-UHFFFAOYNA-N
SMILES:  CCC(C)C=C(C)C=CC1=CC2=C(Cl)C(=O)C(C)(OC(C)=O)C(=O)C2=CN1C(C)C(O)=O
RETENTIONTIME:  
CCS:  -1
IONMODE:  Negative
INSTRUMENTTYPE:  
INSTRUMENT:  Maxis II HD Q-TOF Bruker
COLLISIONENERGY:  
Comment:  DB#=CCMSLIB00000846274; origin=GNPS
Num Peaks:  14
184.03964	20.0
264.17136	20.0
265.11395	20.0
283.11874	20.0
284.06381	10.0
310.17346	30.0
311.11621	20.0
327.10641	90.0
328.11292	30.0
330.13455	20.0
341.11862	470.0
354.66821	10.0
355.28052	10.0
356.14359	1000.0

NAME:  NCGC00381174-01!3-hydroxy-2-[[3-(3-hydroxy-6-methyloctanoyl)oxy-8-methylnonanoyl]amino]propanoic acid
PRECURSORMZ:  430.28102621183
PRECURSORTYPE:  [M-H]-
FORMULA:  C22H41NO7
Ontology: Kingdom: Organic compounds;Superclass: Organic acids and derivatives;Class: Carboxylic acids and derivatives;Subclass: Amino acids
INCHIKEY:  LQIHCTVXRQRKEH-UHFFFAOYNA-N
SMILES:  CCC(C)CCC(O)CC(=O)OC(CCCCC(C)C)CC(O)=NC(CO)C(O)=O
RETENTIONTIME:  
CCS:  -1
IONMODE:  Negative
INSTRUMENTTYPE:  
INSTRUMENT:  Maxis II HD Q-TOF Bruker
COLLISIONENERGY:  
Comment:  DB#=CCMSLIB00000846277; origin=GNPS
Num Peaks:  29
102.2622	40.0
120.59501	40.0
127.94453	50.0
159.10019	130.0
166.12099	50.0
173.11427	70.0
180.14326	40.0
182.15933	90.0
194.15446	90.0
196.16954	100.0
208.14975	40.0
208.17447	70.0
212.13052	80.0
216.12585	40.0
226.14871	370.0
240.15916	130.0
242.14088	50.0
252.15752	40.0
255.02701	20.0
255.7374	20.0
255.8251	10.0
256.15677	1000.0
256.40881	20.0
256.92172	40.0
270.17206	410.0
316.17673	30.0
412.27588	20.0
430.28259	240.0
1346.35205	70.0

NAME:  NCGC00381173-01!13-oxo-7-[3,4,5-trihydroxy-6-(methoxymethyl)oxan-2-yl]oxytetradecanoic acid
PRECURSORMZ:  433.24430635183
PRECURSORTYPE:  [M-H]-
FORMULA:  C21H38O9
Ontology: Kingdom: Organic compounds;Superclass: Lipids and lipid;Class: Fatty Acyls;Subclass: Fatty acyl glycosides
INCHIKEY:  IBDPEULNUMJDEE-UHFFFAOYNA-N
SMILES:  COCC1OC(OC(CCCCCC(C)=O)CCCCCC(O)=O)C(O)C(O)C1O
RETENTIONTIME:  
CCS:  -1
IONMODE:  Negative
INSTRUMENTTYPE:  
INSTRUMENT:  Maxis II HD Q-TOF Bruker
COLLISIONENERGY:  
Comment:  DB#=CCMSLIB00000846279; origin=GNPS
Num Peaks:  4
157.04622	20.0
239.16228	90.0
433.2439	1000.0
434.27145	30.0

NAME:  NCGC00381175-01!3-hydroxy-2-[[3-[3-(3-hydroxy-6-methylheptanoyl)oxy-6-methylheptanoyl]oxy-8-methylnonanoyl]amino]propanoic acid
PRECURSORMZ:  558.36475583883
PRECURSORTYPE:  [M-H]-
FORMULA:  C29H53NO9
Ontology: Kingdom: Organic compounds;Superclass: Organic acids and derivatives;Class: Carboxylic acids and derivatives;Subclass: Amino acids
INCHIKEY:  MWZPHNZNPKKSEI-UHFFFAOYNA-N
SMILES:  CC(C)CCCCC(CC(O)=NC(CO)C(O)=O)OC(=O)CC(CCC(C)C)OC(=O)CC(O)CCC(C)C
RETENTIONTIME:  
CCS:  -1
IONMODE:  Negative
INSTRUMENTTYPE:  
INSTRUMENT:  Maxis II HD Q-TOF Bruker
COLLISIONENERGY:  
Comment:  DB#=CCMSLIB00000846281; origin=GNPS
Num Peaks:  26
102.50126	20.0
104.03476	20.0
141.09297	80.0
155.11095	10.0
159.10216	250.0
180.13982	40.0
182.14659	20.0
194.12109	20.0
194.15572	140.0
196.14401	40.0
198.11809	20.0
212.13214	30.0
226.14337	320.0
242.14336	30.0
244.15451	10.0
256.15598	1000.0
256.87302	20.0
258.72989	10.0
274.16455	120.0
324.26019	20.0
368.2421	30.0
384.23972	20.0
397.71878	10.0
398.25446	700.0
558.37036	30.0
1677.72473	20.0

NAME:  NCGC00180414-02!2-[[4-[4-(2,4-dimethoxy-6-methylbenzoyl)oxy-2-methoxy-6-methylbenzoyl]oxy-2-hydroxy-6-methylbenzoyl]amino]propanoic acid
PRECURSORMZ:  580.18243436983
PRECURSORTYPE:  [M-H]-
FORMULA:  C30H31NO11
Ontology: Kingdom: Organic compounds;Superclass: Phenylpropanoids and polyketides;Class: Depsides and depsidones;
INCHIKEY:  WPXATJMWMPFBJS-UHFFFAOYNA-N
SMILES:  COC1=CC(OC)=C(C(=O)OC2=CC(OC)=C(C(=O)OC3=CC(O)=C(C(O)=NC(C)C(O)=O)C(C)=C3)C(C)=C2)C(C)=C1
RETENTIONTIME:  
CCS:  247.0956279
IONMODE:  Negative
INSTRUMENTTYPE:  
INSTRUMENT:  Maxis II HD Q-TOF Bruker
COLLISIONENERGY:  
Comment:  DB#=CCMSLIB00000846283; origin=GNPS
Num Peaks:  37
87.03258	30.0
88.04115	20.0
110.82661	20.0
114.01935	100.0
132.0459	20.0
137.06154	110.0
149.02419	110.0
162.05615	20.0
163.03537	30.0
167.03351	30.0
176.07076	20.0
180.0681	50.0
190.0985	30.0
193.0744	40.0
194.07939	70.0
208.09883	490.0
252.08636	110.0
255.07849	20.0
289.99048	20.0
308.09174	20.0
309.08499	30.0
340.12393	20.0
380.57339	80.0
389.12985	30.0
401.10516	30.0
421.16339	20.0
465.15515	10.0
490.15778	20.0
504.15823	10.0
508.19849	60.0
509.16016	20.0
518.1734	30.0
536.18781	30.0
542.34088	20.0
580.17999	1000.0
581.17664	10.0
1310.76477	20.0

NAME:  NCGC00180022-02!6-[[(3S,4S,6aR,8aR,9S,10R,12aS,14bR)-9-[3,5-dihydroxy-4-[3,4,5-trihydroxy-6-(hydroxymethyl)oxan-2-yl]oxyoxan-2-yl]oxy-10-hydroxy-4-(hydroxymethyl)-4,6a,6b,8a,11,11,14b-heptamethyl-1,2,3,4a,5,6,7,8,9,10,12,12a,14,14a-tetradecahydropicen-3-yl]oxy]-3,4-dihydroxy-5-[3,4,5-trihydroxy-6-(hydroxymethyl)oxan-2-yl]oxyoxane-2-carboxylic acid
PRECURSORMZ:  1105.54362719683
PRECURSORTYPE:  [M-H]-
FORMULA:  C53H86O24
Ontology: ;;;
INCHIKEY:  QSWYVJWAKZGGIL-UHFFFAOYNA-N
SMILES:  CC1(C)CC2C3=CCC4C5(C)CCC(OC6OC(C(O)C(O)C6OC6OC(CO)C(O)C(O)C6O)C(O)=O)C(C)(CO)C5CCC4(C)C3(C)CCC2(C)C(OC2OCC(O)C(OC3OC(CO)C(O)C(O)C3O)C2O)C1O
RETENTIONTIME:  
CCS:  322.1801874
IONMODE:  Negative
INSTRUMENTTYPE:  
INSTRUMENT:  Maxis II HD Q-TOF Bruker
COLLISIONENERGY:  
Comment:  DB#=CCMSLIB00000846284; origin=GNPS
Num Peaks:  33
85.02936	220.0
95.24277	40.0
101.02369	130.0
113.02254	520.0
115.04779	80.0
119.03256	110.0
119.08129	60.0
125.02407	70.0
131.04002	100.0
139.00508	230.0
143.03345	170.0
161.03995	100.0
221.06311	380.0
242.04947	110.0
323.09494	90.0
396.12619	160.0
401.22559	70.0
473.35898	80.0
528.10449	30.0
559.3222	100.0
719.42072	70.0
763.43494	90.0
806.96832	40.0
881.47235	30.0
1059.52502	140.0
1060.52441	50.0
1087.54114	30.0
1105.24194	60.0
1105.46265	260.0
1105.53601	1000.0
1106.5553	510.0
1107.40051	30.0
1115.67969	30.0

NAME:  NCGC00384500-01!3-(4-hydroxyphenyl)-7-methoxy-5-[(3R,4S,5S,6R)-3,4,5-trihydroxy-6-(hydroxymethyl)oxan-2-yl]oxychromen-4-one
PRECURSORMZ:  491.11949945583
PRECURSORTYPE:  [M+FA-H]-
FORMULA:  C22H22O10
Ontology: Kingdom: Organic compounds;Superclass: Phenylpropanoids and polyketides;Class: Isoflavonoids;Subclass: Isoflavonoid O
INCHIKEY:  AJAGLPDYKVWJQE-UHFFFAOYNA-N
SMILES:  COC1=CC2=C(C(=O)C(=CO2)C2=CC=C(O)C=C2)C(OC2OC(CO)C(O)C(O)C2O)=C1
RETENTIONTIME:  
CCS:  -1
IONMODE:  Negative
INSTRUMENTTYPE:  
INSTRUMENT:  Maxis II HD Q-TOF Bruker
COLLISIONENERGY:  
Comment:  DB#=CCMSLIB00000846287; origin=GNPS
Num Peaks:  10
267.02448	20.0
268.03561	60.0
282.052	150.0
282.99146	20.0
283.06305	1000.0
283.14459	20.0
285.92828	10.0
286.07159	10.0
325.07278	20.0
445.11987	250.0

NAME:  NCGC00380104-01![5-hydroxy-2-(4-hydroxyphenyl)-7-methoxy-4-oxo-3-[(2S,3R,4R,5R,6S)-3,4,5-trihydroxy-6-methyloxan-2-yl]oxychromen-8-yl] acetate
PRECURSORMZ:  549.12497876083
PRECURSORTYPE:  [M+FA-H]-
FORMULA:  C24H24O12
Ontology: Kingdom: Organic compounds;Superclass: Phenylpropanoids and polyketides;Class: Flavonoids;Subclass: Flavonoid glycosides
INCHIKEY:  BDYOPMNSRCQBHE-UHFFFAOYNA-N
SMILES:  COC1=C(OC(C)=O)C2=C(C(O)=C1)C(=O)C(OC1OC(C)C(O)C(O)C1O)=C(O2)C1=CC=C(O)C=C1
RETENTIONTIME:  
CCS:  -1
IONMODE:  Negative
INSTRUMENTTYPE:  
INSTRUMENT:  Maxis II HD Q-TOF Bruker
COLLISIONENERGY:  
Comment:  DB#=CCMSLIB00000846289; origin=GNPS
Num Peaks:  22
80.5306	10.0
165.99539	20.0
181.01353	20.0
201.69199	20.0
243.02042	10.0
270.01608	20.0
271.02502	100.0
272.03278	10.0
285.03009	10.0
287.05109	10.0
299.01846	280.0
300.02393	70.0
314.01273	20.0
314.04343	30.0
341.02963	150.0
356.05789	420.0
357.06207	1000.0
357.85257	10.0
358.06601	10.0
489.8335	20.0
501.29611	20.0
503.11499	840.0

NAME:  NCGC00384965-01!4-[4-(4-hydroxy-3-methoxyphenyl)-2,3-dimethylbutyl]benzene-1,2-diol
PRECURSORMZ:  361.16566180083
PRECURSORTYPE:  [M+FA-H]-
FORMULA:  C19H24O4
Ontology: Kingdom: Organic compounds;Superclass: Lignans;Class: Dibenzylbutane lignans;
INCHIKEY:  QKHJBWUGXMKHAK-UHFFFAOYNA-N
SMILES:  COC1=C(O)C=CC(CC(C)C(C)CC2=CC(O)=C(O)C=C2)=C1
RETENTIONTIME:  
CCS:  -1
IONMODE:  Negative
INSTRUMENTTYPE:  
INSTRUMENT:  Maxis II HD Q-TOF Bruker
COLLISIONENERGY:  
Comment:  DB#=CCMSLIB00000846290; origin=GNPS
Num Peaks:  4
149.0594	60.0
300.13565	70.0
315.16025	1000.0
315.45197	20.0

NAME:  NCGC00169122-02!2-oct-1-en-3-yloxy-6-[(3,4,5-trihydroxyoxan-2-yl)oxymethyl]oxane-3,4,5-triol
PRECURSORMZ:  467.21339984283
PRECURSORTYPE:  [M+FA-H]-
FORMULA:  C19H34O10
Ontology: Kingdom: Organic compounds;Superclass: Lipids and lipid;Class: Fatty Acyls;Subclass: Fatty acyl glycosides
INCHIKEY:  VXNMHZVTDWLWRX-UHFFFAOYNA-N
SMILES:  CCCCCC(OC1OC(COC2OCC(O)C(O)C2O)C(O)C(O)C1O)C=C
RETENTIONTIME:  
CCS:  -1
IONMODE:  Negative
INSTRUMENTTYPE:  
INSTRUMENT:  Maxis II HD Q-TOF Bruker
COLLISIONENERGY:  
Comment:  DB#=CCMSLIB00000846293; origin=GNPS
Num Peaks:  19
113.02383	230.0
143.04158	60.0
147.28888	70.0
159.02765	50.0
161.04761	80.0
173.0433	40.0
205.0372	30.0
211.13541	30.0
271.14233	40.0
288.39514	50.0
289.16571	1000.0
289.24451	10.0
421.20706	840.0
441.25491	30.0
456.37933	40.0
465.20389	40.0
467.23578	20.0
1134.94409	30.0
1988.03687	50.0

NAME:  NCGC00180770-02!3-[(2S,3R,4S,5R,6R)-3,5-dihydroxy-6-(hydroxymethyl)-4-[(2S,3R,4R,5R,6S)-3,4,5-trihydroxy-6-methyloxan-2-yl]oxyoxan-2-yl]oxy-5,7-dihydroxy-2-(4-hydroxyphenyl)chromen-4-one
PRECURSORMZ:  593.15119381383
PRECURSORTYPE:  [M-H]-
FORMULA:  C27H30O15
Ontology: Kingdom: Organic compounds;Superclass: Phenylpropanoids and polyketides;Class: Flavonoids;Subclass: Flavonoid glycosides
INCHIKEY:  YFPYXTNSQOUHPS-UHFFFAOYNA-N
SMILES:  CC1OC(OC2C(O)C(CO)OC(OC3=C(OC4=CC(O)=CC(O)=C4C3=O)C3=CC=C(O)C=C3)C2O)C(O)C(O)C1O
RETENTIONTIME:  
CCS:  231.9720965
IONMODE:  Negative
INSTRUMENTTYPE:  
INSTRUMENT:  Maxis II HD Q-TOF Bruker
COLLISIONENERGY:  
Comment:  DB#=CCMSLIB00000846295; origin=GNPS
Num Peaks:  19
150.99966	10.0
157.06859	20.0
185.06343	10.0
187.03897	30.0
197.06485	10.0
227.03665	20.0
229.04745	30.0
239.03014	10.0
255.02835	120.0
256.03482	20.0
278.11902	10.0
282.44778	10.0
283.63956	20.0
284.03403	600.0
285.04074	650.0
302.24365	20.0
357.06577	10.0
593.15222	1000.0
594.12738	10.0

NAME:  NCGC00180872-02![(2S,3R,4S,5R,6S)-4,5-dihydroxy-6-[5-hydroxy-2-(4-hydroxyphenyl)-4-oxo-7-[(2S,3R,4R,5R,6S)-3,4,5-trihydroxy-6-methyloxan-2-yl]oxychromen-3-yl]oxy-2-methyloxan-3-yl] acetate
PRECURSORMZ:  619.16684387783
PRECURSORTYPE:  [M-H]-
FORMULA:  C29H32O15
Ontology: Kingdom: Organic compounds;Superclass: Phenylpropanoids and polyketides;Class: Flavonoids;Subclass: Flavonoid glycosides
INCHIKEY:  BNUCXCGZTSEDGK-UHFFFAOYNA-N
SMILES:  CC1OC(OC2=CC(O)=C3C(OC(C4=CC=C(O)C=C4)=C(OC4OC(C)C(OC(C)=O)C(O)C4O)C3=O)=C2)C(O)C(O)C1O
RETENTIONTIME:  
CCS:  273.0806554
IONMODE:  Negative
INSTRUMENTTYPE:  
INSTRUMENT:  Maxis II HD Q-TOF Bruker
COLLISIONENERGY:  
Comment:  DB#=CCMSLIB00000846297; origin=GNPS
Num Peaks:  15
132.58826	120.0
137.8653	60.0
142.92253	20.0
227.03151	30.0
255.02882	140.0
283.02316	490.0
284.02756	110.0
285.03854	580.0
430.09012	790.0
430.13028	90.0
431.10205	720.0
473.10587	190.0
582.30933	30.0
619.16418	1000.0
620.1366	50.0

NAME:  NCGC00385196-01![(E,2R)-5-(3-chloro-5-formyl-2,6-dihydroxy-4-methylphenyl)-3-methyl-1-[(1S,2R,6R)-1,2,6-trimethyl-3-oxocyclohexyl]pent-3-en-2-yl] acetate
PRECURSORMZ:  463.18929004783
PRECURSORTYPE:  [M-H]-
FORMULA:  C25H33ClO6
Ontology: ;;;
INCHIKEY:  JIHNIFVHUVCKQA-UHFFFAOYNA-N
SMILES:  CC1CCC(=O)C(C)C1(C)CC(OC(C)=O)C(C)=CCC1=C(O)C(Cl)=C(C)C(C=O)=C1O
RETENTIONTIME:  
CCS:  225.2706586
IONMODE:  Negative
INSTRUMENTTYPE:  
INSTRUMENT:  Maxis II HD Q-TOF Bruker
COLLISIONENERGY:  
Comment:  DB#=CCMSLIB00000846298; origin=GNPS
Num Peaks:  9
209.0007	30.0
213.04898	30.0
221.04245	10.0
264.05325	20.0
265.06577	10.0
373.11951	10.0
403.16837	1000.0
406.80112	10.0
463.19025	110.0

NAME:  NCGC00180666-02!(2R,3S,4S,5R,6S)-2-[(3,4,5-trihydroxyoxan-2-yl)oxymethyl]-6-(3,4,5-trimethoxyphenoxy)oxane-3,4,5-triol
PRECURSORMZ:  523.16684357383
PRECURSORTYPE:  [M+FA-H]-
FORMULA:  C20H30O13
Ontology: Kingdom: Organic compounds;Superclass: Organic oxygen compounds;Class: Organooxygen compounds;Subclass: Carbohydrates and carbohydrate conjugates
INCHIKEY:  GGIDHIBVLYVTAU-UHFFFAOYNA-N
SMILES:  COC1=CC(OC2OC(COC3OCC(O)C(O)C3O)C(O)C(O)C2O)=CC(OC)=C1OC
RETENTIONTIME:  
CCS:  -1
IONMODE:  Negative
INSTRUMENTTYPE:  
INSTRUMENT:  Maxis II HD Q-TOF Bruker
COLLISIONENERGY:  
Comment:  DB#=CCMSLIB00000846300; origin=GNPS
Num Peaks:  19
79.01754	40.0
101.02191	30.0
125.02322	90.0
142.90175	30.0
143.03302	50.0
149.04469	30.0
161.04994	50.0
168.04126	80.0
175.065	20.0
183.06339	140.0
191.05197	40.0
203.04919	30.0
233.063	370.0
235.73058	20.0
293.08737	1000.0
307.00739	10.0
477.16022	90.0
1447.07092	20.0
1574.78357	10.0

NAME:  NCGC00169547-02!3-[3-[(2R,3R,4R)-3,4-dihydroxy-4-(hydroxymethyl)oxolan-2-yl]oxy-4,5-dihydroxy-6-(hydroxymethyl)oxan-2-yl]oxy-2-(3,4-dihydroxyphenyl)-5,7-dihydroxychromen-4-one
PRECURSORMZ:  595.13045836983
PRECURSORTYPE:  [M-H]-
FORMULA:  C26H28O16
Ontology: ;;;
INCHIKEY:  QJWRRPPVKXMSJD-UHFFFAOYNA-N
SMILES:  OCC1OC(OC2=C(OC3=CC(O)=CC(O)=C3C2=O)C2=CC(O)=C(O)C=C2)C(OC2OCC(O)(CO)C2O)C(O)C1O
RETENTIONTIME:  
CCS:  247.0878696
IONMODE:  Negative
INSTRUMENTTYPE:  
INSTRUMENT:  Maxis II HD Q-TOF Bruker
COLLISIONENERGY:  
Comment:  DB#=CCMSLIB00000846303; origin=GNPS
Num Peaks:  22
108.01939	10.0
110.21111	10.0
135.0089	10.0
139.53957	10.0
151.0018	20.0
157.95601	20.0
179.00366	30.0
243.02271	20.0
245.04446	10.0
254.02364	10.0
255.02405	40.0
271.02463	170.0
271.76678	10.0
272.03778	30.0
282.70435	10.0
299.61066	10.0
300.0264	1000.0
301.03433	120.0
317.79889	10.0
463.08231	10.0
592.47705	10.0
595.1297	780.0

NAME:  NCGC00385510-01![(2S,3R,4S,5R,6R)-2-[2-(3,4-dihydroxyphenyl)-5,7-dihydroxy-4-oxochromen-3-yl]oxy-4,5-dihydroxy-6-(hydroxymethyl)oxan-3-yl] 3,4,5-trihydroxybenzoate
PRECURSORMZ:  615.09915824083
PRECURSORTYPE:  [M-H]-
FORMULA:  C28H24O16
Ontology: Kingdom: Organic compounds;Superclass: Phenylpropanoids and polyketides;Class: Flavonoids;Subclass: Flavonoid glycosides
INCHIKEY:  PXGWEUQZDRUMRE-UHFFFAOYNA-N
SMILES:  OCC1OC(OC2=C(OC3=CC(O)=CC(O)=C3C2=O)C2=CC(O)=C(O)C=C2)C(OC(=O)C2=CC(O)=C(O)C(O)=C2)C(O)C1O
RETENTIONTIME:  
CCS:  238.6232512
IONMODE:  Negative
INSTRUMENTTYPE:  
INSTRUMENT:  Maxis II HD Q-TOF Bruker
COLLISIONENERGY:  
Comment:  DB#=CCMSLIB00000846305; origin=GNPS
Num Peaks:  7
125.02349	20.0
151.00301	100.0
178.99739	70.0
301.03455	1000.0
302.03564	20.0
313.05783	50.0
615.09637	20.0

NAME:  NCGC00385187-01!(2S,3S,9R,13R,14S,16R)-2,16-dihydroxy-17-[(2R)-2-hydroxy-6-methyl-3-oxohept-6-en-2-yl]-4,4,9,13,14-pentamethyl-3-[(2R,3R,4S,5S,6R)-3,4,5-trihydroxy-6-(hydroxymethyl)oxan-2-yl]oxy-1,2,3,7,8,10,12,15,16,17-decahydrocyclopenta[a]phenanthren-11-one
PRECURSORMZ:  709.38046517083
PRECURSORTYPE:  [M+FA-H]-
FORMULA:  C36H56O11
Ontology: Kingdom: Organic compounds;Superclass: Lipids and lipid;Class: Steroids and steroid derivatives;Subclass: Cucurbitacins
INCHIKEY:  KISJFUMXCJBLJV-UHFFFAOYNA-N
SMILES:  CC(=C)CCC(=O)C(C)(O)C1C(O)CC2(C)C3CC=C4C(CC(O)C(OC5OC(CO)C(O)C(O)C5O)C4(C)C)C3(C)C(=O)CC12C
RETENTIONTIME:  
CCS:  -1
IONMODE:  Negative
INSTRUMENTTYPE:  
INSTRUMENT:  Maxis II HD Q-TOF Bruker
COLLISIONENERGY:  
Comment:  DB#=CCMSLIB00000846307; origin=GNPS
Num Peaks:  44
85.03339	20.0
99.01328	20.0
101.02161	60.0
111.08801	20.0
113.02402	40.0
137.05615	10.0
159.0287	60.0
161.04878	100.0
279.177	10.0
303.20206	10.0
307.20502	20.0
315.18729	20.0
330.18069	20.0
345.20401	100.0
397.2377	20.0
415.24255	20.0
483.31216	70.0
484.29834	10.0
489.24631	10.0
507.26175	90.0
521.28516	20.0
547.28522	20.0
548.29364	10.0
559.25952	10.0
559.35577	10.0
565.29614	30.0
575.2912	50.0
576.28741	20.0
578.31891	10.0
601.32941	10.0
608.28192	120.0
645.36322	580.0
646.35364	30.0
660.30377	10.0
661.36774	30.0
662.05054	10.0
662.36621	10.0
663.37335	1000.0
664.38135	40.0
689.37048	10.0
709.38245	400.0
710.41022	10.0
1066.99866	20.0
1952.51501	20.0

NAME:  NCGC00180690-03!2-[5,7-dihydroxy-3-oxo-6-[(2E,6E)-3,7,11-trimethyldodeca-2,6,10-trienyl]-1H-isoindol-2-yl]pentanedioic acid
PRECURSORMZ:  498.24972608283
PRECURSORTYPE:  [M-H]-
FORMULA:  C28H37NO7
Ontology: Kingdom: Organic compounds;Superclass: Organic acids and derivatives;Class: Carboxylic acids and derivatives;Subclass: Amino acids
INCHIKEY:  LTEYADKCUWEHSA-UHFFFAOYNA-N
SMILES:  CC(C)=CCCC(C)=CCCC(C)=CCC1=C(O)C=C2C(=O)N(CC2=C1O)C(CCC(O)=O)C(O)=O
RETENTIONTIME:  
CCS:  -1
IONMODE:  Negative
INSTRUMENTTYPE:  
INSTRUMENT:  Maxis II HD Q-TOF Bruker
COLLISIONENERGY:  
Comment:  DB#=CCMSLIB00000846309; origin=GNPS
Num Peaks:  49
145.05031	30.0
162.0159	40.0
174.01062	20.0
177.03479	10.0
187.07303	30.0
190.0838	30.0
193.03613	30.0
203.05814	30.0
210.39688	10.0
214.41116	10.0
215.05638	30.0
216.06802	30.0
218.08881	20.0
220.20088	20.0
229.1918	10.0
232.06671	30.0
242.07899	20.0
244.06175	40.0
245.0657	10.0
249.05777	10.0
256.0556	30.0
258.07895	40.0
258.12375	20.0
273.14151	20.0
274.07819	80.0
275.11331	20.0
276.10257	10.0
277.06549	20.0
284.08954	20.0
298.10809	40.0
298.14206	10.0
299.10751	40.0
312.11841	20.0
316.12198	30.0
324.12073	20.0
366.20374	40.0
367.18573	10.0
377.26428	20.0
385.19876	20.0
392.24268	20.0
394.24557	50.0
410.26205	20.0
436.25125	350.0
442.28204	10.0
454.2623	1000.0
457.80826	10.0
458.13086	20.0
480.23795	100.0
498.2475	510.0

NAME:  NCGC00380583-01!(1S,3R,4R,5R)-1,3-bis[[(E)-3-(3,4-dihydroxyphenyl)prop-2-enoyl]oxy]-4,5-dihydroxycyclohexane-1-carboxylic acid
PRECURSORMZ:  515.11949976083
PRECURSORTYPE:  [M-H]-
FORMULA:  C25H24O12
Ontology: Kingdom: Organic compounds;Superclass: Organic oxygen compounds;Class: Organooxygen compounds;Subclass: Alcohols and polyols
INCHIKEY:  YDDUMTOHNYZQPO-UHFFFAOYNA-N
SMILES:  OC1CC(CC(OC(=O)C=CC2=CC(O)=C(O)C=C2)C1O)(OC(=O)C=CC1=CC(O)=C(O)C=C1)C(O)=O
RETENTIONTIME:  
CCS:  208.9869522
IONMODE:  Negative
INSTRUMENTTYPE:  
INSTRUMENT:  Maxis II HD Q-TOF Bruker
COLLISIONENERGY:  
Comment:  DB#=CCMSLIB00000846311; origin=GNPS
Num Peaks:  10
135.04413	40.0
161.0264	40.0
173.04553	20.0
179.03349	100.0
191.05632	1000.0
203.03218	20.0
205.20662	10.0
335.07367	20.0
353.08621	180.0
515.13135	10.0

NAME:  NCGC00180856-03!5,6,8-trihydroxy-2-methyl-9-(5,6,8-trihydroxy-2-methyl-4-oxo-2,3-dihydrobenzo[g]chromen-9-yl)-2,3-dihydrobenzo[g]chromen-4-one
PRECURSORMZ:  517.11402045583
PRECURSORTYPE:  [M-H]-
FORMULA:  C28H22O10
Ontology: Kingdom: Organic compounds;Superclass: Organoheterocyclic compounds;Class: Naphthopyrans;Subclass: Naphthopyranones
INCHIKEY:  JGQBYBXYRUCBQY-UHFFFAOYNA-N
SMILES:  CC1CC(=O)C2=C(O1)C=C1C(C(O)=CC(O)=C1C1=C(O)C=C(O)C3=C(O)C4=C(OC(C)CC4=O)C=C13)=C2O
RETENTIONTIME:  
CCS:  239.4855826
IONMODE:  Negative
INSTRUMENTTYPE:  
INSTRUMENT:  Maxis II HD Q-TOF Bruker
COLLISIONENERGY:  
Comment:  DB#=CCMSLIB00000846313; origin=GNPS
Num Peaks:  30
145.04338	20.0
160.01846	20.0
175.02156	20.0
188.00795	30.0
216.00871	90.0
230.06848	40.0
241.84715	20.0
249.10728	10.0
254.19215	10.0
256.08044	10.0
256.27231	10.0
258.05118	350.0
260.02719	10.0
261.88098	20.0
339.05875	30.0
347.0127	30.0
367.19318	10.0
419.05051	20.0
454.25171	20.0
475.09912	10.0
489.1087	20.0
504.11142	10.0
515.04132	20.0
515.3089	10.0
516.86353	20.0
516.99121	30.0
517.11401	1000.0
517.31384	10.0
518.12128	10.0
521.14795	10.0

NAME:  NCGC00380582-01![(2R,3S,4S,5R,6S)-6-[3,5-dihydroxy-4-[3-(4-hydroxyphenyl)propanoyl]phenoxy]-3,4,5-trihydroxyoxan-2-yl]methyl 3,4,5-trihydroxybenzoate
PRECURSORMZ:  587.14062912983
PRECURSORTYPE:  [M-H]-
FORMULA:  C28H28O14
Ontology: Kingdom: Organic compounds;Superclass: Phenylpropanoids and polyketides;Class: Flavonoids;Subclass: Flavonoid glycosides
INCHIKEY:  YPFUHFNAEWURDN-UHFFFAOYNA-N
SMILES:  OC1C(O)C(COC(=O)C2=CC(O)=C(O)C(O)=C2)OC(OC2=CC(O)=C(C(=O)CCC3=CC=C(O)C=C3)C(O)=C2)C1O
RETENTIONTIME:  
CCS:  -1
IONMODE:  Negative
INSTRUMENTTYPE:  
INSTRUMENT:  Maxis II HD Q-TOF Bruker
COLLISIONENERGY:  
Comment:  DB#=CCMSLIB00000846315; origin=GNPS
Num Peaks:  32
93.0317	20.0
115.03924	10.0
119.04565	10.0
123.00188	10.0
123.04987	10.0
125.02333	120.0
143.03424	10.0
151.00452	10.0
153.87364	10.0
155.03381	10.0
167.03374	250.0
168.01129	20.0
169.01308	180.0
179.03809	10.0
189.05177	10.0
191.03256	30.0
207.03087	10.0
209.04689	10.0
211.02412	20.0
241.03554	20.0
265.08838	10.0
271.04294	40.0
273.07642	520.0
297.07706	40.0
313.05707	250.0
327.08127	10.0
439.08618	80.0
481.10175	20.0
587.14136	1000.0
588.19501	10.0
591.26544	10.0
591.70276	10.0

NAME:  NCGC00380457-01!
PRECURSORMZ:  713.41176529983
PRECURSORTYPE:  [M+FA-H]-
FORMULA:  C36H60O11
Ontology: Kingdom: Organic compounds;Superclass: Lipids and lipid;Class: Prenol lipids;Subclass: Terpene glycosides
INCHIKEY:  SOOVMLNBEBDSMV-UHFFFAOYNA-N
SMILES:  CC(CCC(O)C(C)(C)O)C1CCC2(C)C3CCC4C5(CC35CCC12C)C(O)CC(O)C4(C)C(=O)OC1OC(CO)C(O)C(O)C1O
RETENTIONTIME:  
CCS:  -1
IONMODE:  Negative
INSTRUMENTTYPE:  
INSTRUMENT:  Maxis II HD Q-TOF Bruker
COLLISIONENERGY:  
Comment:  DB#=CCMSLIB00000846317; origin=GNPS
Num Peaks:  12
161.03764	10.0
179.05383	40.0
190.09175	20.0
441.33704	20.0
461.32916	40.0
487.34064	60.0
505.35233	1000.0
506.35638	40.0
547.35767	40.0
713.414	60.0
714.39923	10.0
1234.8905	20.0

NAME:  NCGC00380466-01!
PRECURSORMZ:  993.49119739483
PRECURSORTYPE:  [M+FA-H]-
FORMULA:  C46H76O20
Ontology: Kingdom: Organic compounds;Superclass: Lipids and lipid;Class: Steroids and steroid derivatives;Subclass: Steroidal glycosides
INCHIKEY:  MKLSDOYALQNPMS-UHFFFAOYNA-N
SMILES:  CC(C(O)CC(C)=C(C)C)C1CCC2C3C4OC4C4(O)CC(CC(O)C4(C)C3CCC12C)OC1OC(CO)C(OC2OC(CO)C(OC3OC(CO)C(O)C(O)C3O)C(O)C2O)C(O)C1O
RETENTIONTIME:  
CCS:  -1
IONMODE:  Negative
INSTRUMENTTYPE:  
INSTRUMENT:  Maxis II HD Q-TOF Bruker
COLLISIONENERGY:  
Comment:  DB#=CCMSLIB00000846319; origin=GNPS
Num Peaks:  20
73.05756	10.0
81.0359	10.0
87.01087	30.0
89.02637	50.0
101.0237	130.0
113.02309	40.0
119.03486	60.0
125.03496	10.0
131.03511	30.0
161.04642	120.0
179.05592	160.0
180.06479	10.0
221.06546	80.0
767.42633	20.0
785.44061	20.0
947.48627	1000.0
948.4939	210.0
949.50208	40.0
950.51483	10.0
952.84808	10.0

NAME:  NCGC00380640-01!5-chloro-2,4-dihydroxy-6-methyl-3-[(2E,6E)-3,7,11-trimethyldodeca-2,6,10-trienyl]benzaldehyde
PRECURSORMZ:  389.18889614783
PRECURSORTYPE:  [M-H]-
FORMULA:  C23H31ClO3
Ontology: Kingdom: Organic compounds;Superclass: Lipids and lipid;Class: Prenol lipids;Subclass: Sesquiterpenoids
INCHIKEY:  MHWOMRMBQGSTFS-UHFFFAOYSA-N
SMILES:  CC(C)=CCCC(C)=CCCC(C)=CCC1=C(O)C(Cl)=C(C)C(C=O)=C1O
RETENTIONTIME:  
CCS:  210.1433968
IONMODE:  Negative
INSTRUMENTTYPE:  
INSTRUMENT:  Maxis II HD Q-TOF Bruker
COLLISIONENERGY:  
Comment:  DB#=CCMSLIB00000846320; origin=GNPS
Num Peaks:  8
151.0383	170.0
187.07614	70.0
201.06413	100.0
252.05434	70.0
387.6604	70.0
388.87286	40.0
389.19208	1000.0
389.9726	40.0

NAME:  NCGC00380911-01!2-(3,4-dihydroxyphenyl)-3,5-dihydroxy-8-methoxy-7-[(2S,3R,4S,5S,6R)-3,4,5-trihydroxy-6-(hydroxymethyl)oxan-2-yl]oxychromen-4-one
PRECURSORMZ:  493.09876431583
PRECURSORTYPE:  [M-H]-
FORMULA:  C22H22O13
Ontology: Kingdom: Organic compounds;Superclass: Phenylpropanoids and polyketides;Class: Flavonoids;Subclass: Flavonoid glycosides
INCHIKEY:  XTWQFJODFQFTIT-UHFFFAOYNA-N
SMILES:  COC1=C(OC2OC(CO)C(O)C(O)C2O)C=C(O)C2=C1OC(=C(O)C2=O)C1=CC(O)=C(O)C=C1
RETENTIONTIME:  
CCS:  -1
IONMODE:  Negative
INSTRUMENTTYPE:  
INSTRUMENT:  Maxis II HD Q-TOF Bruker
COLLISIONENERGY:  
Comment:  DB#=CCMSLIB00000846323; origin=GNPS
Num Peaks:  7
162.4821	20.0
226.02672	50.0
316.02133	90.0
330.0452	40.0
331.04611	1000.0
493.11493	40.0
648.78613	20.0

NAME:  NCGC00179942-02![4,5-dihydroxy-6-(hydroxymethyl)-2-[2,4,6-trihydroxy-3-(4-hydroxybenzoyl)phenyl]oxan-3-yl] 3,4,5-trihydroxybenzoate
PRECURSORMZ:  559.10932900083
PRECURSORTYPE:  [M-H]-
FORMULA:  C26H24O14
Ontology: Kingdom: Organic compounds;Superclass: Organic oxygen compounds;Class: Organooxygen compounds;Subclass: Carbohydrates and carbohydrate conjugates
INCHIKEY:  JLKWLPLEMBUFOD-UHFFFAOYNA-N
SMILES:  OCC1OC(C(OC(=O)C2=CC(O)=C(O)C(O)=C2)C(O)C1O)C1=C(O)C=C(O)C(C(=O)C2=CC=C(O)C=C2)=C1O
RETENTIONTIME:  
CCS:  -1
IONMODE:  Negative
INSTRUMENTTYPE:  
INSTRUMENT:  Maxis II HD Q-TOF Bruker
COLLISIONENERGY:  
Comment:  DB#=CCMSLIB00000846325; origin=GNPS
Num Peaks:  43
90.61128	20.0
90.65784	10.0
107.20908	30.0
125.02359	80.0
144.7457	10.0
149.02426	30.0
149.6132	30.0
149.8566	20.0
151.00571	50.0
161.02808	20.0
161.16183	30.0
163.39084	10.0
167.02756	20.0
169.01517	510.0
174.99309	20.0
177.04796	30.0
185.07349	30.0
193.01791	40.0
198.08646	50.0
199.17009	10.0
201.05495	20.0
241.03249	40.0
245.04259	50.0
251.06705	10.0
257.04596	30.0
258.05222	20.0
265.02087	30.0
265.85107	10.0
267.0444	20.0
269.04547	790.0
283.09488	20.0
287.05707	1000.0
311.06104	30.0
313.05319	20.0
317.06833	280.0
329.06454	40.0
347.07184	30.0
389.08713	140.0
407.10098	590.0
410.48898	10.0
439.10983	40.0
559.11359	150.0
872.41705	10.0

NAME:  NCGC00179942-02![4,5-dihydroxy-6-(hydroxymethyl)-2-[2,4,6-trihydroxy-3-(4-hydroxybenzoyl)phenyl]oxan-3-yl] 3,4,5-trihydroxybenzoate
PRECURSORMZ:  595.0860067129
PRECURSORTYPE:  [M+Cl]-
FORMULA:  C26H24O14
Ontology: Kingdom: Organic compounds;Superclass: Organic oxygen compounds;Class: Organooxygen compounds;Subclass: Carbohydrates and carbohydrate conjugates
INCHIKEY:  JLKWLPLEMBUFOD-UHFFFAOYNA-N
SMILES:  OCC1OC(C(OC(=O)C2=CC(O)=C(O)C(O)=C2)C(O)C1O)C1=C(O)C=C(O)C(C(=O)C2=CC=C(O)C=C2)=C1O
RETENTIONTIME:  
CCS:  -1
IONMODE:  Negative
INSTRUMENTTYPE:  
INSTRUMENT:  Maxis II HD Q-TOF Bruker
COLLISIONENERGY:  
Comment:  DB#=CCMSLIB00000846327; origin=GNPS
Num Peaks:  12
169.01524	780.0
203.03137	230.0
245.04532	410.0
269.04568	1000.0
271.44046	120.0
287.05469	520.0
311.06479	140.0
317.07617	200.0
389.08841	90.0
407.13284	250.0
497.10794	120.0
559.10406	680.0

NAME:  NCGC00380641-01!5-[[4-[5-[[4-[5-[acetyl(hydroxy)amino]pentylamino]-4-oxobutanoyl]-hydroxyamino]pentylamino]-4-oxobutanoyl]-hydroxyamino]pentanoic acid
PRECURSORMZ:  574.30936621683
PRECURSORTYPE:  [M-H]-
FORMULA:  C25H45N5O10
Ontology: Kingdom: Organic compounds;Superclass: Lipids and lipid;Class: Fatty Acyls;Subclass: Fatty amides
INCHIKEY:  ZMCWALAQRPULMT-UHFFFAOYSA-N
SMILES:  CC(=O)N(O)CCCCCN=C(O)CCC(=O)N(O)CCCCCN=C(O)CCC(=O)N(O)CCCCC(O)=O
RETENTIONTIME:  
CCS:  -1
IONMODE:  Negative
INSTRUMENTTYPE:  
INSTRUMENT:  Maxis II HD Q-TOF Bruker
COLLISIONENERGY:  
Comment:  DB#=CCMSLIB00000846328; origin=GNPS
Num Peaks:  37
98.02954	70.0
107.05981	40.0
109.5195	50.0
114.05483	40.0
116.59347	20.0
132.06523	40.0
138.09123	20.0
142.05806	20.0
153.10857	50.0
154.98257	10.0
163.0925	40.0
179.08199	30.0
179.90331	20.0
180.77516	10.0
181.09784	540.0
183.11702	20.0
199.10991	270.0
201.12939	60.0
217.12033	660.0
218.93834	20.0
221.79718	20.0
225.1506	20.0
227.09308	20.0
232.13078	20.0
237.12489	30.0
241.12267	220.0
241.19513	10.0
259.13162	200.0
281.1524	20.0
299.31409	20.0
332.18198	140.0
381.21521	40.0
399.22891	10.0
441.21008	30.0
441.2467	70.0
459.24368	360.0
574.31079	1000.0

NAME:  NCGC00347539-02![2-[4-hydroxy-2,5-bis(hydroxymethyl)-3-(3-methylbutanoyloxy)oxolan-2-yl]oxy-6-(hydroxymethyl)-4,5-bis(2-methylpropanoyloxy)oxan-3-yl] decanoate
PRECURSORMZ:  765.39142377983
PRECURSORTYPE:  [M+FA-H]-
FORMULA:  C35H60O15
Ontology: Kingdom: Organic compounds;Superclass: Lipids and lipid;Class: Saccharolipids;
INCHIKEY:  LOTLMZWGLBOKFL-UHFFFAOYNA-N
SMILES:  CCCCCCCCCC(=O)OC1C(OC2(CO)OC(CO)C(O)C2OC(=O)CC(C)C)OC(CO)C(OC(=O)C(C)C)C1OC(=O)C(C)C
RETENTIONTIME:  
CCS:  -1
IONMODE:  Negative
INSTRUMENTTYPE:  
INSTRUMENT:  Maxis II HD Q-TOF Bruker
COLLISIONENERGY:  
Comment:  DB#=CCMSLIB00000846331; origin=GNPS
Num Peaks:  32
87.04467	240.0
89.28481	230.0
89.33147	110.0
101.0592	770.0
113.02178	130.0
125.02299	180.0
143.03311	150.0
161.05048	220.0
171.13737	520.0
179.06975	150.0
204.98384	120.0
213.07494	230.0
263.11447	160.0
283.13062	180.0
285.62167	170.0
287.07803	110.0
304.1084	50.0
305.09589	170.0
319.14246	150.0
323.09488	250.0
341.97443	90.0
375.12051	220.0
389.14029	190.0
393.14581	960.0
411.14236	230.0
481.19803	1000.0
495.23157	310.0
565.25067	80.0
565.28943	80.0
635.35455	100.0
636.33173	150.0
765.39667	110.0

NAME:  NCGC00347775-02!(Z)-5-[(1S,2R,4aR,8aR)-5-(hydroxymethyl)-1,2,4a-trimethyl-2,3,4,7,8,8a-hexahydronaphthalen-1-yl]-3-(hydroxymethyl)pent-2-enoic acid
PRECURSORMZ:  381.22826205783
PRECURSORTYPE:  [M+FA-H]-
FORMULA:  C20H32O4
Ontology: Kingdom: Organic compounds;Superclass: Lipids and lipid;Class: Prenol lipids;Subclass: Diterpenoids
INCHIKEY:  LRLROPFPFABQRF-UHFFFAOYNA-N
SMILES:  CC1CCC2(C)C(CCC=C2CO)C1(C)CCC(CO)=CC(O)=O
RETENTIONTIME:  
CCS:  -1
IONMODE:  Negative
INSTRUMENTTYPE:  
INSTRUMENT:  Maxis II HD Q-TOF Bruker
COLLISIONENERGY:  
Comment:  DB#=CCMSLIB00000846333; origin=GNPS
Num Peaks:  6
187.15154	80.0
217.1568	70.0
239.18199	70.0
244.153	60.0
255.21445	100.0
335.22278	1000.0

NAME:  NCGC00384662-01!(2R,3R)-3,5,7-trihydroxy-2-(4-hydroxyphenyl)-6-[(3R,4R,5S,6R)-3,4,5-trihydroxy-6-(hydroxymethyl)oxan-2-yl]-2,3-dihydrochromen-4-one
PRECURSORMZ:  449.10893507583
PRECURSORTYPE:  [M-H]-
FORMULA:  C21H22O11
Ontology: ;;;
INCHIKEY:  SPSWAOUJDYQZHR-UHFFFAOYNA-N
SMILES:  OCC1OC(C(O)C(O)C1O)C1=C(O)C2=C(OC(C(O)C2=O)C2=CC=C(O)C=C2)C=C1O
RETENTIONTIME:  
CCS:  220.6290512
IONMODE:  Negative
INSTRUMENTTYPE:  
INSTRUMENT:  Maxis II HD Q-TOF Bruker
COLLISIONENERGY:  
Comment:  DB#=CCMSLIB00000846334; origin=GNPS
Num Peaks:  35
113.03682	40.0
123.04847	100.0
125.021	40.0
127.0025	70.0
145.58717	20.0
167.03452	210.0
197.04677	60.0
201.06488	40.0
203.04155	80.0
217.08466	50.0
220.01198	140.0
224.0323	60.0
237.04123	50.0
257.08517	50.0
271.06479	70.0
283.04944	70.0
287.05209	30.0
299.09143	30.0
300.50967	50.0
301.07242	610.0
301.49011	60.0
311.05298	130.0
311.1601	20.0
315.09344	60.0
321.12552	60.0
329.06857	1000.0
331.08649	300.0
331.93265	10.0
341.07303	80.0
359.07828	460.0
371.07828	50.0
389.07126	50.0
431.10092	40.0
449.10992	600.0
485.67783	70.0

NAME:  NCGC00180844-02!(E)-3-[4-methoxy-2-[(2S,3R,4S,5S,6R)-3,4,5-trihydroxy-6-(hydroxymethyl)oxan-2-yl]oxyphenyl]prop-2-enoic acid
PRECURSORMZ:  401.10893477183
PRECURSORTYPE:  [M+FA-H]-
FORMULA:  C16H20O9
Ontology: Kingdom: Organic compounds;Superclass: Organic oxygen compounds;Class: Organooxygen compounds;Subclass: Carbohydrates and carbohydrate conjugates
INCHIKEY:  FQWZGEBZILOCET-UHFFFAOYNA-N
SMILES:  COC1=CC(OC2OC(CO)C(O)C(O)C2O)=C(C=CC(O)=O)C=C1
RETENTIONTIME:  
CCS:  -1
IONMODE:  Negative
INSTRUMENTTYPE:  
INSTRUMENT:  Maxis II HD Q-TOF Bruker
COLLISIONENERGY:  
Comment:  DB#=CCMSLIB00000846336; origin=GNPS
Num Peaks:  6
133.02699	20.0
149.06068	250.0
193.0486	1000.0
341.1185	40.0
355.09711	40.0
527.98834	30.0

NAME:  NCGC00385551-01!5-[(2S,3R,4S,5S,6R)-6-[[(2R,3R,4R)-3,4-dihydroxy-4-(hydroxymethyl)oxolan-2-yl]oxymethyl]-3,4,5-trihydroxyoxan-2-yl]oxy-4-(3,4-dihydroxyphenyl)-7-hydroxychromen-2-one
PRECURSORMZ:  579.13554374983
PRECURSORTYPE:  [M-H]-
FORMULA:  C26H28O15
Ontology: Kingdom: Organic compounds;Superclass: Phenylpropanoids and polyketides;Class: Coumarins and derivatives;Subclass: Coumarin glycosides
INCHIKEY:  URQNORFSMLKGLE-UHFFFAOYNA-N
SMILES:  OCC1(O)COC(OCC2OC(OC3=CC(O)=CC4=C3C(=CC(=O)O4)C3=CC(O)=C(O)C=C3)C(O)C(O)C2O)C1O
RETENTIONTIME:  
CCS:  250.4984624
IONMODE:  Negative
INSTRUMENTTYPE:  
INSTRUMENT:  Maxis II HD Q-TOF Bruker
COLLISIONENERGY:  
Comment:  DB#=CCMSLIB00000846338; origin=GNPS
Num Peaks:  4
199.03645	10.0
285.04031	1000.0
286.03986	20.0
579.1344	210.0

NAME:  NCGC00381282-01![5-hydroxy-2-[4-hydroxy-2,5-bis(hydroxymethyl)-3-(2-methylpropanoyloxy)oxolan-2-yl]oxy-4-(2-methylpropanoyloxy)-6-(2-methylpropanoyloxymethyl)oxan-3-yl] decanoate
PRECURSORMZ:  751.37577371583
PRECURSORTYPE:  [M+FA-H]-
FORMULA:  C34H58O15
Ontology: ;;;
INCHIKEY:  KSNWZOGDNCZVEN-UHFFFAOYNA-N
SMILES:  CCCCCCCCCC(=O)OC1C(OC2(CO)OC(CO)C(O)C2OC(=O)C(C)C)OC(COC(=O)C(C)C)C(O)C1OC(=O)C(C)C
RETENTIONTIME:  
CCS:  -1
IONMODE:  Negative
INSTRUMENTTYPE:  
INSTRUMENT:  Maxis II HD Q-TOF Bruker
COLLISIONENERGY:  
Comment:  DB#=CCMSLIB00000846341; origin=GNPS
Num Peaks:  15
87.01234	120.0
87.04595	1000.0
113.02644	530.0
143.03261	410.0
171.13611	770.0
305.08923	80.0
319.13824	140.0
323.09918	110.0
375.12961	310.0
393.13657	290.0
463.20871	440.0
481.19022	560.0
482.19205	60.0
551.23706	410.0
635.30841	310.0

NAME:  NCGC00347664-02!1,8,10-trihydroxy-3-methoxy-6-methyl-10-(3-methylbut-2-enyl)anthracen-9-one
PRECURSORMZ:  399.14492635583
PRECURSORTYPE:  [M+FA-H]-
FORMULA:  C21H22O5
Ontology: Kingdom: Organic compounds;Superclass: Benzenoids;Class: Anthracenes;
INCHIKEY:  HKCWOSWEMAUQEH-UHFFFAOYNA-N
SMILES:  COC1=CC2=C(C(O)=C1)C(=O)C1=C(C=C(C)C=C1O)C2(O)CC=C(C)C
RETENTIONTIME:  
CCS:  -1
IONMODE:  Negative
INSTRUMENTTYPE:  
INSTRUMENT:  Maxis II HD Q-TOF Bruker
COLLISIONENERGY:  
Comment:  DB#=CCMSLIB00000846343; origin=GNPS
Num Peaks:  7
225.05699	40.0
225.10564	40.0
269.04648	200.0
283.05865	160.0
284.06931	1000.0
353.13986	280.0
418.44748	10.0

NAME:  NCGC00384606-01![4-acetyloxy-2,5-dihydroxy-6-(hydroxymethyl)oxan-3-yl] (E)-3-(4-hydroxyphenyl)prop-2-enoate
PRECURSORMZ:  367.10345577183
PRECURSORTYPE:  [M-H]-
FORMULA:  C17H20O9
Ontology: Kingdom: Organic compounds;Superclass: Phenylpropanoids and polyketides;Class: Cinnamic acids and derivatives;Subclass: Hydroxycinnamic acids and derivatives
INCHIKEY:  QXRDTLAXUJONPD-UHFFFAOYNA-N
SMILES:  CC(=O)OC1C(O)C(CO)OC(O)C1OC(=O)C=CC1=CC=C(O)C=C1
RETENTIONTIME:  
CCS:  -1
IONMODE:  Negative
INSTRUMENTTYPE:  
INSTRUMENT:  Maxis II HD Q-TOF Bruker
COLLISIONENERGY:  
Comment:  DB#=CCMSLIB00000846345; origin=GNPS
Num Peaks:  10
119.05009	100.0
119.12965	20.0
128.41875	20.0
145.02869	1000.0
145.05418	60.0
163.03438	90.0
185.06175	60.0
187.04459	90.0
191.0585	100.0
229.04486	40.0

NAME:  NCGC00094874-06!7-hydroxy-6-[(2S,3R,4S,5S,6R)-3,4,5-trihydroxy-6-(hydroxymethyl)oxan-2-yl]oxychromen-2-one
PRECURSORMZ:  339.07215564283
PRECURSORTYPE:  [M-H]-
FORMULA:  C15H16O9
Ontology: Kingdom: Organic compounds;Superclass: Phenylpropanoids and polyketides;Class: Coumarins and derivatives;Subclass: Coumarin glycosides
INCHIKEY:  XHCADAYNFIFUHF-UHFFFAOYNA-N
SMILES:  OCC1OC(OC2=C(O)C=C3OC(=O)C=CC3=C2)C(O)C(O)C1O
RETENTIONTIME:  
CCS:  174.8050887
IONMODE:  Negative
INSTRUMENTTYPE:  
INSTRUMENT:  Maxis II HD Q-TOF Bruker
COLLISIONENERGY:  
Comment:  DB#=CCMSLIB00000846347; origin=GNPS
Num Peaks:  22
317.03232	30.0
339.07346	20.0
447.09344	70.0
448.09683	40.0
457.08023	40.0
463.09943	10.0
625.13727	10.0
755.20154	30.0
894.03595	20.0
955.96881	310.0
956.97534	70.0
957.96875	120.0
958.97357	30.0
965.99939	1000.0
966.9989	210.0
968.00641	30.0
976.08508	10.0
982.98572	250.0
983.99146	60.0
984.98889	20.0
1033.99487	20.0
1049.13733	10.0

NAME:  NCGC00384910-01!4,6,7-trihydroxy-5-methoxy-1,8,8,9-tetramethyl-9H-phenaleno[1,2-b]furan-3-one
PRECURSORMZ:  355.11871191183
PRECURSORTYPE:  [M-H]-
FORMULA:  C20H20O6
Ontology: Kingdom: Organic compounds;Superclass: Benzenoids;Class: Phenalenes;Subclass: Phenalenones
INCHIKEY:  KMPAOJFBQSXEAI-UHFFFAOYNA-N
SMILES:  COC1=C(O)C2=C(O)C3=C(OC(C)C3(C)C)C3=C2C(C(=O)C=C3C)=C1O
RETENTIONTIME:  
CCS:  193.228041
IONMODE:  Negative
INSTRUMENTTYPE:  
INSTRUMENT:  Maxis II HD Q-TOF Bruker
COLLISIONENERGY:  
Comment:  DB#=CCMSLIB00000846349; origin=GNPS
Num Peaks:  8
248.804	70.0
299.05569	140.0
310.0556	80.0
325.06738	300.0
340.09567	1000.0
355.11945	770.0
355.19452	90.0
358.12305	40.0

NAME:  NCGC00384898-01!1,3,6,8-tetrahydroxy-2-(1-hydroxyhexyl)anthracene-9,10-dione
PRECURSORMZ:  371.11362653183
PRECURSORTYPE:  [M-H]-
FORMULA:  C20H20O7
Ontology: Kingdom: Organic compounds;Superclass: Benzenoids;Class: Anthracenes;Subclass: Anthraquinones
INCHIKEY:  WGPOPPKSQRZUTP-UHFFFAOYNA-N
SMILES:  CCCCCC(O)C1=C(O)C=C2C(=O)C3=C(C(O)=CC(O)=C3)C(=O)C2=C1O
RETENTIONTIME:  
CCS:  190.9272284
IONMODE:  Negative
INSTRUMENTTYPE:  
INSTRUMENT:  Maxis II HD Q-TOF Bruker
COLLISIONENERGY:  
Comment:  DB#=CCMSLIB00000846351; origin=GNPS
Num Peaks:  7
258.0159	340.0
286.01514	510.0
301.02942	740.0
311.05936	180.0
312.0481	130.0
356.09338	590.0
371.11462	1000.0

NAME:  NCGC00384911-01!6-[(2S,3R,4S,5S,6R)-4,5-dihydroxy-6-(hydroxymethyl)-3-[(2S,3R,4S,5S)-3,4,5-trihydroxyoxan-2-yl]oxyoxan-2-yl]-5,7-dihydroxy-2-(4-hydroxyphenyl)chromen-4-one
PRECURSORMZ:  563.14062912983
PRECURSORTYPE:  [M-H]-
FORMULA:  C26H28O14
Ontology: Kingdom: Organic compounds;Superclass: Phenylpropanoids and polyketides;Class: Flavonoids;Subclass: Flavonoid glycosides
INCHIKEY:  ACRIYYKEWCXQOS-UHFFFAOYNA-N
SMILES:  OCC1OC(C(OC2OCC(O)C(O)C2O)C(O)C1O)C1=C(O)C2=C(OC(=CC2=O)C2=CC=C(O)C=C2)C=C1O
RETENTIONTIME:  
CCS:  226.4306212
IONMODE:  Negative
INSTRUMENTTYPE:  
INSTRUMENT:  Maxis II HD Q-TOF Bruker
COLLISIONENERGY:  
Comment:  DB#=CCMSLIB00000846353; origin=GNPS
Num Peaks:  27
146.66357	20.0
146.79723	30.0
149.29599	20.0
149.31833	20.0
173.02815	40.0
283.06857	40.0
288.02365	40.0
293.04611	1000.0
293.46896	20.0
310.05237	50.0
311.06155	30.0
314.03738	30.0
321.04614	20.0
323.05972	80.0
335.05267	30.0
339.0473	70.0
341.07867	40.0
353.07819	40.0
359.05029	30.0
377.05688	20.0
413.09177	590.0
429.08298	20.0
431.10239	30.0
443.10263	60.0
556.29224	20.0
563.14386	910.0
564.15619	30.0

NAME:  NCGC00384909-01!
PRECURSORMZ:  755.10916995383
PRECURSORTYPE:  [M+FA-H]-
FORMULA:  C31H30N6O6S4
Ontology: Kingdom: Organic compounds;Superclass: Organoheterocyclic compounds;Class: Indoles and derivatives;Subclass: Pyrroloindoles
INCHIKEY:  ZRZWBWPDBOVIGQ-UHFFFAOYNA-N
SMILES:  CN1C(=O)C23CC4(C(NC5=CC=CC=C45)N2C(=O)C1(CO)SS3)N1C=C(CC23SSC(CO)(N(C)C2=O)C(=O)N3C)C2=CC=CC=C12
RETENTIONTIME:  
CCS:  -1
IONMODE:  Negative
INSTRUMENTTYPE:  
INSTRUMENT:  Maxis II HD Q-TOF Bruker
COLLISIONENERGY:  
Comment:  DB#=CCMSLIB00000846355; origin=GNPS
Num Peaks:  69
97.56171	80.0
115.02557	60.0
116.05011	70.0
124.02747	80.0
124.70036	50.0
137.04051	60.0
139.04939	100.0
143.0211	40.0
151.05588	90.0
153.02821	50.0
154.05312	50.0
155.04944	90.0
163.04869	20.0
167.04718	410.0
169.0602	330.0
175.00175	40.0
185.04761	30.0
199.01968	40.0
201.98599	40.0
244.10323	50.0
252.08061	1000.0
252.17706	20.0
264.07739	160.0
268.10123	30.0
280.11429	40.0
283.03598	50.0
283.09903	60.0
284.10715	40.0
296.09763	80.0
298.12158	800.0
299.11795	60.0
300.08957	40.0
310.09888	40.0
356.1442	50.0
363.06491	30.0
369.13089	30.0
383.15121	60.0
385.10983	70.0
385.16132	50.0
388.07181	50.0
395.13431	60.0
410.14911	140.0
411.15555	140.0
413.16074	180.0
414.84225	20.0
431.99225	20.0
464.1965	70.0
477.1026	110.0
521.20874	90.0
539.20892	40.0
549.19312	200.0
551.20776	160.0
551.38092	40.0
552.20758	60.0
560.41522	40.0
561.16718	60.0
563.2077	70.0
564.21069	50.0
567.1842	70.0
567.21368	80.0
579.21625	60.0
580.21228	50.0
581.16895	80.0
597.13782	50.0
615.13855	40.0
616.15137	30.0
627.15778	80.0
645.16071	190.0
646.18024	70.0

NAME:  NCGC00169545-02!(2S,3R,5R,10R,13R,14S,17S)-2,3,14-trihydroxy-10,13-dimethyl-17-[(2R,3R,5R)-2,3,6-trihydroxy-5,6-dimethylheptan-2-yl]-2,3,4,5,9,11,12,15,16,17-decahydro-1H-cyclopenta[a]phenanthren-6-one
PRECURSORMZ:  539.32255636883
PRECURSORTYPE:  [M+FA-H]-
FORMULA:  C28H46O7
Ontology: Kingdom: Organic compounds;Superclass: Lipids and lipid;Class: Steroids and steroid derivatives;Subclass: Bile acids
INCHIKEY:  IJRBORPEVKCEQD-UHFFFAOYNA-N
SMILES:  CC(CC(O)C(C)(O)C1CCC2(O)C3=CC(=O)C4CC(O)C(O)CC4(C)C3CCC12C)C(C)(C)O
RETENTIONTIME:  
CCS:  -1
IONMODE:  Negative
INSTRUMENTTYPE:  
INSTRUMENT:  Maxis II HD Q-TOF Bruker
COLLISIONENERGY:  
Comment:  DB#=CCMSLIB00000846357; origin=GNPS
Num Peaks:  11
97.06737	120.0
173.11952	580.0
238.7603	40.0
274.14471	30.0
301.17963	140.0
319.18997	130.0
421.19159	120.0
477.2933	40.0
493.31815	1000.0
493.36957	70.0
539.31189	170.0

NAME:  NCGC00385703-01!2-(3,4-dihydroxyphenyl)-5,7-dihydroxy-3-[(2S,3R,4S,5R,6R)-3,4,5-trihydroxy-6-[[(2R,3R,4R,5R,6S)-3,4,5-trihydroxy-6-methyloxan-2-yl]oxymethyl]oxan-2-yl]oxychromen-4-one
PRECURSORMZ:  609.14610843383
PRECURSORTYPE:  [M-H]-
FORMULA:  C27H30O16
Ontology: Kingdom: Organic compounds;Superclass: Phenylpropanoids and polyketides;Class: Flavonoids;Subclass: Flavonoid glycosides
INCHIKEY:  IKGXIBQEEMLURG-UHFFFAOYNA-N
SMILES:  CC1OC(OCC2OC(OC3=C(OC4=CC(O)=CC(O)=C4C3=O)C3=CC(O)=C(O)C=C3)C(O)C(O)C2O)C(O)C(O)C1O
RETENTIONTIME:  
CCS:  227.7127405
IONMODE:  Negative
INSTRUMENTTYPE:  
INSTRUMENT:  Maxis II HD Q-TOF Bruker
COLLISIONENERGY:  
Comment:  DB#=CCMSLIB00000846359; origin=GNPS
Num Peaks:  19
150.19157	10.0
150.73987	30.0
151.00418	30.0
175.03467	20.0
178.99944	20.0
216.04094	20.0
243.0462	10.0
255.03021	20.0
271.02414	60.0
273.04132	30.0
295.9577	20.0
300.0271	1000.0
301.0354	290.0
313.03909	10.0
343.05368	20.0
343.25992	10.0
355.05597	20.0
609.1441	1000.0
625.96692	10.0

NAME:  NCGC00384717-01!4-(7-hydroxy-6-methoxy-2,3-dimethyl-1,2,3,4-tetrahydronaphthalen-1-yl)benzene-1,2-diol
PRECURSORMZ:  359.15001173583
PRECURSORTYPE:  [M+FA-H]-
FORMULA:  C19H22O4
Ontology: Kingdom: Organic compounds;Superclass: Lignans;Class: Aryltetralin lignans;
INCHIKEY:  GSOJAKKBDGPDIS-UHFFFAOYNA-N
SMILES:  COC1=C(O)C=C2C(C(C)C(C)CC2=C1)C1=CC(O)=C(O)C=C1
RETENTIONTIME:  
CCS:  -1
IONMODE:  Negative
INSTRUMENTTYPE:  
INSTRUMENT:  Maxis II HD Q-TOF Bruker
COLLISIONENERGY:  
Comment:  DB#=CCMSLIB00000846361; origin=GNPS
Num Peaks:  5
240.03661	30.0
241.05804	110.0
281.08704	40.0
283.10034	60.0
313.14401	1000.0

NAME:  NCGC00384726-01![(2S,3R,4S,5S,6R)-4,5-dihydroxy-2-(6-methoxy-2-oxochromen-7-yl)oxy-6-[[(2R,3R,4R,5R,6S)-3,4,5-trihydroxy-6-methyloxan-2-yl]oxymethyl]oxan-3-yl] acetate
PRECURSORMZ:  587.16175819383
PRECURSORTYPE:  [M+FA-H]-
FORMULA:  C24H30O14
Ontology: Kingdom: Organic compounds;Superclass: Phenylpropanoids and polyketides;Class: Coumarins and derivatives;Subclass: Coumarin glycosides
INCHIKEY:  VJPARTQOILTISJ-UHFFFAOYNA-N
SMILES:  COC1=C(OC2OC(COC3OC(C)C(O)C(O)C3O)C(O)C(O)C2OC(C)=O)C=C2OC(=O)C=CC2=C1
RETENTIONTIME:  
CCS:  -1
IONMODE:  Negative
INSTRUMENTTYPE:  
INSTRUMENT:  Maxis II HD Q-TOF Bruker
COLLISIONENERGY:  
Comment:  DB#=CCMSLIB00000846363; origin=GNPS
Num Peaks:  8
104.02403	10.0
148.01491	40.0
176.00893	310.0
191.0329	1000.0
198.02979	10.0
213.05542	10.0
275.05429	10.0
587.16162	20.0

NAME:  NCGC00384708-01![5-hydroxy-2-[4-hydroxy-2,5-bis(hydroxymethyl)-3-(2-methylpropanoyloxy)oxolan-2-yl]oxy-6-(hydroxymethyl)-4-(2-methylpropanoyloxy)oxan-3-yl] decanoate
PRECURSORMZ:  681.33390890183
PRECURSORTYPE:  [M+FA-H]-
FORMULA:  C30H52O14
Ontology: Kingdom: Organic compounds;Superclass: Lipids and lipid;Class: Saccharolipids;
INCHIKEY:  HNLDKIWEAVTCKP-UHFFFAOYNA-N
SMILES:  CCCCCCCCCC(=O)OC1C(OC2(CO)OC(CO)C(O)C2OC(=O)C(C)C)OC(CO)C(O)C1OC(=O)C(C)C
RETENTIONTIME:  
CCS:  -1
IONMODE:  Negative
INSTRUMENTTYPE:  
INSTRUMENT:  Maxis II HD Q-TOF Bruker
COLLISIONENERGY:  
Comment:  DB#=CCMSLIB00000846365; origin=GNPS
Num Peaks:  25
87.02805	50.0
101.06594	90.0
139.04141	160.0
143.03535	270.0
157.12245	290.0
171.13802	660.0
179.05888	160.0
215.05267	130.0
230.70734	90.0
243.16435	160.0
297.07355	30.0
304.78201	40.0
323.0986	710.0
341.10953	60.0
393.15735	290.0
411.15063	1000.0
440.53992	80.0
445.21939	150.0
480.0018	70.0
481.19122	760.0
495.22656	120.0
547.26483	70.0
565.28937	140.0
635.32953	70.0
681.33722	250.0

NAME:  NCGC00169692-02!1,7,8-trihydroxy-3-methyl-2,3,4,7-tetrahydro-1H-benzo[a]anthracen-12-one
PRECURSORMZ:  355.11871160783
PRECURSORTYPE:  [M+FA-H]-
FORMULA:  C19H18O4
Ontology: Kingdom: Organic compounds;Superclass: Benzenoids;Class: Phenanthrenes and derivatives;Subclass: Phenanthrols
INCHIKEY:  FDVOVSCQDWKKHH-UHFFFAOYNA-N
SMILES:  CC1CC(O)C2=C(C1)C=CC1=C2C(=O)C2=C(C1O)C(O)=CC=C2
RETENTIONTIME:  
CCS:  -1
IONMODE:  Negative
INSTRUMENTTYPE:  
INSTRUMENT:  Maxis II HD Q-TOF Bruker
COLLISIONENERGY:  
Comment:  DB#=CCMSLIB00000846367; origin=GNPS
Num Peaks:  10
187.64388	30.0
265.12692	30.0
273.04907	40.0
279.08286	60.0
281.1214	250.0
291.09985	130.0
307.0975	40.0
308.10483	90.0
309.11395	1000.0
320.16089	20.0

NAME:  NCGC00380406-01!3-[(2,3,4a,8,12b-pentahydroxy-3-methyl-1,7,12-trioxo-2,4-dihydrobenzo[a]anthracen-5-yl)sulfanyl]-2-acetamidopropanoic acid
PRECURSORMZ:  532.09190528683
PRECURSORTYPE:  [M-H]-
FORMULA:  C24H23NO11S
Ontology: Kingdom: Organic compounds;Superclass: Phenylpropanoids and polyketides;Class: Angucyclines;
INCHIKEY:  WLQREUAHQSBKHB-UHFFFAOYNA-N
SMILES:  CC(O)=NC(CSC1=CC2=C(C(=O)C3=C(C(O)=CC=C3)C2=O)C2(O)C(=O)C(O)C(C)(O)CC12O)C(O)=O
RETENTIONTIME:  
CCS:  -1
IONMODE:  Negative
INSTRUMENTTYPE:  
INSTRUMENT:  Maxis II HD Q-TOF Bruker
COLLISIONENERGY:  
Comment:  DB#=CCMSLIB00000846369; origin=GNPS
Num Peaks:  39
155.03188	40.0
162.02182	90.0
193.30388	10.0
211.04144	50.0
225.05511	30.0
227.02672	30.0
239.02995	50.0
241.00897	30.0
242.00992	10.0
253.0488	40.0
255.02922	20.0
259.00052	40.0
268.03806	40.0
269.04849	70.0
273.05774	20.0
279.0668	20.0
281.03839	30.0
283.01202	10.0
285.02512	320.0
288.01511	50.0
289.02295	50.0
297.04205	360.0
307.06378	70.0
308.03226	190.0
309.03491	90.0
310.01913	30.0
311.04178	40.0
325.06851	280.0
327.03049	70.0
329.0549	50.0
334.04825	10.0
341.04733	170.0
351.04526	40.0
369.064	270.0
385.0405	90.0
403.04938	1000.0
491.05704	40.0
531.06366	20.0
532.10724	30.0

NAME:  NCGC00380491-01!7-[(2S,3R,4S,5S,6R)-6-[[(2R,3R,4R)-3,4-dihydroxy-4-(hydroxymethyl)oxolan-2-yl]oxymethyl]-3,4,5-trihydroxyoxan-2-yl]oxy-6-methoxy-3-(4-methoxyphenyl)chromen-4-one
PRECURSORMZ:  637.17740825783
PRECURSORTYPE:  [M+FA-H]-
FORMULA:  C28H32O14
Ontology: Kingdom: Organic compounds;Superclass: Phenylpropanoids and polyketides;Class: Isoflavonoids;Subclass: Isoflavonoid O
INCHIKEY:  MZJUGRMCXKZMOG-UHFFFAOYNA-N
SMILES:  COC1=CC=C(C=C1)C1=COC2=CC(OC3OC(COC4OCC(O)(CO)C4O)C(O)C(O)C3O)=C(OC)C=C2C1=O
RETENTIONTIME:  
CCS:  -1
IONMODE:  Negative
INSTRUMENTTYPE:  
INSTRUMENT:  Maxis II HD Q-TOF Bruker
COLLISIONENERGY:  
Comment:  DB#=CCMSLIB00000846371; origin=GNPS
Num Peaks:  8
163.00378	20.0
195.04703	10.0
254.05576	20.0
254.07811	20.0
267.02139	20.0
281.04791	10.0
282.05438	260.0
297.07736	1000.0

NAME:  NCGC00380494-01!3-[(2S,3R,4S,5S,6R)-4,5-dihydroxy-3-[(2S,3R,4R,5R,6S)-3,4,5-trihydroxy-6-methyloxan-2-yl]oxy-6-[[(2S,3R,4R,5R,6S)-3,4,5-trihydroxy-6-methyloxan-2-yl]oxymethyl]oxan-2-yl]oxy-5-hydroxy-2-(4-hydroxyphenyl)-6-methoxy-7-[(2S,3R,4R,5R,6S)-3,4,5-trihydroxy-6-methyloxan-2-yl]oxychromen-4-one
PRECURSORMZ:  915.27757610183
PRECURSORTYPE:  [M-H]-
FORMULA:  C40H52O24
Ontology: Kingdom: Organic compounds;Superclass: Phenylpropanoids and polyketides;Class: Flavonoids;Subclass: Flavonoid glycosides
INCHIKEY:  TXZUPPVCNIMVHW-UHFFFAOYNA-N
SMILES:  COC1=C(OC2OC(C)C(O)C(O)C2O)C=C2OC(C3=CC=C(O)C=C3)=C(OC3OC(COC4OC(C)C(O)C(O)C4O)C(O)C(O)C3OC3OC(C)C(O)C(O)C3O)C(=O)C2=C1O
RETENTIONTIME:  
CCS:  307.3917317
IONMODE:  Negative
INSTRUMENTTYPE:  
INSTRUMENT:  Maxis II HD Q-TOF Bruker
COLLISIONENERGY:  
Comment:  DB#=CCMSLIB00000846373; origin=GNPS
Num Peaks:  46
110.00405	30.0
143.04689	10.0
150.99825	10.0
151.94133	10.0
165.98689	30.0
166.99881	10.0
176.44588	10.0
181.00752	10.0
209.0062	10.0
214.03142	10.0
215.03661	20.0
227.04276	10.0
243.02762	70.0
244.0379	30.0
253.03828	10.0
267.02283	10.0
270.02075	250.0
271.02588	210.0
272.03125	30.0
282.5202	10.0
285.03729	50.0
287.06598	10.0
291.11218	10.0
298.01038	270.0
299.0188	640.0
300.02829	150.0
301.02985	20.0
304.02316	20.0
311.05295	10.0
313.03589	920.0
314.04303	680.0
315.05209	210.0
317.06235	20.0
357.06082	30.0
394.64716	20.0
459.11612	10.0
460.09799	120.0
461.11035	40.0
462.11902	20.0
605.15326	20.0
623.14874	10.0
769.22021	1000.0
770.22461	260.0
915.28162	170.0
916.27966	30.0
1388.54834	10.0

NAME:  NCGC00385688-01!3-[(2S,3R,4S,5S,6R)-3-[(2S,3R,4R)-3,4-dihydroxy-4-(hydroxymethyl)oxolan-2-yl]oxy-4,5-dihydroxy-6-(hydroxymethyl)oxan-2-yl]oxy-5-hydroxy-2-(4-hydroxyphenyl)-7-[(2S,3R,4R,5R,6S)-3,4,5-trihydroxy-6-methyloxan-2-yl]oxychromen-4-one
PRECURSORMZ:  725.19345255183
PRECURSORTYPE:  [M-H]-
FORMULA:  C32H38O19
Ontology: Kingdom: Organic compounds;Superclass: Phenylpropanoids and polyketides;Class: Flavonoids;Subclass: Flavonoid glycosides
INCHIKEY:  ULOAWPSYNSJWGI-UHFFFAOYNA-N
SMILES:  CC1OC(OC2=CC(O)=C3C(=O)C(OC4OC(CO)C(O)C(O)C4OC4OCC(O)(CO)C4O)=C(OC3=C2)C2=CC=C(O)C=C2)C(O)C(O)C1O
RETENTIONTIME:  
CCS:  -1
IONMODE:  Negative
INSTRUMENTTYPE:  
INSTRUMENT:  Maxis II HD Q-TOF Bruker
COLLISIONENERGY:  
Comment:  DB#=CCMSLIB00000846375; origin=GNPS
Num Peaks:  18
104.26828	10.0
227.04265	20.0
255.03052	70.0
256.03378	20.0
267.02762	10.0
269.0441	10.0
281.93091	10.0
283.02521	370.0
284.03488	400.0
285.039	190.0
429.09167	20.0
430.09113	160.0
431.09808	20.0
447.10889	20.0
579.13373	1000.0
580.1355	60.0
710.45996	20.0
725.19318	170.0

NAME:  NCGC00385688-01!3-[(2S,3R,4S,5S,6R)-3-[(2S,3R,4R)-3,4-dihydroxy-4-(hydroxymethyl)oxolan-2-yl]oxy-4,5-dihydroxy-6-(hydroxymethyl)oxan-2-yl]oxy-5-hydroxy-2-(4-hydroxyphenyl)-7-[(2S,3R,4R,5R,6S)-3,4,5-trihydroxy-6-methyloxan-2-yl]oxychromen-4-one
PRECURSORMZ:  771.19893155183
PRECURSORTYPE:  [M+FA-H]-
FORMULA:  C32H38O19
Ontology: Kingdom: Organic compounds;Superclass: Phenylpropanoids and polyketides;Class: Flavonoids;Subclass: Flavonoid glycosides
INCHIKEY:  ULOAWPSYNSJWGI-UHFFFAOYNA-N
SMILES:  CC1OC(OC2=CC(O)=C3C(=O)C(OC4OC(CO)C(O)C(O)C4OC4OCC(O)(CO)C4O)=C(OC3=C2)C2=CC=C(O)C=C2)C(O)C(O)C1O
RETENTIONTIME:  
CCS:  -1
IONMODE:  Negative
INSTRUMENTTYPE:  
INSTRUMENT:  Maxis II HD Q-TOF Bruker
COLLISIONENERGY:  
Comment:  DB#=CCMSLIB00000846377; origin=GNPS
Num Peaks:  25
151.00314	10.0
178.99609	10.0
189.05792	10.0
208.02644	10.0
213.0592	10.0
225.73022	10.0
227.03656	80.0
255.02922	130.0
256.03165	30.0
283.02667	400.0
284.03152	620.0
285.04276	180.0
309.04144	10.0
316.8454	10.0
321.06125	10.0
403.13486	10.0
429.07867	10.0
430.09134	140.0
579.01917	10.0
579.13629	1000.0
580.14563	90.0
583.18915	10.0
725.19946	340.0
726.18134	40.0
919.24518	10.0

NAME:  NCGC00385715-01!
PRECURSORMZ:  889.48023878583
PRECURSORTYPE:  [M+FA-H]-
FORMULA:  C43H72O16
Ontology: Kingdom: Organic compounds;Superclass: Lipids and lipid;Class: Prenol lipids;Subclass: Terpene glycosides
INCHIKEY:  NUJWBDOJBSCJEG-UHFFFAOYNA-N
SMILES:  CC(C)C(O)(CCC(C)C1CCC2(C)C3CCC4C5(CC35CCC12C)C(O)CC(O)C4(C)C(=O)OC1OC(CO)C(O)C(O)C1O)COC1OC(CO)C(O)C(O)C1O
RETENTIONTIME:  
CCS:  -1
IONMODE:  Negative
INSTRUMENTTYPE:  
INSTRUMENT:  Maxis II HD Q-TOF Bruker
COLLISIONENERGY:  
Comment:  DB#=CCMSLIB00000846379; origin=GNPS
Num Peaks:  11
119.03898	10.0
161.04623	20.0
179.05406	20.0
501.36618	20.0
519.37622	20.0
637.3949	30.0
663.41083	50.0
679.40649	20.0
680.39972	10.0
681.42157	1000.0
682.4256	190.0

NAME:  NCGC00169280-03!methyl 2-(2,6-dihydroxy-4-methylbenzoyl)-3-hydroxy-5-methoxybenzoate
PRECURSORMZ:  331.08232640283
PRECURSORTYPE:  [M-H]-
FORMULA:  C17H16O7
Ontology: Kingdom: Organic compounds;Superclass: Benzenoids;Class: Benzene and substituted derivatives;Subclass: Benzophenones
INCHIKEY:  XKIBNYJGNBTYMP-UHFFFAOYSA-N
SMILES:  COC(=O)C1=C(C(=O)C2=C(O)C=C(C)C=C2O)C(O)=CC(OC)=C1
RETENTIONTIME:  
CCS:  189.9187607
IONMODE:  Negative
INSTRUMENTTYPE:  
INSTRUMENT:  Maxis II HD Q-TOF Bruker
COLLISIONENERGY:  
Comment:  DB#=CCMSLIB00000846381; origin=GNPS
Num Peaks:  10
122.03622	170.0
123.04506	310.0
139.03885	310.0
149.02502	220.0
165.01637	130.0
181.05157	1000.0
253.41626	100.0
284.03519	300.0
299.05524	500.0
331.07837	500.0

NAME:  NCGC00180657-03!(3S,6R,6aS,7S)-6,6a,7,8-tetrahydroxy-3-methyl-3,4,5,6,7,12a-hexahydro-2H-benzo[a]anthracene-1,12-dione
PRECURSORMZ:  389.12419091183
PRECURSORTYPE:  [M+FA-H]-
FORMULA:  C19H20O6
Ontology: Kingdom: Organic compounds;Superclass: Benzenoids;Class: Tetralins;
INCHIKEY:  PKPHZFVECLENRP-UHFFFAOYNA-N
SMILES:  CC1CC(=O)C2=C(C1)CC(O)C1(O)C(O)C3=C(C=CC=C3O)C(=O)C21
RETENTIONTIME:  
CCS:  -1
IONMODE:  Negative
INSTRUMENTTYPE:  
INSTRUMENT:  Maxis II HD Q-TOF Bruker
COLLISIONENERGY:  
Comment:  DB#=CCMSLIB00000846383; origin=GNPS
Num Peaks:  10
121.03128	260.0
149.02057	660.0
154.38631	120.0
175.07451	830.0
281.09103	490.0
295.09641	650.0
297.12131	680.0
307.08255	190.0
325.10733	590.0
343.11349	1000.0

NAME:  NCGC00180613-03!1,11,22-trihydroxy-1,6,11,16,22,27-hexazacyclodotriacontane-2,5,12,15,23,26-hexone
PRECURSORMZ:  585.32535063283
PRECURSORTYPE:  [M-H]-
FORMULA:  C26H46N6O9
Ontology: Kingdom: Organic compounds;Superclass: Phenylpropanoids and polyketides;Class: Macrolactams;
INCHIKEY:  SXTGVXKFOVZYIK-UHFFFAOYSA-N
SMILES:  ON1CCCCCN=C(O)CCC(=O)N(O)CCCCN=C(O)CCC(=O)N(O)CCCCCN=C(O)CCC1=O
RETENTIONTIME:  
CCS:  258.8995704
IONMODE:  Negative
INSTRUMENTTYPE:  
INSTRUMENT:  Maxis II HD Q-TOF Bruker
COLLISIONENERGY:  
Comment:  DB#=CCMSLIB00000846385; origin=GNPS
Num Peaks:  55
98.02512	260.0
110.02518	20.0
112.8764	10.0
114.48978	20.0
114.8839	20.0
117.11105	10.0
136.07401	60.0
142.05388	20.0
149.06839	70.0
151.08536	40.0
153.1039	70.0
155.1179	150.0
157.09715	30.0
163.0838	70.0
167.08289	300.0
167.16855	20.0
169.09787	20.0
170.08383	20.0
171.09793	10.0
179.07942	40.0
179.11603	20.0
181.09889	740.0
183.11479	90.0
184.12152	10.0
185.093	590.0
187.11003	20.0
193.1368	10.0
194.46799	10.0
195.11183	20.0
199.10828	730.0
201.12251	30.0
203.10577	130.0
206.01848	10.0
216.1077	40.0
217.11986	570.0
220.49229	10.0
233.90395	10.0
235.10794	10.0
265.12146	20.0
291.7551	10.0
339.2616	20.0
367.2193	30.0
383.23303	30.0
385.20636	390.0
399.2225	210.0
403.22598	50.0
416.23019	20.0
417.22736	30.0
512.27234	10.0
567.32153	10.0
584.99622	20.0
585.32422	1000.0
586.33087	20.0
599.95825	10.0
1882.77625	10.0

NAME:  NCGC00180613-03!1,11,22-trihydroxy-1,6,11,16,22,27-hexazacyclodotriacontane-2,5,12,15,23,26-hexone
PRECURSORMZ:  621.3020283449
PRECURSORTYPE:  [M+Cl]-
FORMULA:  C26H46N6O9
Ontology: Kingdom: Organic compounds;Superclass: Phenylpropanoids and polyketides;Class: Macrolactams;
INCHIKEY:  SXTGVXKFOVZYIK-UHFFFAOYSA-N
SMILES:  ON1CCCCCN=C(O)CCC(=O)N(O)CCCCN=C(O)CCC(=O)N(O)CCCCCN=C(O)CCC1=O
RETENTIONTIME:  
CCS:  -1
IONMODE:  Negative
INSTRUMENTTYPE:  
INSTRUMENT:  Maxis II HD Q-TOF Bruker
COLLISIONENERGY:  
Comment:  DB#=CCMSLIB00000846387; origin=GNPS
Num Peaks:  19
98.02036	110.0
163.08977	120.0
167.08377	370.0
181.10066	560.0
183.10814	150.0
185.09761	250.0
187.11139	50.0
199.10519	70.0
203.10138	90.0
203.12035	100.0
244.34125	30.0
275.62769	40.0
303.20517	80.0
369.21243	110.0
385.2113	290.0
399.2204	100.0
585.32214	1000.0
586.31787	130.0
1425.19019	40.0

NAME:  NCGC00380375-01!6-[(4E,6E)-2,3-dihydroxy-4,6-dimethyl-7-(1,2,4-trimethyl-3,6-dioxabicyclo[3.1.0]hexan-4-yl)hepta-4,6-dien-2-yl]-4-methoxy-3,5-dimethylpyran-2-one
PRECURSORMZ:  479.22865598283
PRECURSORTYPE:  [M+FA-H]-
FORMULA:  C24H34O7
Ontology: Kingdom: Organic compounds;Superclass: Lipids and lipid;Class: Fatty Acyls;Subclass: Fatty alcohols
INCHIKEY:  UXTZIHZDUIRZDY-UHFFFAOYNA-N
SMILES:  COC1=C(C)C(=O)OC(=C1C)C(C)(O)C(O)C(C)=CC(C)=CC1(C)OC(C)C2(C)OC12
RETENTIONTIME:  
CCS:  -1
IONMODE:  Negative
INSTRUMENTTYPE:  
INSTRUMENT:  Maxis II HD Q-TOF Bruker
COLLISIONENERGY:  
Comment:  DB#=CCMSLIB00000846389; origin=GNPS
Num Peaks:  11
139.04109	320.0
140.04758	90.0
150.03391	100.0
153.0585	180.0
153.08829	190.0
165.05499	210.0
167.03912	60.0
181.05136	240.0
182.05629	160.0
197.08655	1000.0
726.74585	20.0

NAME:  NCGC00180025-03!(2R,3S,4S,5R,6S)-2-[[(2S,3R,4R)-3,4-dihydroxy-4-(hydroxymethyl)oxolan-2-yl]oxymethyl]-6-(3,4,5-trimethoxyphenoxy)oxane-3,4,5-triol
PRECURSORMZ:  523.16684357383
PRECURSORTYPE:  [M+FA-H]-
FORMULA:  C20H30O13
Ontology: Kingdom: Organic compounds;Superclass: Organic oxygen compounds;Class: Organooxygen compounds;Subclass: Carbohydrates and carbohydrate conjugates
INCHIKEY:  CKGKQISENBKOCA-UHFFFAOYNA-N
SMILES:  COC1=CC(OC2OC(COC3OCC(O)(CO)C3O)C(O)C(O)C2O)=CC(OC)=C1OC
RETENTIONTIME:  
CCS:  -1
IONMODE:  Negative
INSTRUMENTTYPE:  
INSTRUMENT:  Maxis II HD Q-TOF Bruker
COLLISIONENERGY:  
Comment:  DB#=CCMSLIB00000846391; origin=GNPS
Num Peaks:  19
76.35541	30.0
115.0405	60.0
125.02471	220.0
143.03664	110.0
149.04706	400.0
153.02046	120.0
155.03226	40.0
166.65599	100.0
167.48875	30.0
168.04321	220.0
175.05852	60.0
175.13875	20.0
183.06349	110.0
191.05006	50.0
233.06789	360.0
293.09015	1000.0
367.98672	70.0
477.16592	120.0
498.6149	30.0

NAME:  NCGC00380374-01!2,3,4-tris[[(E)-3-(3,4-dihydroxyphenyl)prop-2-enoyl]oxy]-5-(2-methylpropanoyloxy)hexanedioic acid
PRECURSORMZ:  765.16723780283
PRECURSORTYPE:  [M-H]-
FORMULA:  C37H34O18
Ontology: Kingdom: Organic compounds;Superclass: Organic acids and derivatives;Class: Carboxylic acids and derivatives;Subclass: Hexacarboxylic acids and derivatives
INCHIKEY:  RIVNVLITMUKUQK-UHFFFAOYNA-N
SMILES:  CC(C)C(=O)OC(C(OC(=O)C=CC1=CC(O)=C(O)C=C1)C(OC(=O)C=CC1=CC(O)=C(O)C=C1)C(OC(=O)C=CC1=CC(O)=C(O)C=C1)C(O)=O)C(O)=O
RETENTIONTIME:  
CCS:  -1
IONMODE:  Negative
INSTRUMENTTYPE:  
INSTRUMENT:  Maxis II HD Q-TOF Bruker
COLLISIONENERGY:  
Comment:  DB#=CCMSLIB00000846393; origin=GNPS
Num Peaks:  22
83.01386	20.0
85.03114	30.0
87.04659	20.0
111.0103	30.0
127.07471	20.0
129.02129	60.0
135.04616	60.0
147.02919	50.0
155.06886	60.0
161.02374	60.0
173.00877	20.0
179.03201	50.0
191.02071	280.0
199.06181	10.0
217.07065	30.0
243.05109	20.0
261.06094	80.0
279.07278	1000.0
280.07999	30.0
353.05618	40.0
441.10327	290.0
603.13416	30.0

NAME:  NCGC00384599-01![3,4-dihydroxy-6-[5-hydroxy-2-(4-hydroxyphenyl)-4-oxo-7-[3,4,5-trihydroxy-6-(hydroxymethyl)oxan-2-yl]oxychromen-3-yl]oxy-5-[(2S,3R,4R,5R,6S)-3,4,5-trihydroxy-6-methyloxan-2-yl]oxyoxan-2-yl]methyl acetate
PRECURSORMZ:  797.21458191983
PRECURSORTYPE:  [M-H]-
FORMULA:  C35H42O21
Ontology: Kingdom: Organic compounds;Superclass: Phenylpropanoids and polyketides;Class: Flavonoids;Subclass: Flavonoid glycosides
INCHIKEY:  HRRAIHOSJIFLNS-UHFFFAOYNA-N
SMILES:  CC1OC(OC2C(O)C(O)C(COC(C)=O)OC2OC2=C(OC3=CC(OC4OC(CO)C(O)C(O)C4O)=CC(O)=C3C2=O)C2=CC=C(O)C=C2)C(O)C(O)C1O
RETENTIONTIME:  
CCS:  -1
IONMODE:  Negative
INSTRUMENTTYPE:  
INSTRUMENT:  Maxis II HD Q-TOF Bruker
COLLISIONENERGY:  
Comment:  DB#=CCMSLIB00000846395; origin=GNPS
Num Peaks:  29
118.52713	10.0
179.0222	20.0
283.02258	320.0
284.03342	300.0
285.04248	50.0
325.34818	30.0
326.04794	120.0
388.18481	10.0
400.58932	30.0
416.78207	30.0
446.08353	290.0
575.11603	60.0
575.16223	20.0
630.3064	10.0
635.15619	1000.0
636.1665	100.0
659.02612	10.0
677.16626	20.0
677.23218	20.0
678.17615	20.0
695.14862	20.0
737.21204	10.0
795.52911	20.0
795.9931	10.0
797.20953	610.0
797.58057	50.0
798.2168	90.0
862.3161	10.0
1263.50452	20.0

NAME:  NCGC00384599-01![3,4-dihydroxy-6-[5-hydroxy-2-(4-hydroxyphenyl)-4-oxo-7-[3,4,5-trihydroxy-6-(hydroxymethyl)oxan-2-yl]oxychromen-3-yl]oxy-5-[(2S,3R,4R,5R,6S)-3,4,5-trihydroxy-6-methyloxan-2-yl]oxyoxan-2-yl]methyl acetate
PRECURSORMZ:  843.22006091983
PRECURSORTYPE:  [M+FA-H]-
FORMULA:  C35H42O21
Ontology: Kingdom: Organic compounds;Superclass: Phenylpropanoids and polyketides;Class: Flavonoids;Subclass: Flavonoid glycosides
INCHIKEY:  HRRAIHOSJIFLNS-UHFFFAOYNA-N
SMILES:  CC1OC(OC2C(O)C(O)C(COC(C)=O)OC2OC2=C(OC3=CC(OC4OC(CO)C(O)C(O)C4O)=CC(O)=C3C2=O)C2=CC=C(O)C=C2)C(O)C(O)C1O
RETENTIONTIME:  
CCS:  -1
IONMODE:  Negative
INSTRUMENTTYPE:  
INSTRUMENT:  Maxis II HD Q-TOF Bruker
COLLISIONENERGY:  
Comment:  DB#=CCMSLIB00000846398; origin=GNPS
Num Peaks:  35
104.93045	10.0
127.43025	10.0
178.99951	30.0
211.0386	20.0
212.04778	30.0
227.03439	40.0
229.04823	20.0
255.02911	140.0
256.04379	30.0
283.02518	910.0
284.03305	480.0
285.03763	160.0
285.96915	10.0
296.0242	20.0
300.78006	20.0
312.01758	10.0
325.00864	30.0
326.0412	30.0
327.10886	20.0
379.17706	20.0
440.13181	10.0
445.08359	10.0
445.55106	10.0
446.08365	490.0
448.10144	10.0
531.10095	20.0
635.16003	1000.0
636.16528	130.0
639.30383	20.0
651.15973	10.0
677.16144	30.0
797.21399	400.0
798.21985	30.0
798.27765	20.0
799.22595	20.0

NAME:  NCGC00161931-02!4-hydroxy-9-(4-hydroxy-3,5-dimethoxyphenyl)-5a,6,8a,9-tetrahydro-5H-[2]benzofuro[5,6-f][1,3]benzodioxol-8-one
PRECURSORMZ:  445.11402015183
PRECURSORTYPE:  [M+FA-H]-
FORMULA:  C21H20O8
Ontology: ;;;
INCHIKEY:  JGGWNGRBXJWAOC-UHFFFAOYNA-N
SMILES:  COC1=CC(=CC(OC)=C1O)C1C2C(COC2=O)CC2=C(O)C3=C(OCO3)C=C12
RETENTIONTIME:  
CCS:  -1
IONMODE:  Negative
INSTRUMENTTYPE:  
INSTRUMENT:  Maxis II HD Q-TOF Bruker
COLLISIONENERGY:  
Comment:  DB#=CCMSLIB00000846400; origin=GNPS
Num Peaks:  13
79.93542	30.0
190.0672	50.0
257.03845	30.0
272.06049	50.0
309.06906	60.0
323.06018	40.0
341.06915	20.0
370.10339	30.0
371.11444	20.0
384.10815	40.0
396.7457	50.0
398.00519	60.0
399.10959	1000.0

NAME:  NCGC00384616-01!5-hydroxy-6,7-dimethoxy-2-[4-[(2S,3R,4S,5S,6R)-3,4,5-trihydroxy-6-(hydroxymethyl)oxan-2-yl]oxyphenyl]chromen-4-one
PRECURSORMZ:  521.13006414083
PRECURSORTYPE:  [M+FA-H]-
FORMULA:  C23H24O11
Ontology: Kingdom: Organic compounds;Superclass: Phenylpropanoids and polyketides;Class: Flavonoids;Subclass: Flavonoid glycosides
INCHIKEY:  RETJLKUBHXTIGH-UHFFFAOYNA-N
SMILES:  COC1=C(OC)C(O)=C2C(=O)C=C(OC2=C1)C1=CC=C(OC2OC(CO)C(O)C(O)C2O)C=C1
RETENTIONTIME:  
CCS:  -1
IONMODE:  Negative
INSTRUMENTTYPE:  
INSTRUMENT:  Maxis II HD Q-TOF Bruker
COLLISIONENERGY:  
Comment:  DB#=CCMSLIB00000846402; origin=GNPS
Num Peaks:  12
255.02754	20.0
269.04483	50.0
283.02402	150.0
298.05219	60.0
311.05545	40.0
312.05878	10.0
312.78088	20.0
313.07269	1000.0
355.08353	40.0
460.10291	40.0
475.14099	100.0
892.95618	30.0

NAME:  NCGC00380158-01!2-[2-[2-[[2-[2-(2-hydroxypropanoylamino)-3-methylbutanoyl]oxy-3-methylbutanoyl]amino]-3-methylbutanoyl]oxypropanoylamino]-3-methylbutanoic acid
PRECURSORMZ:  558.30321820883
PRECURSORTYPE:  [M-H]-
FORMULA:  C26H45N3O10
Ontology: Kingdom: Organic compounds;Superclass: Organic acids and derivatives;Class: Peptidomimetics;Subclass: Depsipeptides
INCHIKEY:  YBUWNKPGCLTWJO-UHFFFAOYNA-N
SMILES:  CC(C)C(OC(=O)C(N=C(O)C(C)O)C(C)C)C(O)=NC(C(C)C)C(=O)OC(C)C(O)=NC(C(C)C)C(O)=O
RETENTIONTIME:  
CCS:  -1
IONMODE:  Negative
INSTRUMENTTYPE:  
INSTRUMENT:  Maxis II HD Q-TOF Bruker
COLLISIONENERGY:  
Comment:  DB#=CCMSLIB00000846404; origin=GNPS
Num Peaks:  25
71.04984	20.0
77.67738	10.0
89.49755	10.0
95.88173	20.0
116.07288	100.0
117.05336	10.0
144.10141	50.0
155.05928	20.0
155.10902	20.0
172.13547	60.0
188.09213	1000.0
188.92418	10.0
190.99727	20.0
216.12448	1000.0
217.12936	20.0
269.19147	20.0
287.16553	10.0
315.20242	20.0
315.28238	10.0
387.21213	490.0
387.93729	10.0
458.26831	10.0
558.30243	790.0
897.98181	20.0
1424.18347	20.0

NAME:  NCGC00380158-01!2-[2-[2-[[2-[2-(2-hydroxypropanoylamino)-3-methylbutanoyl]oxy-3-methylbutanoyl]amino]-3-methylbutanoyl]oxypropanoylamino]-3-methylbutanoic acid
PRECURSORMZ:  594.2798959209
PRECURSORTYPE:  [M+Cl]-
FORMULA:  C26H45N3O10
Ontology: Kingdom: Organic compounds;Superclass: Organic acids and derivatives;Class: Peptidomimetics;Subclass: Depsipeptides
INCHIKEY:  YBUWNKPGCLTWJO-UHFFFAOYNA-N
SMILES:  CC(C)C(OC(=O)C(N=C(O)C(C)O)C(C)C)C(O)=NC(C(C)C)C(=O)OC(C)C(O)=NC(C(C)C)C(O)=O
RETENTIONTIME:  
CCS:  -1
IONMODE:  Negative
INSTRUMENTTYPE:  
INSTRUMENT:  Maxis II HD Q-TOF Bruker
COLLISIONENERGY:  
Comment:  DB#=CCMSLIB00000846406; origin=GNPS
Num Peaks:  9
89.02782	110.0
154.12061	20.0
172.14087	80.0
188.09198	1000.0
216.12918	230.0
369.20636	90.0
387.21396	250.0
558.3075	870.0
560.27899	50.0

NAME:  NCGC00168920-03![4-[4,5-dihydroxy-6-methyl-3-(3,4,5-trihydroxyoxan-2-yl)oxyoxan-2-yl]oxy-6-[2-(3,4-dihydroxyphenyl)ethoxy]-5-hydroxy-2-(hydroxymethyl)oxan-3-yl] (E)-3-(3,4-dihydroxyphenyl)prop-2-enoate
PRECURSORMZ:  755.24040274483
PRECURSORTYPE:  [M-H]-
FORMULA:  C34H44O19
Ontology: Kingdom: Organic compounds;Superclass: Organic oxygen compounds;Class: Organooxygen compounds;Subclass: Carbohydrates and carbohydrate conjugates
INCHIKEY:  UDHCHDJLZGYDDM-UHFFFAOYNA-N
SMILES:  CC1OC(OC2C(O)C(OCCC3=CC(O)=C(O)C=C3)OC(CO)C2OC(=O)C=CC2=CC(O)=C(O)C=C2)C(OC2OCC(O)C(O)C2O)C(O)C1O
RETENTIONTIME:  
CCS:  268.9753212
IONMODE:  Negative
INSTRUMENTTYPE:  
INSTRUMENT:  Maxis II HD Q-TOF Bruker
COLLISIONENERGY:  
Comment:  DB#=CCMSLIB00000846408; origin=GNPS
Num Peaks:  15
89.02609	10.0
113.02422	30.0
123.04505	10.0
125.02583	30.0
133.02864	70.0
135.04536	60.0
149.04494	20.0
153.05392	20.0
161.02437	1000.0
179.0377	20.0
315.11188	10.0
447.15057	20.0
593.2077	260.0
755.24152	610.0
756.2417	90.0

NAME:  NCGC00180655-02!5,7-dihydroxy-3-[(2S,3R,4S,5R,6R)-3,4,5-trihydroxy-6-(hydroxymethyl)oxan-2-yl]oxy-2-(3,4,5-trihydroxyphenyl)chromen-4-one
PRECURSORMZ:  479.08311425183
PRECURSORTYPE:  [M-H]-
FORMULA:  C21H20O13
Ontology: Kingdom: Organic compounds;Superclass: Phenylpropanoids and polyketides;Class: Flavonoids;Subclass: Flavonoid glycosides
INCHIKEY:  FOHXFLPXBUAOJM-UHFFFAOYNA-N
SMILES:  OCC1OC(OC2=C(OC3=CC(O)=CC(O)=C3C2=O)C2=CC(O)=C(O)C(O)=C2)C(O)C(O)C1O
RETENTIONTIME:  
CCS:  213.7724379
IONMODE:  Negative
INSTRUMENTTYPE:  
INSTRUMENT:  Maxis II HD Q-TOF Bruker
COLLISIONENERGY:  
Comment:  DB#=CCMSLIB00000846410; origin=GNPS
Num Peaks:  18
177.01683	20.0
178.99658	90.0
179.58484	20.0
204.0414	20.0
219.02983	10.0
252.18454	20.0
259.02319	50.0
270.01697	70.0
271.02628	90.0
287.02283	70.0
316.02429	1000.0
316.15756	50.0
317.0314	250.0
478.28116	20.0
478.67453	20.0
479.0849	590.0
480.08563	20.0
852.70551	10.0

NAME:  NCGC00168820-02!5-hydroxy-2-(4-hydroxyphenyl)-3,7-bis[[(2S,3R,4R,5R,6S)-3,4,5-trihydroxy-6-methyloxan-2-yl]oxy]chromen-4-one
PRECURSORMZ:  577.15627919383
PRECURSORTYPE:  [M-H]-
FORMULA:  C27H30O14
Ontology: Kingdom: Organic compounds;Superclass: Phenylpropanoids and polyketides;Class: Flavonoids;Subclass: Flavonoid glycosides
INCHIKEY:  PUPKKEQDLNREIM-UHFFFAOYNA-N
SMILES:  CC1OC(OC2=CC(O)=C3C(=O)C(OC4OC(C)C(O)C(O)C4O)=C(OC3=C2)C2=CC=C(O)C=C2)C(O)C(O)C1O
RETENTIONTIME:  
CCS:  223.3329166
IONMODE:  Negative
INSTRUMENTTYPE:  
INSTRUMENT:  Maxis II HD Q-TOF Bruker
COLLISIONENERGY:  
Comment:  DB#=CCMSLIB00000846412; origin=GNPS
Num Peaks:  7
212.50305	100.0
283.02487	240.0
285.03958	1000.0
430.07599	210.0
431.09863	540.0
559.21503	130.0
577.20361	170.0

NAME:  NCGC00168820-02!5-hydroxy-2-(4-hydroxyphenyl)-3,7-bis[[(2S,3R,4R,5R,6S)-3,4,5-trihydroxy-6-methyloxan-2-yl]oxy]chromen-4-one
PRECURSORMZ:  623.16175819383
PRECURSORTYPE:  [M+FA-H]-
FORMULA:  C27H30O14
Ontology: Kingdom: Organic compounds;Superclass: Phenylpropanoids and polyketides;Class: Flavonoids;Subclass: Flavonoid glycosides
INCHIKEY:  PUPKKEQDLNREIM-UHFFFAOYNA-N
SMILES:  CC1OC(OC2=CC(O)=C3C(=O)C(OC4OC(C)C(O)C(O)C4O)=C(OC3=C2)C2=CC=C(O)C=C2)C(O)C(O)C1O
RETENTIONTIME:  
CCS:  -1
IONMODE:  Negative
INSTRUMENTTYPE:  
INSTRUMENT:  Maxis II HD Q-TOF Bruker
COLLISIONENERGY:  
Comment:  DB#=CCMSLIB00000846414; origin=GNPS
Num Peaks:  32
121.03269	20.0
139.65501	10.0
150.99913	20.0
171.04298	10.0
177.13405	20.0
213.46941	20.0
217.04694	20.0
255.03781	30.0
257.04144	20.0
271.0715	20.0
277.77847	20.0
281.96362	10.0
283.0238	300.0
283.60342	20.0
284.03915	50.0
285.04047	510.0
292.35791	10.0
299.07855	10.0
323.75464	10.0
430.09152	280.0
430.77429	20.0
431.1004	670.0
432.10565	10.0
451.63889	10.0
532.77985	20.0
572.76813	10.0
575.9881	10.0
577.15735	1000.0
578.14978	10.0
578.30768	40.0
581.5368	10.0
1114.12537	10.0

NAME:  NCGC00163634-02![(2R,3S,4S,5R,6S)-6-[5,7-dihydroxy-2-(4-hydroxyphenyl)-4-oxochromen-3-yl]oxy-3,4,5-trihydroxyoxan-2-yl]methyl (E)-3-(4-hydroxyphenyl)prop-2-enoate
PRECURSORMZ:  593.13006444483
PRECURSORTYPE:  [M-H]-
FORMULA:  C30H26O13
Ontology: Kingdom: Organic compounds;Superclass: Phenylpropanoids and polyketides;Class: Flavonoids;Subclass: Flavonoid glycosides
INCHIKEY:  DVGGLGXQSFURLP-UHFFFAOYNA-N
SMILES:  OC1C(COC(=O)C=CC2=CC=C(O)C=C2)OC(OC2=C(OC3=CC(O)=CC(O)=C3C2=O)C2=CC=C(O)C=C2)C(O)C1O
RETENTIONTIME:  
CCS:  226.2850981
IONMODE:  Negative
INSTRUMENTTYPE:  
INSTRUMENT:  Maxis II HD Q-TOF Bruker
COLLISIONENERGY:  
Comment:  DB#=CCMSLIB00000846415; origin=GNPS
Num Peaks:  24
75.48476	20.0
115.27554	10.0
145.02951	50.0
150.99803	20.0
153.01877	10.0
158.03305	10.0
184.8391	20.0
185.06224	20.0
195.05594	10.0
197.07349	20.0
227.03267	50.0
235.01692	20.0
240.17586	10.0
255.03403	90.0
256.03299	30.0
256.05521	30.0
257.04248	10.0
282.82587	20.0
284.03357	800.0
285.04037	670.0
307.09518	50.0
315.28983	10.0
447.10135	30.0
593.13068	1000.0

NAME:  NCGC00380827-01!1-[(Z)-but-2-en-2-yl]-3,9-dihydroxy-4,7-dimethyl-6-oxobenzo[b][1,4]benzodioxepine-2-carboxylic acid
PRECURSORMZ:  369.09797646783
PRECURSORTYPE:  [M-H]-
FORMULA:  C20H18O7
Ontology: Kingdom: Organic compounds;Superclass: Phenylpropanoids and polyketides;Class: Depsides and depsidones;
INCHIKEY:  DFNFONZYWQXTIJ-UHFFFAOYSA-N
SMILES:  CC=C(C)C1=C(C(O)=O)C(O)=C(C)C2=C1OC1=C(C(C)=CC(O)=C1)C(=O)O2
RETENTIONTIME:  
CCS:  201.3612992
IONMODE:  Negative
INSTRUMENTTYPE:  
INSTRUMENT:  Maxis II HD Q-TOF Bruker
COLLISIONENERGY:  
Comment:  DB#=CCMSLIB00000846418; origin=GNPS
Num Peaks:  16
84.20348	80.0
145.07133	260.0
149.02544	180.0
175.07906	110.0
227.12265	250.0
237.40356	110.0
247.51892	70.0
263.10873	140.0
265.75876	140.0
266.08945	380.0
269.08469	220.0
279.10953	150.0
280.07132	210.0
281.11972	1000.0
325.10318	740.0
369.09451	560.0

NAME:  NCGC00380829-01!1-[(Z)-but-2-en-2-yl]-2,8-dichloro-3,9-dihydroxy-4,7-dimethylbenzo[b][1,4]benzodioxepin-6-one
PRECURSORMZ:  393.03020254783
PRECURSORTYPE:  [M-H]-
FORMULA:  C19H16Cl2O5
Ontology: Kingdom: Organic compounds;Superclass: Phenylpropanoids and polyketides;Class: Depsides and depsidones;
INCHIKEY:  FCMYLROGVKJIDN-UHFFFAOYSA-N
SMILES:  CC=C(C)C1=C(Cl)C(O)=C(C)C2=C1OC1=CC(O)=C(Cl)C(C)=C1C(=O)O2
RETENTIONTIME:  
CCS:  193.3160797
IONMODE:  Negative
INSTRUMENTTYPE:  
INSTRUMENT:  Maxis II HD Q-TOF Bruker
COLLISIONENERGY:  
Comment:  DB#=CCMSLIB00000846419; origin=GNPS
Num Peaks:  14
163.91924	170.0
222.06572	300.0
277.11053	230.0
298.04529	690.0
301.03345	380.0
301.06384	1000.0
313.0625	110.0
329.06146	570.0
357.05121	390.0
391.68213	120.0
391.793	620.0
393.03247	630.0
415.37845	140.0
1395.38623	90.0

NAME:  NCGC00380826-01![1-(3,4-dihydroxy-5-methoxyphenyl)-7-(3,4-dihydroxyphenyl)heptan-3-yl] acetate
PRECURSORMZ:  403.17622678983
PRECURSORTYPE:  [M-H]-
FORMULA:  C22H28O7
Ontology: Kingdom: Organic compounds;Superclass: Phenylpropanoids and polyketides;Class: Diarylheptanoids;Subclass: Linear diarylheptanoids
INCHIKEY:  ISMTYWQWKQRTNM-UHFFFAOYNA-N
SMILES:  COC1=CC(CCC(CCCCC2=CC(O)=C(O)C=C2)OC(C)=O)=CC(O)=C1O
RETENTIONTIME:  
CCS:  -1
IONMODE:  Negative
INSTRUMENTTYPE:  
INSTRUMENT:  Maxis II HD Q-TOF Bruker
COLLISIONENERGY:  
Comment:  DB#=CCMSLIB00000846421; origin=GNPS
Num Peaks:  18
109.029	50.0
177.06593	40.0
190.09973	50.0
191.10719	70.0
192.08551	40.0
205.09686	70.0
227.8353	40.0
297.14584	30.0
311.13171	140.0
325.1445	30.0
327.01144	10.0
328.13525	80.0
328.45569	30.0
343.15909	250.0
371.15036	40.0
388.13757	30.0
402.15652	20.0
403.17657	1000.0

NAME:  NCGC00380824-01!1-[(Z)-but-2-en-2-yl]-2,8,10-trichloro-3,9-dihydroxy-4,7-dimethylbenzo[b][1,4]benzodioxepin-6-one
PRECURSORMZ:  426.99123024783
PRECURSORTYPE:  [M-H]-
FORMULA:  C19H15Cl3O5
Ontology: Kingdom: Organic compounds;Superclass: Phenylpropanoids and polyketides;Class: Depsides and depsidones;
INCHIKEY:  XEQDVQKKHOQZEP-UHFFFAOYSA-N
SMILES:  CC=C(C)C1=C(Cl)C(O)=C(C)C2=C1OC1=C(Cl)C(O)=C(Cl)C(C)=C1C(=O)O2
RETENTIONTIME:  
CCS:  193.5557575
IONMODE:  Negative
INSTRUMENTTYPE:  
INSTRUMENT:  Maxis II HD Q-TOF Bruker
COLLISIONENERGY:  
Comment:  DB#=CCMSLIB00000846424; origin=GNPS
Num Peaks:  10
203.94955	80.0
311.05133	110.0
331.99609	160.0
334.9924	110.0
347.02527	1000.0
347.06253	120.0
355.03561	130.0
376.01129	170.0
391.01871	240.0
426.98917	970.0

NAME:  NCGC00180037-02!2-hydroxy-4-methoxy-3-(3-methylbut-2-enyl)-6-pentylbenzoic acid
PRECURSORMZ:  305.17583286483
PRECURSORTYPE:  [M-H]-
FORMULA:  C18H26O4
Ontology: Kingdom: Organic compounds;Superclass: Benzenoids;Class: Benzene and substituted derivatives;Subclass: Benzoic acids and derivatives
INCHIKEY:  UJSSSFNGQWZNEN-UHFFFAOYSA-N
SMILES:  CCCCCC1=CC(OC)=C(CC=C(C)C)C(O)=C1C(O)=O
RETENTIONTIME:  
CCS:  194.0166911
IONMODE:  Negative
INSTRUMENTTYPE:  
INSTRUMENT:  Maxis II HD Q-TOF Bruker
COLLISIONENERGY:  
Comment:  DB#=CCMSLIB00000846426; origin=GNPS
Num Peaks:  6
171.57533	40.0
191.10875	880.0
192.12003	190.0
261.19019	810.0
305.18082	1000.0
317.84955	120.0

NAME:  NCGC00180625-03!3-[5,7-dihydroxy-2-(4-hydroxyphenyl)-4-oxo-2,3-dihydrochromen-3-yl]-5,7-dihydroxy-2-(4-hydroxyphenyl)-2,3-dihydrochromen-4-one
PRECURSORMZ:  541.11402045583
PRECURSORTYPE:  [M-H]-
FORMULA:  C30H22O10
Ontology: Kingdom: Organic compounds;Superclass: Phenylpropanoids and polyketides;Class: Flavonoids;Subclass: Biflavonoids and polyflavonoids
INCHIKEY:  RNQBLQALVMHBKH-UHFFFAOYNA-N
SMILES:  OC1=CC=C(C=C1)C1OC2=CC(O)=CC(O)=C2C(=O)C1C1C(OC2=CC(O)=CC(O)=C2C1=O)C1=CC=C(O)C=C1
RETENTIONTIME:  
CCS:  220.0438932
IONMODE:  Negative
INSTRUMENTTYPE:  
INSTRUMENT:  Maxis II HD Q-TOF Bruker
COLLISIONENERGY:  
Comment:  DB#=CCMSLIB00000846427; origin=GNPS
Num Peaks:  39
125.02644	470.0
151.0071	1000.0
201.95242	110.0
229.04771	140.0
246.04369	130.0
269.06717	150.0
271.06497	410.0
281.71643	100.0
282.47583	80.0
283.06387	250.0
297.03561	120.0
303.1019	340.0
305.1019	110.0
307.36902	60.0
308.04547	280.0
308.42242	100.0
308.98749	80.0
309.03912	630.0
309.30405	40.0
311.06509	380.0
328.02255	120.0
329.07834	110.0
331.06287	110.0
333.05524	200.0
341.04324	190.0
345.1344	110.0
363.06619	180.0
371.09671	300.0
375.73843	90.0
390.08292	130.0
411.76041	130.0
415.08392	770.0
431.11606	100.0
448.06873	140.0
455.12381	90.0
541.12238	630.0
542.12177	330.0
543.26154	50.0
1442.8429	200.0

NAME:  NCGC00180625-03!3-[5,7-dihydroxy-2-(4-hydroxyphenyl)-4-oxo-2,3-dihydrochromen-3-yl]-5,7-dihydroxy-2-(4-hydroxyphenyl)-2,3-dihydrochromen-4-one
PRECURSORMZ:  587.11949945583
PRECURSORTYPE:  [M+FA-H]-
FORMULA:  C30H22O10
Ontology: Kingdom: Organic compounds;Superclass: Phenylpropanoids and polyketides;Class: Flavonoids;Subclass: Biflavonoids and polyflavonoids
INCHIKEY:  RNQBLQALVMHBKH-UHFFFAOYNA-N
SMILES:  OC1=CC=C(C=C1)C1OC2=CC(O)=CC(O)=C2C(=O)C1C1C(OC2=CC(O)=CC(O)=C2C1=O)C1=CC=C(O)C=C1
RETENTIONTIME:  
CCS:  -1
IONMODE:  Negative
INSTRUMENTTYPE:  
INSTRUMENT:  Maxis II HD Q-TOF Bruker
COLLISIONENERGY:  
Comment:  DB#=CCMSLIB00000846430; origin=GNPS
Num Peaks:  76
125.02671	450.0
127.71075	20.0
151.00346	390.0
151.03625	20.0
151.15645	10.0
152.97844	10.0
155.41467	10.0
158.33832	10.0
163.00519	30.0
169.01453	70.0
173.0639	20.0
183.04808	20.0
192.05826	20.0
196.54523	20.0
201.06337	80.0
202.7231	40.0
229.05881	90.0
237.96683	20.0
238.02594	30.0
239.07016	40.0
249.05579	10.0
261.09598	20.0
269.0455	20.0
270.05112	20.0
276.6817	40.0
277.07123	30.0
283.05722	60.0
293.04715	20.0
297.05396	20.0
301.09409	20.0
304.52002	20.0
305.07947	80.0
308.02118	30.0
308.57333	20.0
309.03925	220.0
311.05676	110.0
321.04178	50.0
321.11639	30.0
322.0654	30.0
327.10239	20.0
328.02405	10.0
329.08887	20.0
331.07367	10.0
336.07132	20.0
337.07184	30.0
340.01575	70.0
341.03113	60.0
343.05463	20.0
345.11581	90.0
347.08743	50.0
353.03818	10.0
371.09149	260.0
377.10114	20.0
385.08762	40.0
389.10446	80.0
390.08075	10.0
391.0831	60.0
413.1058	10.0
414.57822	10.0
415.08356	630.0
419.08838	10.0
421.10138	30.0
431.1239	70.0
434.06668	20.0
435.0755	110.0
437.10004	20.0
447.08081	80.0
455.11603	50.0
473.12228	40.0
479.12503	10.0
497.12415	170.0
523.14539	20.0
523.25519	10.0
541.11682	1000.0
542.12573	30.0
544.90265	10.0

NAME:  NCGC00179845-03!5-chloro-3-[(E)-3,4-dihydroxy-3,5-dimethylhept-1-enyl]-7,8-dihydroxy-7-methyl-8,8a-dihydro-1H-isochromen-6-one
PRECURSORMZ:  431.14781884783
PRECURSORTYPE:  [M+FA-H]-
FORMULA:  C19H27ClO6
Ontology: Kingdom: Organic compounds;Superclass: Organoheterocyclic compounds;Class: Azaphilones;
INCHIKEY:  CPMFRQHRPWPNMP-UHFFFAOYNA-N
SMILES:  CCC(C)C(O)C(C)(O)C=CC1=CC2=C(Cl)C(=O)C(C)(O)C(O)C2CO1
RETENTIONTIME:  
CCS:  -1
IONMODE:  Negative
INSTRUMENTTYPE:  
INSTRUMENT:  Maxis II HD Q-TOF Bruker
COLLISIONENERGY:  
Comment:  DB#=CCMSLIB00000846436; origin=GNPS
Num Peaks:  15
125.05798	130.0
127.03631	120.0
177.09738	180.0
203.07262	200.0
203.17824	70.0
206.0571	150.0
207.05991	200.0
217.08818	310.0
221.07773	190.0
226.01184	100.0
245.07953	110.0
263.04327	220.0
263.09705	340.0
299.0697	1000.0
385.14386	90.0

NAME:  NCGC00180395-03!(2E,6E,12E)-18-(2,6-dioxopiperidin-4-yl)-9,11-dihydroxy-8-methoxy-10,12,14-trimethyl-15-oxooctadeca-2,6,12-trienoic acid
PRECURSORMZ:  506.27594083183
PRECURSORTYPE:  [M-H]-
FORMULA:  C27H41NO8
Ontology: Kingdom: Organic compounds;Superclass: Lipids and lipid;Class: Fatty Acyls;Subclass: Lineolic acids and derivatives
INCHIKEY:  YQDJUXPUIRGKNV-UHFFFAOYNA-N
SMILES:  COC(C=CCCC=CC(O)=O)C(O)C(C)C(O)C(C)=CC(C)C(=O)CCCC1CC(O)=NC(=O)C1
RETENTIONTIME:  
CCS:  265.3787885
IONMODE:  Negative
INSTRUMENTTYPE:  
INSTRUMENT:  Maxis II HD Q-TOF Bruker
COLLISIONENERGY:  
Comment:  DB#=CCMSLIB00000846438; origin=GNPS
Num Peaks:  17
84.04896	60.0
84.80236	50.0
137.06432	80.0
144.89688	50.0
162.05806	50.0
197.08327	330.0
231.14638	140.0
237.09863	50.0
250.1429	990.0
255.12466	480.0
266.15536	40.0
290.1763	1000.0
304.22922	20.0
307.01462	50.0
444.27328	30.0
488.26038	160.0
506.27719	700.0

NAME:  NCGC00180336-03!16-butan-2-yl-10,11,14-trimethyl-13-propan-2-yl-3-prop-2-enyl-4-oxa-1,8,11,14,17-pentazabicyclo[17.3.0]docosane-2,5,9,12,15,18-hexone
PRECURSORMZ:  622.34575142083
PRECURSORTYPE:  [M+FA-H]-
FORMULA:  C29H47N5O7
Ontology: Kingdom: Organic compounds;Superclass: Organic acids and derivatives;Class: Peptidomimetics;Subclass: Depsipeptides
INCHIKEY:  XIYSEKITPHTMJT-UHFFFAOYNA-N
SMILES:  CCC(C)C1N=C(O)C2CCCN2C(=O)C(CC=C)OC(=O)CCN=C(O)C(C)N(C)C(=O)C(C(C)C)N(C)C1=O
RETENTIONTIME:  
CCS:  -1
IONMODE:  Negative
INSTRUMENTTYPE:  
INSTRUMENT:  Maxis II HD Q-TOF Bruker
COLLISIONENERGY:  
Comment:  DB#=CCMSLIB00000846440; origin=GNPS
Num Peaks:  29
165.1035	110.0
168.09669	70.0
178.09061	70.0
213.10725	60.0
214.15622	100.0
225.16112	170.0
245.16751	60.0
289.15939	40.0
320.20728	60.0
327.23361	60.0
353.21445	110.0
402.23642	30.0
412.12689	70.0
422.28101	50.0
450.27197	50.0
486.3064	150.0
504.32114	420.0
508.30627	40.0
509.00732	20.0
512.29291	30.0
518.8902	20.0
519.71515	30.0
519.81122	40.0
523.20648	20.0
535.32294	80.0
558.34137	40.0
575.18976	60.0
576.34027	1000.0
577.3399	60.0

NAME:  NCGC00179765-02!5,7-dihydroxy-6-methoxy-2-[4-[(2S,3R,4S,5S,6R)-3,4,5-trihydroxy-6-(hydroxymethyl)oxan-2-yl]oxyphenyl]chromen-4-one
PRECURSORMZ:  507.11441407583
PRECURSORTYPE:  [M+FA-H]-
FORMULA:  C22H22O11
Ontology: Kingdom: Organic compounds;Superclass: Phenylpropanoids and polyketides;Class: Flavonoids;Subclass: Flavonoid glycosides
INCHIKEY:  MORLNMAFXVHNAI-UHFFFAOYNA-N
SMILES:  COC1=C(O)C2=C(OC(=CC2=O)C2=CC=C(OC3OC(CO)C(O)C(O)C3O)C=C2)C=C1O
RETENTIONTIME:  
CCS:  -1
IONMODE:  Negative
INSTRUMENTTYPE:  
INSTRUMENT:  Maxis II HD Q-TOF Bruker
COLLISIONENERGY:  
Comment:  DB#=CCMSLIB00000846442; origin=GNPS
Num Peaks:  18
134.9455	40.0
162.99854	50.0
200.04401	40.0
255.02652	70.0
269.04489	50.0
281.00409	30.0
283.0246	290.0
284.02713	50.0
285.63635	20.0
297.04022	80.0
298.0546	40.0
299.05698	110.0
446.09204	240.0
461.10751	1000.0
462.10886	20.0
464.71652	40.0
476.22797	20.0
483.44565	10.0

NAME:  NCGC00385533-01![2-[5,7-dihydroxy-2-(4-hydroxy-3-methoxyphenyl)-4-oxochromen-6-yl]-4-[4,5-dihydroxy-6-(hydroxymethyl)-3-[3,4,5-trihydroxy-6-(hydroxymethyl)oxan-2-yl]oxyoxan-2-yl]oxy-5-hydroxy-6-(hydroxymethyl)oxan-3-yl] (E)-3-(4-hydroxy-3-methoxyphenyl)prop-2-enoate
PRECURSORMZ:  961.26192603783
PRECURSORTYPE:  [M-H]-
FORMULA:  C44H50O24
Ontology: Kingdom: Organic compounds;Superclass: Phenylpropanoids and polyketides;Class: Flavonoids;Subclass: Flavonoid glycosides
INCHIKEY:  NHWODQZQPMIYBP-UHFFFAOYNA-N
SMILES:  COC1=C(O)C=CC(C=CC(=O)OC2C(OC3OC(CO)C(O)C(O)C3OC3OC(CO)C(O)C(O)C3O)C(O)C(CO)OC2C2=C(O)C3=C(OC(=CC3=O)C3=CC(OC)=C(O)C=C3)C=C2O)=C1
RETENTIONTIME:  
CCS:  -1
IONMODE:  Negative
INSTRUMENTTYPE:  
INSTRUMENT:  Maxis II HD Q-TOF Bruker
COLLISIONENERGY:  
Comment:  DB#=CCMSLIB00000846443; origin=GNPS
Num Peaks:  25
113.02031	10.0
119.03303	10.0
161.04556	10.0
175.04193	20.0
193.04678	60.0
207.07159	10.0
235.06282	210.0
265.10132	10.0
295.08005	120.0
323.05444	20.0
355.10345	30.0
356.10406	10.0
443.09952	60.0
447.6503	10.0
455.30347	20.0
457.8761	10.0
485.10965	20.0
623.1579	10.0
785.21289	50.0
799.15082	20.0
799.20563	120.0
800.21533	20.0
841.23053	10.0
961.26587	1000.0
962.2641	160.0

NAME:  NCGC00385533-01![2-[5,7-dihydroxy-2-(4-hydroxy-3-methoxyphenyl)-4-oxochromen-6-yl]-4-[4,5-dihydroxy-6-(hydroxymethyl)-3-[3,4,5-trihydroxy-6-(hydroxymethyl)oxan-2-yl]oxyoxan-2-yl]oxy-5-hydroxy-6-(hydroxymethyl)oxan-3-yl] (E)-3-(4-hydroxy-3-methoxyphenyl)prop-2-enoate
PRECURSORMZ:  1007.26740503783
PRECURSORTYPE:  [M+FA-H]-
FORMULA:  C44H50O24
Ontology: Kingdom: Organic compounds;Superclass: Phenylpropanoids and polyketides;Class: Flavonoids;Subclass: Flavonoid glycosides
INCHIKEY:  NHWODQZQPMIYBP-UHFFFAOYNA-N
SMILES:  COC1=C(O)C=CC(C=CC(=O)OC2C(OC3OC(CO)C(O)C(O)C3OC3OC(CO)C(O)C(O)C3O)C(O)C(CO)OC2C2=C(O)C3=C(OC(=CC3=O)C3=CC(OC)=C(O)C=C3)C=C2O)=C1
RETENTIONTIME:  
CCS:  -1
IONMODE:  Negative
INSTRUMENTTYPE:  
INSTRUMENT:  Maxis II HD Q-TOF Bruker
COLLISIONENERGY:  
Comment:  DB#=CCMSLIB00000846446; origin=GNPS
Num Peaks:  94
111.00813	60.0
113.02458	90.0
120.97901	50.0
134.03673	400.0
147.70549	50.0
148.01793	70.0
149.05765	110.0
157.52809	40.0
160.01566	100.0
161.05859	60.0
163.07114	50.0
173.05864	40.0
174.03069	100.0
175.03879	290.0
176.05432	50.0
177.02226	30.0
191.06799	200.0
192.04735	50.0
193.04883	500.0
202.02948	60.0
207.06999	100.0
209.07993	50.0
217.05521	100.0
219.06064	60.0
220.03751	50.0
235.05795	1000.0
236.06573	40.0
246.91148	50.0
265.07184	280.0
279.03766	30.0
295.08249	340.0
296.08667	70.0
297.05072	80.0
298.12982	50.0
299.05249	120.0
308.04102	180.0
309.039	30.0
311.05679	50.0
323.06116	290.0
325.03864	50.0
326.0441	110.0
338.0473	100.0
341.07251	30.0
344.05054	60.0
347.1781	20.0
349.04666	60.0
350.04425	30.0
353.06049	60.0
354.08905	40.0
355.05225	50.0
355.1051	230.0
356.0629	40.0
356.10672	80.0
365.07825	40.0
367.09406	50.0
368.05127	40.0
369.06253	100.0
370.36606	50.0
371.07208	190.0
376.87308	20.0
382.60959	30.0
383.07559	190.0
387.03476	60.0
393.05222	40.0
397.1015	50.0
425.09189	60.0
428.07578	110.0
441.02582	30.0
443.10455	260.0
444.11551	50.0
445.1145	60.0
459.09058	70.0
485.10193	30.0
503.11035	50.0
523.84113	20.0
533.11639	50.0
591.31421	50.0
619.12537	40.0
623.15759	100.0
680.1806	50.0
785.21234	270.0
786.24445	30.0
799.1676	20.0
799.22528	220.0
799.50256	30.0
799.72455	10.0
800.20612	60.0
880.1571	20.0
959.76447	50.0
961.26355	820.0
961.43341	20.0
962.26172	270.0
964.27521	60.0
1554.42285	50.0

NAME:  NCGC00386101-01![3-methyl-1-[3-methyl-1-[3-methyl-1-[3-methyl-1-oxo-1-(1,3,4,5,6-pentahydroxyhexan-2-yloxy)pentan-2-yl]oxy-1-oxopentan-2-yl]oxy-1-oxopentan-2-yl]oxy-1-oxopentan-2-yl] 2-acetyloxy-3-methylpentanoate
PRECURSORMZ:  839.42820321283
PRECURSORTYPE:  [M+FA-H]-
FORMULA:  C38H66O17
Ontology: Kingdom: Organic compounds;Superclass: Organic acids and derivatives;Class: Carboxylic acids and derivatives;Subclass: Hexacarboxylic acids and derivatives
INCHIKEY:  HOFGZJTZROMXRO-UHFFFAOYNA-N
SMILES:  CCC(C)C(OC(C)=O)C(=O)OC(C(C)CC)C(=O)OC(C(C)CC)C(=O)OC(C(C)CC)C(=O)OC(C(C)CC)C(=O)OC(CO)C(O)C(O)C(O)CO
RETENTIONTIME:  
CCS:  -1
IONMODE:  Negative
INSTRUMENTTYPE:  
INSTRUMENT:  Maxis II HD Q-TOF Bruker
COLLISIONENERGY:  
Comment:  DB#=CCMSLIB00000846448; origin=GNPS
Num Peaks:  11
113.05994	50.0
131.07137	400.0
173.08171	1000.0
287.15088	890.0
288.15417	40.0
401.21866	740.0
402.21686	30.0
515.28857	270.0
516.29364	40.0
629.35498	20.0
630.35345	10.0

NAME:  NCGC00381079-01!3-(2,4-dihydroxyphenyl)-5-hydroxy-8,8-dimethyl-6-(3-methylbut-2-enyl)pyrano[2,3-h]chromen-4-one
PRECURSORMZ:  465.15549104083
PRECURSORTYPE:  [M+FA-H]-
FORMULA:  C25H24O6
Ontology: Kingdom: Organic compounds;Superclass: Phenylpropanoids and polyketides;Class: Isoflavonoids;Subclass: Isoflavans
INCHIKEY:  ZSSVYEUXLNVQMH-UHFFFAOYSA-N
SMILES:  CC(C)=CCC1=C(O)C2=C(OC=C(C2=O)C2=C(O)C=C(O)C=C2)C2=C1OC(C)(C)C=C2
RETENTIONTIME:  
CCS:  -1
IONMODE:  Negative
INSTRUMENTTYPE:  
INSTRUMENT:  Maxis II HD Q-TOF Bruker
COLLISIONENERGY:  
Comment:  DB#=CCMSLIB00000846450; origin=GNPS
Num Peaks:  9
218.19751	50.0
241.12947	130.0
255.06448	30.0
255.99678	40.0
321.10941	80.0
363.09436	60.0
419.15088	1000.0
421.16492	70.0
451.7851	40.0

NAME:  NCGC00347669-02!4-(3-acetyl-2,6-dihydroxyphenyl)-2-methoxy-4-[3,4,5-trihydroxy-6-(hydroxymethyl)oxan-2-yl]oxybutanoic acid
PRECURSORMZ:  445.13514982483
PRECURSORTYPE:  [M-H]-
FORMULA:  C19H26O12
Ontology: Kingdom: Organic compounds;Superclass: Lipids and lipid;Class: Fatty Acyls;Subclass: Fatty acyl glycosides
INCHIKEY:  YTEWAPMLXIWBPY-UHFFFAOYNA-N
SMILES:  COC(CC(OC1OC(CO)C(O)C(O)C1O)C1=C(O)C=CC(C(C)=O)=C1O)C(O)=O
RETENTIONTIME:  
CCS:  -1
IONMODE:  Negative
INSTRUMENTTYPE:  
INSTRUMENT:  Maxis II HD Q-TOF Bruker
COLLISIONENERGY:  
Comment:  DB#=CCMSLIB00000846452; origin=GNPS
Num Peaks:  10
118.4515	30.0
147.05103	30.0
160.27255	40.0
161.03125	30.0
189.056	1000.0
191.03474	30.0
221.08067	440.0
233.04727	310.0
265.07288	160.0
494.93375	60.0

NAME:  NCGC00381078-01!3-[4-hydroxy-5-methoxy-2-[(2S,3R,4S,5S,6R)-3,4,5-trihydroxy-6-(hydroxymethyl)oxan-2-yl]oxyphenyl]-2-(2-oxochromen-7-yl)oxypropanoic acid
PRECURSORMZ:  533.13006444483
PRECURSORTYPE:  [M-H]-
FORMULA:  C25H26O13
Ontology: Kingdom: Organic compounds;Superclass: Organic oxygen compounds;Class: Organooxygen compounds;Subclass: Carbohydrates and carbohydrate conjugates
INCHIKEY:  JTLPHVAPUJVXEJ-UHFFFAOYNA-N
SMILES:  COC1=C(O)C=C(OC2OC(CO)C(O)C(O)C2O)C(CC(OC2=CC3=C(C=CC(=O)O3)C=C2)C(O)=O)=C1
RETENTIONTIME:  
CCS:  -1
IONMODE:  Negative
INSTRUMENTTYPE:  
INSTRUMENT:  Maxis II HD Q-TOF Bruker
COLLISIONENERGY:  
Comment:  DB#=CCMSLIB00000846454; origin=GNPS
Num Peaks:  13
99.68334	20.0
133.0275	10.0
149.04585	30.0
150.03258	90.0
161.02377	1000.0
162.02562	10.0
165.0545	100.0
175.03279	10.0
179.04861	20.0
209.05009	90.0
371.09735	40.0
498.71222	10.0
533.12323	50.0

NAME:  NCGC00381081-01![(2S,3R,4S,5R,6S)-6-[(2S,3R,4S,5R,6R)-4,5-dihydroxy-2-[5-hydroxy-2-(4-hydroxyphenyl)-4-oxo-7-[(2S,3R,4S,5S,6R)-3,4,5-trihydroxy-6-(hydroxymethyl)oxan-2-yl]oxychromen-3-yl]oxy-6-[[(2R,3R,4R,5R,6S)-3,4,5-trihydroxy-6-methyloxan-2-yl]oxymethyl]oxan-3-yl]oxy-4,5-dihydroxy-2-methyloxan-3-yl] acetate
PRECURSORMZ:  943.27249072183
PRECURSORTYPE:  [M-H]-
FORMULA:  C41H52O25
Ontology: Kingdom: Organic compounds;Superclass: Phenylpropanoids and polyketides;Class: Flavonoids;Subclass: Flavonoid glycosides
INCHIKEY:  QTJRRBYZPWQMKO-UHFFFAOYNA-N
SMILES:  CC1OC(OCC2OC(OC3=C(OC4=CC(OC5OC(CO)C(O)C(O)C5O)=CC(O)=C4C3=O)C3=CC=C(O)C=C3)C(OC3OC(C)C(OC(C)=O)C(O)C3O)C(O)C2O)C(O)C(O)C1O
RETENTIONTIME:  
CCS:  -1
IONMODE:  Negative
INSTRUMENTTYPE:  
INSTRUMENT:  Maxis II HD Q-TOF Bruker
COLLISIONENERGY:  
Comment:  DB#=CCMSLIB00000846456; origin=GNPS
Num Peaks:  5
284.0332	80.0
285.04138	50.0
901.23517	10.0
943.27307	1000.0
944.27399	120.0

NAME:  NCGC00385261-01!
PRECURSORMZ:  463.08007286376
PRECURSORTYPE:  [M+K-2H]-
FORMULA:  C23H22O8
Ontology: Kingdom: Organic compounds;Superclass: Phenylpropanoids and polyketides;Class: Isoflavonoids;Subclass: Rotenoids
INCHIKEY:  MYQAATJJIDGOMQ-UHFFFAOYNA-N
SMILES:  COC1=C(OC)C=C2C(OCC3OC4=C(C=CC5=C4CC(O5)C(=C)CO)C(=O)C23O)=C1
RETENTIONTIME:  
CCS:  -1
IONMODE:  Negative
INSTRUMENTTYPE:  
INSTRUMENT:  Maxis II HD Q-TOF Bruker
COLLISIONENERGY:  
Comment:  DB#=CCMSLIB00000846457; origin=GNPS
Num Peaks:  17
113.02341	50.0
135.0443	210.0
143.03398	30.0
151.00433	700.0
175.02631	510.0
205.01115	20.0
245.04599	20.0
285.4133	10.0
286.17786	20.0
286.8645	20.0
287.0574	1000.0
287.56421	10.0
289.00491	10.0
301.05869	10.0
329.07782	10.0
359.06973	20.0
463.08771	440.0

NAME:  NCGC00385250-01!(2S)-6-[(2S)-5,7-dihydroxy-2-(4-hydroxyphenyl)-4-oxo-2,3-dihydrochromen-8-yl]-5,7-dihydroxy-2-(4-hydroxyphenyl)-2,3-dihydrochromen-4-one
PRECURSORMZ:  541.11402045583
PRECURSORTYPE:  [M-H]-
FORMULA:  C30H22O10
Ontology: Kingdom: Organic compounds;Superclass: Phenylpropanoids and polyketides;Class: Flavonoids;Subclass: Biflavonoids and polyflavonoids
INCHIKEY:  YBDIZQWDBBOOFB-UHFFFAOYNA-N
SMILES:  OC1=CC=C(C=C1)C1CC(=O)C2=C(O1)C=C(O)C(=C2O)C1=C(O)C=C(O)C2=C1OC(CC2=O)C1=CC=C(O)C=C1
RETENTIONTIME:  
CCS:  252.7452203
IONMODE:  Negative
INSTRUMENTTYPE:  
INSTRUMENT:  Maxis II HD Q-TOF Bruker
COLLISIONENERGY:  
Comment:  DB#=CCMSLIB00000846462; origin=GNPS
Num Peaks:  40
119.05097	100.0
121.03049	70.0
143.04907	30.0
163.04614	40.0
165.02127	80.0
189.01097	50.0
189.99014	60.0
191.01122	50.0
192.5224	20.0
196.04861	50.0
207.02716	40.0
229.05475	90.0
229.14774	10.0
231.03273	70.0
233.0127	60.0
234.99203	60.0
264.02585	20.0
275.01941	30.0
283.06766	40.0
301.03949	20.0
302.06833	50.0
307.06943	30.0
309.06558	50.0
310.80002	30.0
311.05569	740.0
327.07846	60.0
337.017	50.0
337.04703	40.0
351.08987	310.0
353.07376	70.0
354.07541	50.0
377.07034	100.0
394.61572	10.0
395.07397	190.0
403.0459	20.0
497.14438	40.0
523.11322	70.0
541.11786	1000.0
544.78137	20.0
692.25671	30.0

NAME:  NCGC00385236-01!3-(3,4-dihydroxyphenyl)-2-[(E)-3-[2-(3,4-dihydroxyphenyl)-7-hydroxy-3-methoxycarbonyl-2,3-dihydro-1-benzofuran-4-yl]prop-2-enoyl]oxypropanoic acid
PRECURSORMZ:  551.11949976083
PRECURSORTYPE:  [M-H]-
FORMULA:  C28H24O12
Ontology: Kingdom: Organic compounds;Superclass: Phenylpropanoids and polyketides;;
INCHIKEY:  NFOCYHUCMXEHDG-UHFFFAOYNA-N
SMILES:  COC(=O)C1C(OC2=C(O)C=CC(C=CC(=O)OC(CC3=CC(O)=C(O)C=C3)C(O)=O)=C12)C1=CC(O)=C(O)C=C1
RETENTIONTIME:  
CCS:  255.455894
IONMODE:  Negative
INSTRUMENTTYPE:  
INSTRUMENT:  Maxis II HD Q-TOF Bruker
COLLISIONENERGY:  
Comment:  DB#=CCMSLIB00000846464; origin=GNPS
Num Peaks:  34
89.89825	80.0
109.03515	70.0
122.04185	10.0
135.04582	60.0
151.76318	30.0
159.03854	20.0
167.03677	20.0
179.04137	40.0
185.02669	40.0
197.04472	100.0
200.00711	30.0
201.03665	20.0
231.03049	110.0
232.04213	30.0
249.05339	30.0
251.03178	40.0
265.05161	30.0
277.05792	40.0
279.03442	30.0
292.04135	10.0
293.04901	190.0
294.05643	40.0
295.06436	100.0
319.02811	20.0
320.03156	20.0
321.04318	1000.0
323.8587	20.0
335.0679	20.0
339.05167	60.0
353.06717	410.0
371.08685	30.0
507.1275	20.0
519.10559	20.0
551.11591	10.0

NAME:  NCGC00180851-02!5,7-dihydroxy-2-(4-hydroxy-3-methoxyphenyl)-3-[(2S,3R,4S,5R,6R)-3,4,5-trihydroxy-6-[[(2R,3R,4R,5R,6S)-3,4,5-trihydroxy-6-methyloxan-2-yl]oxymethyl]oxan-2-yl]oxychromen-4-one
PRECURSORMZ:  623.16175849783
PRECURSORTYPE:  [M-H]-
FORMULA:  C28H32O16
Ontology: Kingdom: Organic compounds;Superclass: Phenylpropanoids and polyketides;Class: Flavonoids;Subclass: Flavonoid glycosides
INCHIKEY:  UIDGLYUNOUKLBM-UHFFFAOYNA-N
SMILES:  COC1=C(O)C=CC(=C1)C1=C(OC2OC(COC3OC(C)C(O)C(O)C3O)C(O)C(O)C2O)C(=O)C2=C(O)C=C(O)C=C2O1
RETENTIONTIME:  
CCS:  223.4724829
IONMODE:  Negative
INSTRUMENTTYPE:  
INSTRUMENT:  Maxis II HD Q-TOF Bruker
COLLISIONENERGY:  
Comment:  DB#=CCMSLIB00000846466; origin=GNPS
Num Peaks:  25
117.51172	10.0
151.00357	40.0
159.62123	10.0
169.02061	30.0
227.03288	20.0
243.03523	50.0
255.02811	50.0
270.01163	10.0
271.02591	50.0
285.03867	30.0
286.05276	20.0
298.77768	40.0
299.01941	210.0
300.02176	120.0
301.07593	30.0
314.04242	460.0
314.57962	20.0
315.05222	680.0
357.03949	30.0
387.07715	20.0
555.16864	20.0
591.11652	20.0
623.16412	1000.0
623.27161	20.0
967.36206	20.0

NAME:  NCGC00180851-02!5,7-dihydroxy-2-(4-hydroxy-3-methoxyphenyl)-3-[(2S,3R,4S,5R,6R)-3,4,5-trihydroxy-6-[[(2R,3R,4R,5R,6S)-3,4,5-trihydroxy-6-methyloxan-2-yl]oxymethyl]oxan-2-yl]oxychromen-4-one
PRECURSORMZ:  669.16723749783
PRECURSORTYPE:  [M+FA-H]-
FORMULA:  C28H32O16
Ontology: Kingdom: Organic compounds;Superclass: Phenylpropanoids and polyketides;Class: Flavonoids;Subclass: Flavonoid glycosides
INCHIKEY:  UIDGLYUNOUKLBM-UHFFFAOYNA-N
SMILES:  COC1=C(O)C=CC(=C1)C1=C(OC2OC(COC3OC(C)C(O)C(O)C3O)C(O)C(O)C2O)C(=O)C2=C(O)C=C(O)C=C2O1
RETENTIONTIME:  
CCS:  -1
IONMODE:  Negative
INSTRUMENTTYPE:  
INSTRUMENT:  Maxis II HD Q-TOF Bruker
COLLISIONENERGY:  
Comment:  DB#=CCMSLIB00000846467; origin=GNPS
Num Peaks:  14
152.36789	20.0
152.46555	20.0
161.22929	30.0
255.02264	140.0
270.01721	40.0
299.02292	90.0
300.02502	90.0
313.0307	20.0
314.04416	380.0
315.05237	560.0
591.15088	20.0
621.94055	50.0
623.16406	1000.0
1141.60913	40.0

NAME:  NCGC00180378-02!
PRECURSORMZ:  749.20870869183
PRECURSORTYPE:  [M-H]-
FORMULA:  C38H38O16
Ontology: Kingdom: Organic compounds;Superclass: Lignans;;
INCHIKEY:  FCANTWZHYAQEKU-UHFFFAOYNA-N
SMILES:  CC(OC(C)=O)C1C23OC2(C(O)C2=C(C=CC(=C2O)C2=C(O)C4=C(C=C2)C(=O)C25OC2(C4O)C(=O)CC(C)(O)C5C(C)OC(C)=O)C3=O)C(=O)CC1(C)O
RETENTIONTIME:  
CCS:  -1
IONMODE:  Negative
INSTRUMENTTYPE:  
INSTRUMENT:  Maxis II HD Q-TOF Bruker
COLLISIONENERGY:  
Comment:  DB#=CCMSLIB00000846470; origin=GNPS
Num Peaks:  29
287.24298	10.0
369.08112	10.0
372.06808	10.0
409.07861	10.0
415.08789	10.0
415.11667	10.0
431.08545	10.0
441.09912	10.0
447.0813	10.0
453.10501	10.0
457.0983	10.0
465.09134	10.0
481.11581	10.0
499.14456	10.0
521.12225	10.0
541.1452	10.0
545.14526	10.0
569.15448	30.0
583.17133	10.0
587.133	20.0
588.12897	10.0
605.13098	10.0
611.16052	20.0
629.16742	30.0
671.17609	30.0
689.19189	120.0
690.18878	10.0
749.20923	1000.0
750.21704	260.0

NAME:  NCGC00180378-02!
PRECURSORMZ:  731.19814401183
PRECURSORTYPE:  [M-H2O-H]-
FORMULA:  C38H38O16
Ontology: Kingdom: Organic compounds;Superclass: Lignans;;
INCHIKEY:  FCANTWZHYAQEKU-UHFFFAOYNA-N
SMILES:  CC(OC(C)=O)C1C23OC2(C(O)C2=C(C=CC(=C2O)C2=C(O)C4=C(C=C2)C(=O)C25OC2(C4O)C(=O)CC(C)(O)C5C(C)OC(C)=O)C3=O)C(=O)CC1(C)O
RETENTIONTIME:  
CCS:  -1
IONMODE:  Negative
INSTRUMENTTYPE:  
INSTRUMENT:  Maxis II HD Q-TOF Bruker
COLLISIONENERGY:  
Comment:  DB#=CCMSLIB00000846471; origin=GNPS
Num Peaks:  75
149.0614	30.0
251.0771	40.0
261.10086	10.0
280.04443	30.0
280.07721	30.0
290.0224	20.0
308.07874	20.0
356.423	10.0
359.065	20.0
366.06104	30.0
370.08218	30.0
379.05658	10.0
385.07501	20.0
385.10526	20.0
389.06787	20.0
395.04782	30.0
395.13812	10.0
401.06137	30.0
402.1691	20.0
413.06564	10.0
416.97394	20.0
419.0773	20.0
421.04156	20.0
424.13412	20.0
429.09372	20.0
433.10559	20.0
446.12036	20.0
457.11981	20.0
461.09155	20.0
463.07898	30.0
463.10873	30.0
463.16568	20.0
464.08664	10.0
465.13956	10.0
466.09705	20.0
469.11761	20.0
471.08835	10.0
479.12183	20.0
480.11023	50.0
481.09836	30.0
491.09726	20.0
493.24487	20.0
506.11081	10.0
507.10922	10.0
517.12311	20.0
519.10999	30.0
523.1864	20.0
525.12891	20.0
527.07141	20.0
531.14191	40.0
540.1521	20.0
548.09564	10.0
549.12177	20.0
551.12695	30.0
551.16632	10.0
567.14423	20.0
568.13855	20.0
569.13593	20.0
575.12146	20.0
587.12915	30.0
593.13507	20.0
599.14807	20.0
611.15955	60.0
613.11926	20.0
652.18018	10.0
653.14307	60.0
654.16095	20.0
670.18341	30.0
671.17694	150.0
730.03412	20.0
731.04761	20.0
731.20349	1000.0
732.2085	170.0
736.14008	20.0
737.33606	10.0

NAME:  NCGC00380570-01![(2R,3R,4R,5R,6S)-4,5-dihydroxy-6-methyl-2-[[(2R,3S,4S,5R,6S)-3,4,5-trihydroxy-6-[(E)-3-phenylprop-2-enoyl]oxyoxan-2-yl]methoxy]oxan-3-yl] (E)-3-phenylprop-2-enoate
PRECURSORMZ:  623.15363173076
PRECURSORTYPE:  [M+K-2H]-
FORMULA:  C30H34O12
Ontology: Kingdom: Organic compounds;Superclass: Phenylpropanoids and polyketides;Class: Cinnamic acids and derivatives;Subclass: Cinnamic acid esters
INCHIKEY:  OWWJIYCJJLVSON-UHFFFAOYNA-N
SMILES:  CC1OC(OCC2OC(OC(=O)C=CC3=CC=CC=C3)C(O)C(O)C2O)C(OC(=O)C=CC2=CC=CC=C2)C(O)C1O
RETENTIONTIME:  
CCS:  -1
IONMODE:  Negative
INSTRUMENTTYPE:  
INSTRUMENT:  Maxis II HD Q-TOF Bruker
COLLISIONENERGY:  
Comment:  DB#=CCMSLIB00000846474; origin=GNPS
Num Peaks:  14
229.04944	40.0
235.03984	30.0
255.02211	30.0
269.04279	40.0
299.05682	20.0
316.24951	60.0
327.0502	1000.0
357.06503	200.0
393.0531	70.0
429.07709	90.0
457.09741	40.0
577.12903	390.0
621.34967	60.0
1318.74353	80.0

NAME:  NCGC00380570-01![(2R,3R,4R,5R,6S)-4,5-dihydroxy-6-methyl-2-[[(2R,3S,4S,5R,6S)-3,4,5-trihydroxy-6-[(E)-3-phenylprop-2-enoyl]oxyoxan-2-yl]methoxy]oxan-3-yl] (E)-3-phenylprop-2-enoate
PRECURSORMZ:  631.20322908283
PRECURSORTYPE:  [M+FA-H]-
FORMULA:  C30H34O12
Ontology: Kingdom: Organic compounds;Superclass: Phenylpropanoids and polyketides;Class: Cinnamic acids and derivatives;Subclass: Cinnamic acid esters
INCHIKEY:  OWWJIYCJJLVSON-UHFFFAOYNA-N
SMILES:  CC1OC(OCC2OC(OC(=O)C=CC3=CC=CC=C3)C(O)C(O)C2O)C(OC(=O)C=CC2=CC=CC=C2)C(O)C1O
RETENTIONTIME:  
CCS:  -1
IONMODE:  Negative
INSTRUMENTTYPE:  
INSTRUMENT:  Maxis II HD Q-TOF Bruker
COLLISIONENERGY:  
Comment:  DB#=CCMSLIB00000846475; origin=GNPS
Num Peaks:  3
143.03654	20.0
147.04427	1000.0
161.06129	30.0

NAME:  NCGC00180313-02![17-acetyl-8,14,17-trihydroxy-3-[5-[5-[3-hydroxy-4-methoxy-6-methyl-5-[3,4,5-trihydroxy-6-(hydroxymethyl)oxan-2-yl]oxyoxan-2-yl]oxy-4-methoxy-6-methyloxan-2-yl]oxy-4-methoxy-6-methyloxan-2-yl]oxy-10,13-dimethyl-1,2,3,4,5,6,7,9,11,12,15,16-dodecahydrocyclopenta[a]phenanthren-12-yl] benzoate
PRECURSORMZ:  1141.54362689283
PRECURSORTYPE:  [M+FA-H]-
FORMULA:  C55H84O22
Ontology: Kingdom: Organic compounds;Superclass: Lipids and lipid;Class: Steroids and steroid derivatives;Subclass: Steroidal glycosides
INCHIKEY:  ODGKTDLGCWUSEC-UHFFFAOYNA-N
SMILES:  COC1CC(OC2CCC3(C)C(CCC4(O)C3CC(OC(=O)C3=CC=CC=C3)C3(C)C(O)(CCC43O)C(C)=O)C2)OC(C)C1OC1CC(OC)C(OC2OC(C)C(OC3OC(CO)C(O)C(O)C3O)C(OC)C2O)C(C)O1
RETENTIONTIME:  
CCS:  -1
IONMODE:  Negative
INSTRUMENTTYPE:  
INSTRUMENT:  Maxis II HD Q-TOF Bruker
COLLISIONENERGY:  
Comment:  DB#=CCMSLIB00000846478; origin=GNPS
Num Peaks:  5
121.02878	1000.0
122.03243	30.0
973.50024	110.0
974.50787	50.0
1095.53967	20.0

NAME:  NCGC00169054-02!3-(4-methoxyphenyl)-7-[(2S,3R,4S,5S,6R)-3,4,5-trihydroxy-6-(hydroxymethyl)oxan-2-yl]oxychromen-4-one
PRECURSORMZ:  475.12458483583
PRECURSORTYPE:  [M+FA-H]-
FORMULA:  C22H22O9
Ontology: Kingdom: Organic compounds;Superclass: Phenylpropanoids and polyketides;Class: Isoflavonoids;Subclass: Isoflavonoid O
INCHIKEY:  MGJLSBDCWOSMHL-UHFFFAOYNA-N
SMILES:  COC1=CC=C(C=C1)C1=COC2=C(C=CC(OC3OC(CO)C(O)C(O)C3O)=C2)C1=O
RETENTIONTIME:  
CCS:  -1
IONMODE:  Negative
INSTRUMENTTYPE:  
INSTRUMENT:  Maxis II HD Q-TOF Bruker
COLLISIONENERGY:  
Comment:  DB#=CCMSLIB00000846480; origin=GNPS
Num Peaks:  13
104.79312	40.0
135.00993	40.0
142.06252	50.0
161.04012	60.0
252.04453	120.0
265.73038	30.0
267.06711	1000.0
267.12961	30.0
267.35593	10.0
268.0762	20.0
269.8042	20.0
312.0979	20.0
351.09659	30.0

NAME:  NCGC00386014-01![(2S,3R,4S,5S,6R)-4,5-dihydroxy-6-[(4-hydroxybenzoyl)oxymethyl]-2-(4-hydroxyphenoxy)oxan-3-yl] 3,4,5-trihydroxybenzoate
PRECURSORMZ:  543.11441438083
PRECURSORTYPE:  [M-H]-
FORMULA:  C26H24O13
Ontology: Kingdom: Organic compounds;Superclass: Organic oxygen compounds;Class: Organooxygen compounds;Subclass: Carbohydrates and carbohydrate conjugates
INCHIKEY:  LIANLIDDEFJTSX-UHFFFAOYNA-N
SMILES:  OC1C(O)C(OC(=O)C2=CC(O)=C(O)C(O)=C2)C(OC2=CC=C(O)C=C2)OC1COC(=O)C1=CC=C(O)C=C1
RETENTIONTIME:  
CCS:  245.2269609
IONMODE:  Negative
INSTRUMENTTYPE:  
INSTRUMENT:  Maxis II HD Q-TOF Bruker
COLLISIONENERGY:  
Comment:  DB#=CCMSLIB00000846482; origin=GNPS
Num Peaks:  24
93.0378	100.0
109.03368	70.0
110.1347	60.0
125.02782	60.0
137.02397	460.0
161.05351	30.0
162.0336	70.0
167.03595	90.0
169.01596	300.0
175.15698	30.0
179.59242	10.0
193.01996	20.0
211.03931	90.0
221.04906	50.0
252.02322	80.0
281.06006	40.0
281.08908	50.0
295.04938	100.0
345.07034	40.0
433.07611	1000.0
542.1662	80.0
542.28217	30.0
543.11334	540.0
543.20166	40.0

NAME:  NCGC00380532-01![4-[3,4,5-trihydroxy-6-(hydroxymethyl)oxan-2-yl]oxyphenyl]methyl 3-acetyloxy-2-hydroxy-2-[(4-hydroxyphenyl)methyl]butanoate
PRECURSORMZ:  535.18210001783
PRECURSORTYPE:  [M-H]-
FORMULA:  C26H32O12
Ontology: Kingdom: Organic compounds;Superclass: Organic oxygen compounds;Class: Organooxygen compounds;Subclass: Carbohydrates and carbohydrate conjugates
INCHIKEY:  OCPITUSJSRGORS-UHFFFAOYNA-N
SMILES:  CC(OC(C)=O)C(O)(CC1=CC=C(O)C=C1)C(=O)OCC1=CC=C(OC2OC(CO)C(O)C(O)C2O)C=C1
RETENTIONTIME:  
CCS:  -1
IONMODE:  Negative
INSTRUMENTTYPE:  
INSTRUMENT:  Maxis II HD Q-TOF Bruker
COLLISIONENERGY:  
Comment:  DB#=CCMSLIB00000846484; origin=GNPS
Num Peaks:  6
161.55072	20.0
163.07652	1000.0
207.07428	80.0
223.06268	80.0
267.08685	390.0
535.15039	50.0

NAME:  NCGC00380532-01![4-[3,4,5-trihydroxy-6-(hydroxymethyl)oxan-2-yl]oxyphenyl]methyl 3-acetyloxy-2-hydroxy-2-[(4-hydroxyphenyl)methyl]butanoate
PRECURSORMZ:  581.18757901783
PRECURSORTYPE:  [M+FA-H]-
FORMULA:  C26H32O12
Ontology: Kingdom: Organic compounds;Superclass: Organic oxygen compounds;Class: Organooxygen compounds;Subclass: Carbohydrates and carbohydrate conjugates
INCHIKEY:  OCPITUSJSRGORS-UHFFFAOYNA-N
SMILES:  CC(OC(C)=O)C(O)(CC1=CC=C(O)C=C1)C(=O)OCC1=CC=C(OC2OC(CO)C(O)C(O)C2O)C=C1
RETENTIONTIME:  
CCS:  -1
IONMODE:  Negative
INSTRUMENTTYPE:  
INSTRUMENT:  Maxis II HD Q-TOF Bruker
COLLISIONENERGY:  
Comment:  DB#=CCMSLIB00000846485; origin=GNPS
Num Peaks:  15
93.03651	10.0
106.04342	20.0
119.05462	20.0
125.34445	20.0
134.03357	10.0
162.05785	10.0
163.07562	880.0
170.31464	10.0
203.08072	30.0
207.06453	40.0
225.07593	10.0
267.08661	1000.0
267.13467	10.0
429.14133	20.0
535.15118	10.0

NAME:  NCGC00380884-01!(2S,3R,10R,13R,14S)-2,3,14-trihydroxy-10,13-dimethyl-17-[(2R,3R,5R)-2,3,5-trihydroxy-5,6-dimethylheptan-2-yl]-2,3,4,5,9,11,12,15,16,17-decahydro-1H-cyclopenta[a]phenanthren-6-one
PRECURSORMZ:  539.32255636883
PRECURSORTYPE:  [M+FA-H]-
FORMULA:  C28H46O7
Ontology: Kingdom: Organic compounds;Superclass: Lipids and lipid;Class: Steroids and steroid derivatives;Subclass: Bile acids
INCHIKEY:  YXPVYQIMXPYFSF-UHFFFAOYNA-N
SMILES:  CC(C)C(C)(O)CC(O)C(C)(O)C1CCC2(O)C3=CC(=O)C4CC(O)C(O)CC4(C)C3CCC12C
RETENTIONTIME:  
CCS:  -1
IONMODE:  Negative
INSTRUMENTTYPE:  
INSTRUMENT:  Maxis II HD Q-TOF Bruker
COLLISIONENERGY:  
Comment:  DB#=CCMSLIB00000846487; origin=GNPS
Num Peaks:  12
125.05972	20.0
173.11436	70.0
203.1384	20.0
252.99547	30.0
301.18167	60.0
319.18979	390.0
331.43469	20.0
373.22391	20.0
493.31891	1000.0
494.31085	40.0
539.32764	140.0
1490.04089	20.0

NAME:  NCGC00179986-02!2-[[4-[2-[(2S,3R,4S,5S,6R)-3-acetyloxy-4,5-dihydroxy-6-(hydroxymethyl)oxan-2-yl]oxy-4-(2-hydroxy-4-methoxy-6-methylbenzoyl)oxy-6-methylbenzoyl]oxy-2-hydroxy-6-methylbenzoyl]amino]propanoic acid
PRECURSORMZ:  756.21452234783
PRECURSORTYPE:  [M-H]-
FORMULA:  C36H39NO17
Ontology: Kingdom: Organic compounds;Superclass: Phenylpropanoids and polyketides;Class: Tannins;Subclass: Hydrolyzable tannins
INCHIKEY:  RBFOMTAWEHHDSX-UHFFFAOYNA-N
SMILES:  COC1=CC(O)=C(C(=O)OC2=CC(OC3OC(CO)C(O)C(O)C3OC(C)=O)=C(C(=O)OC3=CC(O)=C(C(O)=NC(C)C(O)=O)C(C)=C3)C(C)=C2)C(C)=C1
RETENTIONTIME:  
CCS:  -1
IONMODE:  Negative
INSTRUMENTTYPE:  
INSTRUMENT:  Maxis II HD Q-TOF Bruker
COLLISIONENERGY:  
Comment:  DB#=CCMSLIB00000846489; origin=GNPS
Num Peaks:  13
114.01893	350.0
123.04376	390.0
149.02336	60.0
166.04936	10.0
167.03543	40.0
194.0834	50.0
238.07066	1000.0
239.07404	30.0
353.08875	30.0
371.09378	60.0
592.16602	220.0
593.16919	30.0
756.19482	10.0

NAME:  NCGC00347750-02!(E,2S,3R,4R,5S)-4-acetyloxy-2-amino-3,5,14-trihydroxyicos-6-enoic acid
PRECURSORMZ:  430.28102621183
PRECURSORTYPE:  [M-H]-
FORMULA:  C22H41NO7
Ontology: Kingdom: Organic compounds;Superclass: Lipids and lipid;Class: Fatty Acyls;Subclass: Fatty acids and conjugates
INCHIKEY:  OOEOVXMORBPOKC-UHFFFAOYNA-N
SMILES:  CCCCCCC(O)CCCCCCC=CC(O)C(OC(C)=O)C(O)C(N)C(O)=O
RETENTIONTIME:  
CCS:  247.8016499
IONMODE:  Negative
INSTRUMENTTYPE:  
INSTRUMENT:  Maxis II HD Q-TOF Bruker
COLLISIONENERGY:  
Comment:  DB#=CCMSLIB00000846492; origin=GNPS
Num Peaks:  11
73.28531	50.0
112.04082	140.0
116.03517	1000.0
140.04124	260.0
158.04366	150.0
188.80495	70.0
253.22067	30.0
306.22495	50.0
350.26193	100.0
430.27985	930.0
430.37839	50.0

NAME:  NCGC00380462-01!5,7-dihydroxy-6-[3,4,5-trihydroxy-6-(hydroxymethyl)oxan-2-yl]-8-[3,4,5-trihydroxy-6-(hydroxymethyl)oxan-2-yl]oxychromen-2-one
PRECURSORMZ:  517.11989368483
PRECURSORTYPE:  [M-H]-
FORMULA:  C21H26O15
Ontology: Kingdom: Organic compounds;Superclass: Phenylpropanoids and polyketides;Class: Coumarins and derivatives;Subclass: Coumarin glycosides
INCHIKEY:  YRVGYJMSCQFOCA-UHFFFAOYNA-N
SMILES:  OCC1OC(OC2=C3OC(=O)C=CC3=C(O)C(C3OC(CO)C(O)C(O)C3O)=C2O)C(O)C(O)C1O
RETENTIONTIME:  
CCS:  -1
IONMODE:  Negative
INSTRUMENTTYPE:  
INSTRUMENT:  Maxis II HD Q-TOF Bruker
COLLISIONENERGY:  
Comment:  DB#=CCMSLIB00000846493; origin=GNPS
Num Peaks:  22
150.03125	30.0
173.43962	70.0
177.01756	60.0
190.99457	40.0
191.99908	140.0
205.00731	30.0
206.02245	120.0
217.00755	40.0
220.63409	20.0
221.00806	70.0
234.0155	700.0
235.02719	100.0
247.0255	30.0
264.02921	340.0
264.57541	20.0
316.57892	30.0
336.04907	50.0
354.0701	60.0
355.06961	30.0
397.07568	1000.0
427.08472	210.0
517.12103	420.0

NAME:  NCGC00380594-01!(2S)-2-[2-[(5R,6R,7S,9S,11R,16R,18S,19S)-19-acetamido-6-[(3S)-3,4-dicarboxybutanoyl]oxy-11,16,18-trihydroxy-5,9-dimethylicosan-7-yl]oxy-2-oxoethyl]butanedioic acid
PRECURSORMZ:  762.39175843583
PRECURSORTYPE:  [M-H]-
FORMULA:  C36H61NO16
Ontology: Kingdom: Organic compounds;Superclass: Organic acids and derivatives;Class: Carboxylic acids and derivatives;Subclass: Fumonisins
INCHIKEY:  ADACAMXIRQREOB-UHFFFAOYNA-N
SMILES:  CCCCC(C)C(OC(=O)CC(CC(O)=O)C(O)=O)C(CC(C)CC(O)CCCCC(O)CC(O)C(C)N=C(C)O)OC(=O)CC(CC(O)=O)C(O)=O
RETENTIONTIME:  
CCS:  298.6828699
IONMODE:  Negative
INSTRUMENTTYPE:  
INSTRUMENT:  Maxis II HD Q-TOF Bruker
COLLISIONENERGY:  
Comment:  DB#=CCMSLIB00000846496; origin=GNPS
Num Peaks:  10
113.02364	70.0
131.03325	20.0
157.01357	1000.0
158.01515	10.0
175.02547	50.0
604.36853	290.0
605.37329	20.0
744.38416	30.0
762.39417	210.0
763.39862	30.0

NAME:  NCGC00380463-01!(3S,4R)-7-hydroxy-3-[(3S,4R)-7-hydroxy-4-(4-hydroxyphenyl)-2-oxo-5-[(2S,3R,4S,5S,6R)-3,4,5-trihydroxy-6-(hydroxymethyl)oxan-2-yl]oxy-3,4-dihydrochromen-3-yl]-4-(4-hydroxyphenyl)-5-[(2S,3R,4S,5S,6R)-3,4,5-trihydroxy-6-(hydroxymethyl)oxan-2-yl]oxy-3,4-dihydrochromen-2-one
PRECURSORMZ:  865.21966729983
PRECURSORTYPE:  [M-H]-
FORMULA:  C42H42O20
Ontology: Kingdom: Organic compounds;Superclass: Phenylpropanoids and polyketides;Class: Coumarins and derivatives;Subclass: Coumarin glycosides
INCHIKEY:  AYJLVEAOIKOWIP-UHFFFAOYNA-N
SMILES:  OCC1OC(OC2=CC(O)=CC3=C2C(C(C2C(C4=CC=C(O)C=C4)C4=C(OC2=O)C=C(O)C=C4OC2OC(CO)C(O)C(O)C2O)C(=O)O3)C2=CC=C(O)C=C2)C(O)C(O)C1O
RETENTIONTIME:  
CCS:  -1
IONMODE:  Negative
INSTRUMENTTYPE:  
INSTRUMENT:  Maxis II HD Q-TOF Bruker
COLLISIONENERGY:  
Comment:  DB#=CCMSLIB00000846497; origin=GNPS
Num Peaks:  32
82.65285	40.0
229.0497	290.0
257.0484	60.0
283.06085	40.0
311.05728	110.0
379.05792	80.0
391.10287	390.0
392.09567	20.0
403.52771	50.0
419.10336	20.0
446.12225	50.0
447.05896	50.0
471.06766	60.0
497.1478	50.0
541.10846	90.0
543.82916	40.0
608.32031	40.0
608.81042	40.0
609.12177	440.0
610.133	160.0
703.16187	240.0
704.18256	30.0
705.2226	40.0
745.17511	30.0
771.17023	100.0
772.14148	50.0
806.00543	20.0
823.34045	30.0
865.22284	1000.0
865.62317	40.0
866.22333	210.0
867.22382	100.0

NAME:  NCGC00380463-01!(3S,4R)-7-hydroxy-3-[(3S,4R)-7-hydroxy-4-(4-hydroxyphenyl)-2-oxo-5-[(2S,3R,4S,5S,6R)-3,4,5-trihydroxy-6-(hydroxymethyl)oxan-2-yl]oxy-3,4-dihydrochromen-3-yl]-4-(4-hydroxyphenyl)-5-[(2S,3R,4S,5S,6R)-3,4,5-trihydroxy-6-(hydroxymethyl)oxan-2-yl]oxy-3,4-dihydrochromen-2-one
PRECURSORMZ:  911.22514629983
PRECURSORTYPE:  [M+FA-H]-
FORMULA:  C42H42O20
Ontology: Kingdom: Organic compounds;Superclass: Phenylpropanoids and polyketides;Class: Coumarins and derivatives;Subclass: Coumarin glycosides
INCHIKEY:  AYJLVEAOIKOWIP-UHFFFAOYNA-N
SMILES:  OCC1OC(OC2=CC(O)=CC3=C2C(C(C2C(C4=CC=C(O)C=C4)C4=C(OC2=O)C=C(O)C=C4OC2OC(CO)C(O)C(O)C2O)C(=O)O3)C2=CC=C(O)C=C2)C(O)C(O)C1O
RETENTIONTIME:  
CCS:  -1
IONMODE:  Negative
INSTRUMENTTYPE:  
INSTRUMENT:  Maxis II HD Q-TOF Bruker
COLLISIONENERGY:  
Comment:  DB#=CCMSLIB00000846499; origin=GNPS
Num Peaks:  62
109.02596	10.0
143.04909	20.0
145.02623	60.0
149.02203	10.0
161.02153	30.0
163.00171	20.0
165.02422	10.0
177.01886	30.0
185.05888	80.0
187.03419	20.0
189.01747	20.0
217.01289	240.0
227.03458	70.0
228.04277	150.0
229.04941	1000.0
230.05415	40.0
239.07306	30.0
241.01253	10.0
243.02272	10.0
243.06503	10.0
244.07214	10.0
251.075	10.0
253.0497	60.0
256.03616	30.0
257.04874	50.0
259.02426	10.0
268.03287	10.0
269.04346	70.0
271.05859	70.0
283.05756	90.0
309.05051	20.0
309.06879	20.0
310.04361	10.0
311.05487	40.0
329.08511	10.0
343.09717	10.0
353.03537	10.0
379.06564	70.0
391.1019	410.0
392.10941	20.0
393.10611	10.0
403.07553	10.0
415.0816	20.0
416.07809	10.0
419.09637	20.0
431.10321	10.0
445.12009	30.0
447.07321	150.0
453.13004	10.0
473.1174	20.0
497.13443	10.0
541.11066	100.0
577.15167	10.0
609.12231	280.0
609.19952	20.0
610.12897	60.0
660.17096	10.0
703.1676	210.0
704.15948	30.0
771.17651	40.0
865.22253	270.0
866.22742	70.0

NAME:  NCGC00380592-01!(26E,30E,34E)-2,6,10,14,18,22,26,30,34-nonamethyl-36-[(2S,3S,4S,5S,6R)-3,4,5-trihydroxy-6-(hydroxymethyl)oxan-2-yl]oxyhexatriaconta-2,26,30,34-tetraene-6,10,14,18,22-pentol
PRECURSORMZ:  927.67781639483
PRECURSORTYPE:  [M+FA-H]-
FORMULA:  C51H94O11
Ontology: Kingdom: Organic compounds;Superclass: Lipids and lipid;Class: Prenol lipids;Subclass: Polyterpenoids
INCHIKEY:  KBDCOGFOUWVOPM-UHFFFAOYNA-N
SMILES:  CC(C)=CCCC(C)(O)CCCC(C)(O)CCCC(C)(O)CCCC(C)(O)CCCC(C)(O)CCCC(C)=CCCC(C)=CCCC(C)=CCOC1OC(CO)C(O)C(O)C1O
RETENTIONTIME:  
CCS:  -1
IONMODE:  Negative
INSTRUMENTTYPE:  
INSTRUMENT:  Maxis II HD Q-TOF Bruker
COLLISIONENERGY:  
Comment:  DB#=CCMSLIB00000846502; origin=GNPS
Num Peaks:  31
83.01725	10.0
89.02922	20.0
95.01537	20.0
101.02285	100.0
113.02442	120.0
119.03418	240.0
141.01747	10.0
143.0341	70.0
149.04738	10.0
153.13144	20.0
161.04323	80.0
172.14168	10.0
179.05606	340.0
213.13918	10.0
231.21399	20.0
377.31409	10.0
415.57446	20.0
430.22913	10.0
442.57849	20.0
446.56607	10.0
469.38315	10.0
481.81403	10.0
542.97717	10.0
719.57721	10.0
719.62573	30.0
720.62463	20.0
879.26782	10.0
881.67365	1000.0
882.58319	10.0
882.67548	230.0
883.67206	10.0

NAME:  NCGC00347748-02!(30E,34E)-2,6,10,14,18,22,26,30,34-nonamethyl-36-[(2R,3R,4S,5S,6R)-3,4,5-trihydroxy-6-(hydroxymethyl)oxan-2-yl]oxyhexatriaconta-2,30,34-triene-6,10,14,18,22,26,27-heptol
PRECURSORMZ:  961.68329569883
PRECURSORTYPE:  [M+FA-H]-
FORMULA:  C51H96O13
Ontology: Kingdom: Organic compounds;Superclass: Lipids and lipid;Class: Prenol lipids;Subclass: Polyterpenoids
INCHIKEY:  MONOOAYGIBRELN-UHFFFAOYNA-N
SMILES:  CC(C)=CCCC(C)(O)CCCC(C)(O)CCCC(C)(O)CCCC(C)(O)CCCC(C)(O)CCCC(C)(O)C(O)CCC(C)=CCCC(C)=CCOC1OC(CO)C(O)C(O)C1O
RETENTIONTIME:  
CCS:  -1
IONMODE:  Negative
INSTRUMENTTYPE:  
INSTRUMENT:  Maxis II HD Q-TOF Bruker
COLLISIONENERGY:  
Comment:  DB#=CCMSLIB00000846504; origin=GNPS
Num Peaks:  18
89.02282	50.0
101.0236	50.0
102.02666	10.0
113.02576	50.0
119.03455	70.0
143.03514	10.0
149.05235	20.0
161.04562	30.0
171.13828	20.0
179.05475	220.0
299.24811	10.0
435.81354	10.0
474.60464	10.0
735.62225	30.0
736.61835	10.0
753.62317	40.0
915.67847	1000.0
916.68488	420.0

NAME:  NCGC00384865-01!5-hydroxy-7-[4-hydroxy-2-methoxy-3-(3-methylbut-2-enyl)phenyl]-2,2-dimethyl-7,8-dihydropyrano[3,2-g]chromen-6-one
PRECURSORMZ:  481.18679116983
PRECURSORTYPE:  [M+FA-H]-
FORMULA:  C26H28O6
Ontology: Kingdom: Organic compounds;Superclass: Phenylpropanoids and polyketides;Class: Isoflavonoids;Subclass: Isoflavans
INCHIKEY:  QJFJALJGKXGWFO-UHFFFAOYNA-N
SMILES:  COC1=C(C=CC(O)=C1CC=C(C)C)C1COC2=C(C1=O)C(O)=C1C=CC(C)(C)OC1=C2
RETENTIONTIME:  
CCS:  -1
IONMODE:  Negative
INSTRUMENTTYPE:  
INSTRUMENT:  Maxis II HD Q-TOF Bruker
COLLISIONENERGY:  
Comment:  DB#=CCMSLIB00000846506; origin=GNPS
Num Peaks:  5
159.08365	90.0
225.30226	110.0
231.06569	370.0
249.91362	50.0
435.18842	1000.0

NAME:  NCGC00384867-01!5-hydroxy-2-(4-hydroxy-3-methoxyphenyl)-6-methoxy-7-[(2S,3R,4S,5S,6R)-3,4,5-trihydroxy-6-(hydroxymethyl)oxan-2-yl]oxychromen-4-one
PRECURSORMZ:  491.11949976083
PRECURSORTYPE:  [M-H]-
FORMULA:  C23H24O12
Ontology: Kingdom: Organic compounds;Superclass: Phenylpropanoids and polyketides;Class: Flavonoids;Subclass: Flavonoid glycosides
INCHIKEY:  YFZSQPRYLBGYKE-UHFFFAOYNA-N
SMILES:  COC1=C(O)C=CC(=C1)C1=CC(=O)C2=C(O)C(OC)=C(OC3OC(CO)C(O)C(O)C3O)C=C2O1
RETENTIONTIME:  
CCS:  225.5699996
IONMODE:  Negative
INSTRUMENTTYPE:  
INSTRUMENT:  Maxis II HD Q-TOF Bruker
COLLISIONENERGY:  
Comment:  DB#=CCMSLIB00000846510; origin=GNPS
Num Peaks:  20
116.35147	20.0
147.04697	30.0
151.71896	20.0
235.92644	20.0
250.47798	10.0
285.03687	40.0
298.01083	50.0
299.05817	30.0
313.03455	430.0
314.03967	40.0
315.04831	80.0
316.34341	30.0
327.05423	50.0
328.06165	100.0
329.0679	60.0
360.056	50.0
401.10165	30.0
476.09818	150.0
491.11935	1000.0
491.19415	20.0

NAME:  NCGC00384875-01!5-hydroxy-2-(4-hydroxyphenyl)-7-[(2S,3R,4R,5R,6S)-3,4,5-trihydroxy-6-methyloxan-2-yl]oxy-3-[(2S,3R,4S,5R)-3,4,5-trihydroxyoxan-2-yl]oxychromen-4-one
PRECURSORMZ:  563.14062912983
PRECURSORTYPE:  [M-H]-
FORMULA:  C26H28O14
Ontology: Kingdom: Organic compounds;Superclass: Phenylpropanoids and polyketides;Class: Flavonoids;Subclass: Flavonoid glycosides
INCHIKEY:  DQBVFTJNUYZVQL-UHFFFAOYNA-N
SMILES:  CC1OC(OC2=CC(O)=C3C(=O)C(OC4OCC(O)C(O)C4O)=C(OC3=C2)C2=CC=C(O)C=C2)C(O)C(O)C1O
RETENTIONTIME:  
CCS:  232.1428298
IONMODE:  Negative
INSTRUMENTTYPE:  
INSTRUMENT:  Maxis II HD Q-TOF Bruker
COLLISIONENERGY:  
Comment:  DB#=CCMSLIB00000846512; origin=GNPS
Num Peaks:  17
104.55315	20.0
150.62181	20.0
151.09309	50.0
176.04602	40.0
255.02994	50.0
271.06656	40.0
283.02469	900.0
284.02444	110.0
285.04364	610.0
417.08527	20.0
430.09021	1000.0
431.10419	280.0
434.21988	30.0
563.13605	950.0
563.59528	20.0
564.13843	50.0
1540.2876	40.0

NAME:  NCGC00385833-01![(2S,3R)-2-(3,4-dihydroxyphenyl)-3,5-dihydroxy-3,4-dihydro-2H-chromen-7-yl] 3,4,5-trihydroxybenzoate
PRECURSORMZ:  441.08272032783
PRECURSORTYPE:  [M-H]-
FORMULA:  C22H18O10
Ontology: Kingdom: Organic compounds;Superclass: Phenylpropanoids and polyketides;Class: Flavonoids;Subclass: Flavans
INCHIKEY:  WKIHBIBUCQPPBY-UHFFFAOYNA-N
SMILES:  OC1CC2=C(O)C=C(OC(=O)C3=CC(O)=C(O)C(O)=C3)C=C2OC1C1=CC(O)=C(O)C=C1
RETENTIONTIME:  
CCS:  215.4664546
IONMODE:  Negative
INSTRUMENTTYPE:  
INSTRUMENT:  Maxis II HD Q-TOF Bruker
COLLISIONENERGY:  
Comment:  DB#=CCMSLIB00000846514; origin=GNPS
Num Peaks:  16
97.02972	50.0
109.02871	140.0
137.02258	80.0
162.03125	50.0
181.05649	50.0
187.03964	40.0
188.04529	40.0
212.04863	40.0
223.08252	30.0
230.05931	40.0
245.07857	70.0
288.91824	20.0
289.07254	1000.0
289.14963	20.0
291.7027	20.0
441.07996	260.0

NAME:  NCGC00385834-01!7-[(2S,3R,4S,5S,6R)-6-[[(2R,3R,4R)-3,4-dihydroxy-4-(hydroxymethyl)oxolan-2-yl]oxymethyl]-3,4,5-trihydroxyoxan-2-yl]oxy-6-methoxychromen-2-one
PRECURSORMZ:  531.13554344483
PRECURSORTYPE:  [M+FA-H]-
FORMULA:  C21H26O13
Ontology: Kingdom: Organic compounds;Superclass: Phenylpropanoids and polyketides;Class: Coumarins and derivatives;Subclass: Coumarin glycosides
INCHIKEY:  DCERMUGUBKSKBM-UHFFFAOYNA-N
SMILES:  COC1=C(OC2OC(COC3OCC(O)(CO)C3O)C(O)C(O)C2O)C=C2OC(=O)C=CC2=C1
RETENTIONTIME:  
CCS:  -1
IONMODE:  Negative
INSTRUMENTTYPE:  
INSTRUMENT:  Maxis II HD Q-TOF Bruker
COLLISIONENERGY:  
Comment:  DB#=CCMSLIB00000846516; origin=GNPS
Num Peaks:  5
100.2123	30.0
176.01199	280.0
190.26164	10.0
191.03464	1000.0
275.07724	10.0

NAME:  NCGC00385828-01!3-[(2S,3R,4S,5S,6R)-4,5-dihydroxy-6-(hydroxymethyl)-3-[(2S,3R,4R,5R,6S)-3,4,5-trihydroxy-6-methyloxan-2-yl]oxyoxan-2-yl]oxy-5,7-dihydroxy-2-(4-hydroxy-3-methoxyphenyl)chromen-4-one
PRECURSORMZ:  623.16175849783
PRECURSORTYPE:  [M-H]-
FORMULA:  C28H32O16
Ontology: Kingdom: Organic compounds;Superclass: Phenylpropanoids and polyketides;Class: Flavonoids;Subclass: Flavonoid glycosides
INCHIKEY:  QHLKSZBFIJJREC-UHFFFAOYNA-N
SMILES:  COC1=C(O)C=CC(=C1)C1=C(OC2OC(CO)C(O)C(O)C2OC2OC(C)C(O)C(O)C2O)C(=O)C2=C(O)C=C(O)C=C2O1
RETENTIONTIME:  
CCS:  238.2273829
IONMODE:  Negative
INSTRUMENTTYPE:  
INSTRUMENT:  Maxis II HD Q-TOF Bruker
COLLISIONENERGY:  
Comment:  DB#=CCMSLIB00000846518; origin=GNPS
Num Peaks:  11
84.99303	70.0
215.02827	80.0
299.01996	340.0
314.04282	1000.0
315.05408	160.0
445.03854	90.0
459.1243	30.0
623.16217	320.0
623.20483	190.0
624.18311	70.0
674.24786	40.0

NAME:  NCGC00385828-01!3-[(2S,3R,4S,5S,6R)-4,5-dihydroxy-6-(hydroxymethyl)-3-[(2S,3R,4R,5R,6S)-3,4,5-trihydroxy-6-methyloxan-2-yl]oxyoxan-2-yl]oxy-5,7-dihydroxy-2-(4-hydroxy-3-methoxyphenyl)chromen-4-one
PRECURSORMZ:  669.16723749783
PRECURSORTYPE:  [M+FA-H]-
FORMULA:  C28H32O16
Ontology: Kingdom: Organic compounds;Superclass: Phenylpropanoids and polyketides;Class: Flavonoids;Subclass: Flavonoid glycosides
INCHIKEY:  QHLKSZBFIJJREC-UHFFFAOYNA-N
SMILES:  COC1=C(O)C=CC(=C1)C1=C(OC2OC(CO)C(O)C(O)C2OC2OC(C)C(O)C(O)C2O)C(=O)C2=C(O)C=C(O)C=C2O1
RETENTIONTIME:  
CCS:  -1
IONMODE:  Negative
INSTRUMENTTYPE:  
INSTRUMENT:  Maxis II HD Q-TOF Bruker
COLLISIONENERGY:  
Comment:  DB#=CCMSLIB00000846520; origin=GNPS
Num Peaks:  17
226.98795	40.0
243.02585	30.0
243.04689	40.0
270.01822	40.0
271.02893	50.0
285.03421	40.0
285.07898	30.0
296.64655	10.0
299.02335	140.0
300.02722	80.0
313.02634	40.0
314.0437	730.0
315.06165	30.0
459.09467	40.0
622.03326	40.0
623.16119	1000.0
624.17297	80.0

NAME:  NCGC00169633-02!9-phenyl-1-(2,4,6-trihydroxyphenyl)nonan-1-one
PRECURSORMZ:  341.17583286483
PRECURSORTYPE:  [M-H]-
FORMULA:  C21H26O4
Ontology: Kingdom: Organic compounds;Superclass: Organic oxygen compounds;Class: Organooxygen compounds;Subclass: Carbonyl compounds
INCHIKEY:  OOGZWXIAHJKVAH-UHFFFAOYSA-N
SMILES:  OC1=CC(O)=C(C(=O)CCCCCCCCC2=CC=CC=C2)C(O)=C1
RETENTIONTIME:  
CCS:  204.3999331
IONMODE:  Negative
INSTRUMENTTYPE:  
INSTRUMENT:  Maxis II HD Q-TOF Bruker
COLLISIONENERGY:  
Comment:  DB#=CCMSLIB00000846522; origin=GNPS
Num Peaks:  9
124.01878	70.0
125.02446	30.0
255.17458	50.0
257.16324	80.0
297.17932	300.0
341.13086	60.0
341.18073	1000.0
341.29898	40.0
342.17706	50.0

NAME:  NCGC00347401-02!(E)-1-[2,4-dihydroxy-3-[(2-hydroxyphenyl)methyl]-6-methoxyphenyl]-3-phenylprop-2-en-1-one
PRECURSORMZ:  375.12379729183
PRECURSORTYPE:  [M-H]-
FORMULA:  C23H20O5
Ontology: Kingdom: Organic compounds;Superclass: Phenylpropanoids and polyketides;Class: Diarylheptanoids;Subclass: Linear diarylheptanoids
INCHIKEY:  IVKGLRZLTNXWKF-UHFFFAOYSA-N
SMILES:  COC1=C(C(=O)C=CC2=CC=CC=C2)C(O)=C(CC2=CC=CC=C2O)C(O)=C1
RETENTIONTIME:  
CCS:  -1
IONMODE:  Negative
INSTRUMENTTYPE:  
INSTRUMENT:  Maxis II HD Q-TOF Bruker
COLLISIONENERGY:  
Comment:  DB#=CCMSLIB00000846523; origin=GNPS
Num Peaks:  8
139.04045	180.0
169.62192	260.0
226.06261	60.0
254.0596	120.0
269.08273	770.0
281.09732	160.0
375.1228	1000.0
792.01471	70.0

NAME:  NCGC00385446-01![(2S,3R,4S,5S,6R)-2-[[(3S,4R,4aR)-4-ethenyl-4a-hydroxy-8-oxo-3,4,5,6-tetrahydropyrano[3,4-c]pyran-3-yl]oxy]-4,5-dihydroxy-6-(hydroxymethyl)oxan-3-yl] 2,4-dihydroxy-6-(3-hydroxyphenyl)benzoate
PRECURSORMZ:  601.15627919383
PRECURSORTYPE:  [M-H]-
FORMULA:  C29H30O14
Ontology: Kingdom: Organic compounds;Superclass: Benzenoids;Class: Benzene and substituted derivatives;Subclass: Biphenyls and derivatives
INCHIKEY:  UZYZCCWBBBCDAD-UHFFFAOYNA-N
SMILES:  OCC1OC(OC2OC=C3C(=O)OCCC3(O)C2C=C)C(OC(=O)C2=C(C=C(O)C=C2O)C2=CC(O)=CC=C2)C(O)C1O
RETENTIONTIME:  
CCS:  222.0499557
IONMODE:  Negative
INSTRUMENTTYPE:  
INSTRUMENT:  Maxis II HD Q-TOF Bruker
COLLISIONENERGY:  
Comment:  DB#=CCMSLIB00000846525; origin=GNPS
Num Peaks:  14
141.01776	260.0
149.05754	70.0
159.04233	70.0
159.61662	90.0
171.62889	20.0
183.04832	130.0
185.01814	20.0
201.05579	370.0
226.87268	100.0
227.03342	1000.0
245.04657	750.0
459.1315	70.0
601.15485	140.0
601.26367	50.0

NAME:  NCGC00385446-01![(2S,3R,4S,5S,6R)-2-[[(3S,4R,4aR)-4-ethenyl-4a-hydroxy-8-oxo-3,4,5,6-tetrahydropyrano[3,4-c]pyran-3-yl]oxy]-4,5-dihydroxy-6-(hydroxymethyl)oxan-3-yl] 2,4-dihydroxy-6-(3-hydroxyphenyl)benzoate
PRECURSORMZ:  647.16175819383
PRECURSORTYPE:  [M+FA-H]-
FORMULA:  C29H30O14
Ontology: Kingdom: Organic compounds;Superclass: Benzenoids;Class: Benzene and substituted derivatives;Subclass: Biphenyls and derivatives
INCHIKEY:  UZYZCCWBBBCDAD-UHFFFAOYNA-N
SMILES:  OCC1OC(OC2OC=C3C(=O)OCCC3(O)C2C=C)C(OC(=O)C2=C(C=C(O)C=C2O)C2=CC(O)=CC=C2)C(O)C1O
RETENTIONTIME:  
CCS:  -1
IONMODE:  Negative
INSTRUMENTTYPE:  
INSTRUMENT:  Maxis II HD Q-TOF Bruker
COLLISIONENERGY:  
Comment:  DB#=CCMSLIB00000846528; origin=GNPS
Num Peaks:  12
141.01881	100.0
157.06645	10.0
182.03369	10.0
183.04436	60.0
201.05527	200.0
226.03796	10.0
227.03644	1000.0
227.07719	10.0
245.0462	480.0
287.05701	30.0
459.13791	10.0
601.15356	60.0

NAME:  NCGC00385416-01!bis[[4-[(2S,3R,4S,5S,6R)-3,4,5-trihydroxy-6-(hydroxymethyl)oxan-2-yl]oxyphenyl]methyl] (2R)-2-hydroxy-2-(2-methylpropyl)butanedioate
PRECURSORMZ:  761.2429012809
PRECURSORTYPE:  [M+Cl]-
FORMULA:  C34H46O17
Ontology: Kingdom: Organic compounds;Superclass: Organic oxygen compounds;Class: Organooxygen compounds;Subclass: Carbohydrates and carbohydrate conjugates
INCHIKEY:  GQNUDXCKVPLQBI-UHFFFAOYNA-N
SMILES:  CC(C)CC(O)(CC(=O)OCC1=CC=C(OC2OC(CO)C(O)C(O)C2O)C=C1)C(=O)OCC1=CC=C(OC2OC(CO)C(O)C(O)C2O)C=C1
RETENTIONTIME:  
CCS:  -1
IONMODE:  Negative
INSTRUMENTTYPE:  
INSTRUMENT:  Maxis II HD Q-TOF Bruker
COLLISIONENERGY:  
Comment:  DB#=CCMSLIB00000846530; origin=GNPS
Num Peaks:  10
96.22369	280.0
123.04292	460.0
127.07812	220.0
129.05231	160.0
191.08501	140.0
242.10947	90.0
250.14876	170.0
457.1767	1000.0
590.01178	100.0
761.24432	190.0

NAME:  NCGC00385416-01!bis[[4-[(2S,3R,4S,5S,6R)-3,4,5-trihydroxy-6-(hydroxymethyl)oxan-2-yl]oxyphenyl]methyl] (2R)-2-hydroxy-2-(2-methylpropyl)butanedioate
PRECURSORMZ:  771.27170256883
PRECURSORTYPE:  [M+FA-H]-
FORMULA:  C34H46O17
Ontology: Kingdom: Organic compounds;Superclass: Organic oxygen compounds;Class: Organooxygen compounds;Subclass: Carbohydrates and carbohydrate conjugates
INCHIKEY:  GQNUDXCKVPLQBI-UHFFFAOYNA-N
SMILES:  CC(C)CC(O)(CC(=O)OCC1=CC=C(OC2OC(CO)C(O)C(O)C2O)C=C1)C(=O)OCC1=CC=C(OC2OC(CO)C(O)C(O)C2O)C=C1
RETENTIONTIME:  
CCS:  -1
IONMODE:  Negative
INSTRUMENTTYPE:  
INSTRUMENT:  Maxis II HD Q-TOF Bruker
COLLISIONENERGY:  
Comment:  DB#=CCMSLIB00000846532; origin=GNPS
Num Peaks:  12
99.08282	70.0
123.04575	270.0
127.07729	240.0
129.05615	260.0
153.05547	240.0
161.04375	30.0
171.06673	140.0
189.07794	50.0
285.09964	100.0
439.17184	10.0
457.17325	1000.0
458.17554	60.0

NAME:  NCGC00347453-02!(E)-1,7-bis(4-hydroxyphenyl)hept-4-en-3-one
PRECURSORMZ:  341.13944705183
PRECURSORTYPE:  [M+FA-H]-
FORMULA:  C19H20O3
Ontology: Kingdom: Organic compounds;Superclass: Phenylpropanoids and polyketides;Class: Diarylheptanoids;Subclass: Linear diarylheptanoids
INCHIKEY:  GIKJADRKBZHVCY-UHFFFAOYSA-N
SMILES:  OC1=CC=C(CCC=CC(=O)CCC2=CC=C(O)C=C2)C=C1
RETENTIONTIME:  
CCS:  -1
IONMODE:  Negative
INSTRUMENTTYPE:  
INSTRUMENT:  Maxis II HD Q-TOF Bruker
COLLISIONENERGY:  
Comment:  DB#=CCMSLIB00000846534; origin=GNPS
Num Peaks:  5
83.04982	110.0
178.72581	20.0
189.09174	1000.0
294.11475	80.0
295.13525	270.0

NAME:  NCGC00381180-01!3-[5-(3,5-dihydroxydecanoyloxy)-3-hydroxydecanoyl]oxy-5-hydroxydecanoic acid
PRECURSORMZ:  575.38007155083
PRECURSORTYPE:  [M-H]-
FORMULA:  C30H56O10
Ontology: Kingdom: Organic compounds;Superclass: Lipids and lipid;Class: Fatty Acyls;Subclass: Fatty acid esters
INCHIKEY:  XBEDTLDOFCRJHC-UHFFFAOYNA-N
SMILES:  CCCCCC(O)CC(O)CC(=O)OC(CCCCC)CC(O)CC(=O)OC(CC(O)CCCCC)CC(O)=O
RETENTIONTIME:  
CCS:  -1
IONMODE:  Negative
INSTRUMENTTYPE:  
INSTRUMENT:  Maxis II HD Q-TOF Bruker
COLLISIONENERGY:  
Comment:  DB#=CCMSLIB00000846535; origin=GNPS
Num Peaks:  12
167.11249	20.0
185.11687	300.0
202.67685	20.0
203.12924	1000.0
203.40988	10.0
204.68057	10.0
227.13248	10.0
245.13498	70.0
371.24728	70.0
389.25607	90.0
557.37305	20.0
575.3764	70.0

NAME:  NCGC00180501-02!3-[4,5-dihydroxy-6-(hydroxymethyl)-3-[3,4,5-trihydroxy-6-(hydroxymethyl)oxan-2-yl]oxyoxan-2-yl]oxy-5,7-dihydroxy-2-(4-hydroxyphenyl)chromen-4-one
PRECURSORMZ:  609.14610843383
PRECURSORTYPE:  [M-H]-
FORMULA:  C27H30O16
Ontology: Kingdom: Organic compounds;Superclass: Phenylpropanoids and polyketides;Class: Flavonoids;Subclass: Flavonoid glycosides
INCHIKEY:  LKZDFKLGDGSGEO-UHFFFAOYNA-N
SMILES:  OCC1OC(OC2C(O)C(O)C(CO)OC2OC2=C(OC3=CC(O)=CC(O)=C3C2=O)C2=CC=C(O)C=C2)C(O)C(O)C1O
RETENTIONTIME:  
CCS:  227.6112903
IONMODE:  Negative
INSTRUMENTTYPE:  
INSTRUMENT:  Maxis II HD Q-TOF Bruker
COLLISIONENERGY:  
Comment:  DB#=CCMSLIB00000846538; origin=GNPS
Num Peaks:  19
105.06992	20.0
127.81428	20.0
151.00174	20.0
169.01213	20.0
178.99889	30.0
227.03194	90.0
229.04308	40.0
255.0284	20.0
256.03381	50.0
258.05756	30.0
279.05423	20.0
283.0159	30.0
284.03354	970.0
285.04144	270.0
285.09998	30.0
300.02777	30.0
429.07376	50.0
609.14807	1000.0
610.15247	30.0

NAME:  NCGC00180501-02!3-[4,5-dihydroxy-6-(hydroxymethyl)-3-[3,4,5-trihydroxy-6-(hydroxymethyl)oxan-2-yl]oxyoxan-2-yl]oxy-5,7-dihydroxy-2-(4-hydroxyphenyl)chromen-4-one
PRECURSORMZ:  655.15158743383
PRECURSORTYPE:  [M+FA-H]-
FORMULA:  C27H30O16
Ontology: Kingdom: Organic compounds;Superclass: Phenylpropanoids and polyketides;Class: Flavonoids;Subclass: Flavonoid glycosides
INCHIKEY:  LKZDFKLGDGSGEO-UHFFFAOYNA-N
SMILES:  OCC1OC(OC2C(O)C(O)C(CO)OC2OC2=C(OC3=CC(O)=CC(O)=C3C2=O)C2=CC=C(O)C=C2)C(O)C(O)C1O
RETENTIONTIME:  
CCS:  -1
IONMODE:  Negative
INSTRUMENTTYPE:  
INSTRUMENT:  Maxis II HD Q-TOF Bruker
COLLISIONENERGY:  
Comment:  DB#=CCMSLIB00000846540; origin=GNPS
Num Peaks:  16
134.62595	10.0
151.00208	20.0
179.00208	20.0
183.0468	10.0
223.58849	10.0
227.03426	50.0
255.03091	100.0
256.03168	20.0
261.04306	20.0
283.02667	10.0
284.03253	720.0
284.19342	20.0
285.04321	180.0
609.14746	1000.0
610.13849	20.0
613.70837	10.0

NAME:  NCGC00169653-02!7-[3-[3,4-dihydroxy-4-(hydroxymethyl)oxolan-2-yl]oxy-4,5-dihydroxy-6-(hydroxymethyl)oxan-2-yl]oxy-5-hydroxy-2-(4-hydroxyphenyl)chromen-4-one
PRECURSORMZ:  563.14062912983
PRECURSORTYPE:  [M-H]-
FORMULA:  C26H28O14
Ontology: Kingdom: Organic compounds;Superclass: Phenylpropanoids and polyketides;Class: Flavonoids;Subclass: Flavonoid glycosides
INCHIKEY:  NTDLXWMIWOECHG-UHFFFAOYNA-N
SMILES:  OCC1OC(OC2=CC(O)=C3C(=O)C=C(OC3=C2)C2=CC=C(O)C=C2)C(OC2OCC(O)(CO)C2O)C(O)C1O
RETENTIONTIME:  
CCS:  219.4413044
IONMODE:  Negative
INSTRUMENTTYPE:  
INSTRUMENT:  Maxis II HD Q-TOF Bruker
COLLISIONENERGY:  
Comment:  DB#=CCMSLIB00000846542; origin=GNPS
Num Peaks:  8
195.07335	20.0
268.03577	20.0
269.04462	690.0
270.043	30.0
285.83655	20.0
444.11111	30.0
563.14111	1000.0
564.14117	70.0

NAME:  NCGC00169653-02!7-[3-[3,4-dihydroxy-4-(hydroxymethyl)oxolan-2-yl]oxy-4,5-dihydroxy-6-(hydroxymethyl)oxan-2-yl]oxy-5-hydroxy-2-(4-hydroxyphenyl)chromen-4-one
PRECURSORMZ:  609.14610812983
PRECURSORTYPE:  [M+FA-H]-
FORMULA:  C26H28O14
Ontology: Kingdom: Organic compounds;Superclass: Phenylpropanoids and polyketides;Class: Flavonoids;Subclass: Flavonoid glycosides
INCHIKEY:  NTDLXWMIWOECHG-UHFFFAOYNA-N
SMILES:  OCC1OC(OC2=CC(O)=C3C(=O)C=C(OC3=C2)C2=CC=C(O)C=C2)C(OC2OCC(O)(CO)C2O)C(O)C1O
RETENTIONTIME:  
CCS:  -1
IONMODE:  Negative
INSTRUMENTTYPE:  
INSTRUMENT:  Maxis II HD Q-TOF Bruker
COLLISIONENERGY:  
Comment:  DB#=CCMSLIB00000846544; origin=GNPS
Num Peaks:  14
159.04137	20.0
228.96681	20.0
267.06595	20.0
267.44897	10.0
267.97302	20.0
268.04581	50.0
268.64267	30.0
269.04874	570.0
296.09262	20.0
298.87186	20.0
413.10641	30.0
431.10257	30.0
563.14294	1000.0
563.19788	60.0

NAME:  NCGC00385506-01!5,7-dihydroxy-2-[3-hydroxy-4-[(2S,3R,4S,5S,6R)-3,4,5-trihydroxy-6-(hydroxymethyl)oxan-2-yl]oxyphenyl]-3-[(2S,3R,4S,5S,6R)-3,4,5-trihydroxy-6-(hydroxymethyl)oxan-2-yl]oxychromen-4-one
PRECURSORMZ:  625.14102305383
PRECURSORTYPE:  [M-H]-
FORMULA:  C27H30O17
Ontology: Kingdom: Organic compounds;Superclass: Phenylpropanoids and polyketides;Class: Flavonoids;Subclass: Flavonoid glycosides
INCHIKEY:  RPVIQWDFJPYNJM-UHFFFAOYNA-N
SMILES:  OCC1OC(OC2=C(O)C=C(C=C2)C2=C(OC3OC(CO)C(O)C(O)C3O)C(=O)C3=C(O)C=C(O)C=C3O2)C(O)C(O)C1O
RETENTIONTIME:  
CCS:  246.2328397
IONMODE:  Negative
INSTRUMENTTYPE:  
INSTRUMENT:  Maxis II HD Q-TOF Bruker
COLLISIONENERGY:  
Comment:  DB#=CCMSLIB00000846546; origin=GNPS
Num Peaks:  19
151.00446	30.0
154.03706	20.0
154.08322	10.0
161.10579	20.0
163.00514	10.0
179.00073	80.0
255.03468	20.0
271.02011	50.0
272.034	10.0
299.01672	50.0
300.02927	440.0
301.0354	770.0
301.10373	10.0
302.04141	10.0
313.03372	10.0
462.0708	10.0
463.08871	1000.0
625.13922	150.0
626.14624	20.0

NAME:  NCGC00180577-02!6-[[(3S,6aR,6bS,8aR,9R,12aS,14bR)-9-hydroxy-4,4,6a,6b,8a,11,11,14b-octamethyl-1,2,3,4a,5,6,7,8,9,10,12,12a,14,14a-tetradecahydropicen-3-yl]oxy]-5-[4,5-dihydroxy-6-(hydroxymethyl)-3-(3,4,5-trihydroxy-6-methyloxan-2-yl)oxyoxan-2-yl]oxy-3,4-dihydroxyoxane-2-carboxylic acid
PRECURSORMZ:  925.51662459983
PRECURSORTYPE:  [M-H]-
FORMULA:  C48H78O17
Ontology: Kingdom: Organic compounds;Superclass: Lipids and lipid;Class: Prenol lipids;Subclass: Terpene glycosides
INCHIKEY:  ISTWCKNDZOSMPU-UHFFFAOYNA-N
SMILES:  CC1OC(OC2C(O)C(O)C(CO)OC2OC2C(O)C(O)C(OC2OC2CCC3(C)C(CCC4(C)C3CC=C3C5CC(C)(C)CC(O)C5(C)CCC43C)C2(C)C)C(O)=O)C(O)C(O)C1O
RETENTIONTIME:  
CCS:  296.554599
IONMODE:  Negative
INSTRUMENTTYPE:  
INSTRUMENT:  Maxis II HD Q-TOF Bruker
COLLISIONENERGY:  
Comment:  DB#=CCMSLIB00000846548; origin=GNPS
Num Peaks:  38
85.02781	50.0
87.05431	20.0
89.0256	20.0
99.01067	70.0
101.03262	20.0
112.01608	20.0
113.02515	40.0
119.03268	50.0
131.03638	20.0
143.03229	70.0
145.04729	20.0
149.05122	20.0
157.01317	50.0
161.05374	10.0
163.05948	40.0
195.05246	20.0
205.06891	120.0
257.06149	20.0
265.09534	40.0
432.71179	10.0
433.50323	10.0
439.35419	20.0
441.71771	40.0
443.99915	20.0
451.22171	10.0
459.37308	10.0
483.11923	10.0
509.3894	30.0
599.3714	40.0
706.68561	10.0
717.40948	10.0
863.52094	40.0
881.54523	20.0
907.59686	30.0
924.80432	10.0
925.51776	1000.0
926.52399	360.0
1313.06348	20.0

NAME:  NCGC00180577-02!6-[[(3S,6aR,6bS,8aR,9R,12aS,14bR)-9-hydroxy-4,4,6a,6b,8a,11,11,14b-octamethyl-1,2,3,4a,5,6,7,8,9,10,12,12a,14,14a-tetradecahydropicen-3-yl]oxy]-5-[4,5-dihydroxy-6-(hydroxymethyl)-3-(3,4,5-trihydroxy-6-methyloxan-2-yl)oxyoxan-2-yl]oxy-3,4-dihydroxyoxane-2-carboxylic acid
PRECURSORMZ:  971.52210359983
PRECURSORTYPE:  [M+FA-H]-
FORMULA:  C48H78O17
Ontology: Kingdom: Organic compounds;Superclass: Lipids and lipid;Class: Prenol lipids;Subclass: Terpene glycosides
INCHIKEY:  ISTWCKNDZOSMPU-UHFFFAOYNA-N
SMILES:  CC1OC(OC2C(O)C(O)C(CO)OC2OC2C(O)C(O)C(OC2OC2CCC3(C)C(CCC4(C)C3CC=C3C5CC(C)(C)CC(O)C5(C)CCC43C)C2(C)C)C(O)=O)C(O)C(O)C1O
RETENTIONTIME:  
CCS:  -1
IONMODE:  Negative
INSTRUMENTTYPE:  
INSTRUMENT:  Maxis II HD Q-TOF Bruker
COLLISIONENERGY:  
Comment:  DB#=CCMSLIB00000846549; origin=GNPS
Num Peaks:  33
85.02972	10.0
95.00994	10.0
99.0089	40.0
101.02397	20.0
103.04406	30.0
113.02631	90.0
115.03732	20.0
119.03893	20.0
131.03165	60.0
143.03351	60.0
145.05482	20.0
157.01012	10.0
161.04449	30.0
163.06033	90.0
202.14082	10.0
205.07155	180.0
212.39601	10.0
247.08206	30.0
253.63533	20.0
405.3074	10.0
426.48813	10.0
432.64566	10.0
439.35602	20.0
440.35071	10.0
474.94128	10.0
509.40359	30.0
599.39771	60.0
717.46674	20.0
921.45245	10.0
925.5199	1000.0
926.51733	250.0
927.51569	30.0
1906.56982	10.0

NAME:  NCGC00169879-02!2-hydroxy-6-[2-hydroxy-6-(hydroxymethyl)-4-methoxyphenoxy]-4-methylbenzoic acid
PRECURSORMZ:  319.08232640283
PRECURSORTYPE:  [M-H]-
FORMULA:  C16H16O7
Ontology: Kingdom: Organic compounds;Superclass: Benzenoids;Class: Benzene and substituted derivatives;Subclass: Diphenylethers
INCHIKEY:  ULPVIBVOKQAXJB-UHFFFAOYSA-N
SMILES:  COC1=CC(O)=C(OC2=CC(C)=CC(O)=C2C(O)=O)C(CO)=C1
RETENTIONTIME:  
CCS:  189.1475521
IONMODE:  Negative
INSTRUMENTTYPE:  
INSTRUMENT:  Maxis II HD Q-TOF Bruker
COLLISIONENERGY:  
Comment:  DB#=CCMSLIB00000846552; origin=GNPS
Num Peaks:  8
122.04681	150.0
125.02124	150.0
153.0195	390.0
242.06157	140.0
260.07068	1000.0
275.09189	300.0
318.67587	220.0
319.08789	230.0

NAME:  NCGC00169587-03!methyl 3-(3,4-dihydroxyphenyl)-2-[[4-hydroxy-3-(3-methylbut-2-enyl)phenyl]methyl]-4-methoxy-5-oxofuran-2-carboxylate
PRECURSORMZ:  453.15549134483
PRECURSORTYPE:  [M-H]-
FORMULA:  C25H26O8
Ontology: Kingdom: Organic compounds;Superclass: Benzenoids;Class: Phenols;Subclass: Benzenediols
INCHIKEY:  ABJOCPBDVGJFLG-UHFFFAOYNA-N
SMILES:  COC(=O)C1(CC2=CC(CC=C(C)C)=C(O)C=C2)OC(=O)C(OC)=C1C1=CC(O)=C(O)C=C1
RETENTIONTIME:  
CCS:  -1
IONMODE:  Negative
INSTRUMENTTYPE:  
INSTRUMENT:  Maxis II HD Q-TOF Bruker
COLLISIONENERGY:  
Comment:  DB#=CCMSLIB00000846553; origin=GNPS
Num Peaks:  7
132.69269	70.0
221.00287	540.0
232.00079	70.0
247.01881	80.0
264.02515	1000.0
279.05222	890.0
453.15967	320.0

NAME:  NCGC00180802-02!
PRECURSORMZ:  487.19735615783
PRECURSORTYPE:  [M-H]-
FORMULA:  C26H32O9
Ontology: Kingdom: Organic compounds;Superclass: Organoheterocyclic compounds;Class: Benzopyrans;
INCHIKEY:  UEVWVMGTABEFID-UHFFFAOYNA-N
SMILES:  COC1=C2C(=O)OCC2=C(C)C2=C1CC1C(C)(CC3(O)OCC4(C)OC5(CCC1(C)C34O5)OC)O2
RETENTIONTIME:  
CCS:  -1
IONMODE:  Negative
INSTRUMENTTYPE:  
INSTRUMENT:  Maxis II HD Q-TOF Bruker
COLLISIONENERGY:  
Comment:  DB#=CCMSLIB00000846556; origin=GNPS
Num Peaks:  18
107.04868	50.0
149.09798	90.0
161.05763	60.0
163.06979	40.0
177.08321	40.0
191.03902	50.0
205.05513	70.0
226.05838	40.0
233.12474	60.0
251.13554	50.0
279.51727	60.0
281.14026	730.0
306.52161	20.0
484.08578	20.0
486.17743	40.0
486.90527	10.0
487.02127	30.0
487.19476	1000.0

NAME:  NCGC00180802-02!
PRECURSORMZ:  533.20283515783
PRECURSORTYPE:  [M+FA-H]-
FORMULA:  C26H32O9
Ontology: Kingdom: Organic compounds;Superclass: Organoheterocyclic compounds;Class: Benzopyrans;
INCHIKEY:  UEVWVMGTABEFID-UHFFFAOYNA-N
SMILES:  COC1=C2C(=O)OCC2=C(C)C2=C1CC1C(C)(CC3(O)OCC4(C)OC5(CCC1(C)C34O5)OC)O2
RETENTIONTIME:  
CCS:  -1
IONMODE:  Negative
INSTRUMENTTYPE:  
INSTRUMENT:  Maxis II HD Q-TOF Bruker
COLLISIONENERGY:  
Comment:  DB#=CCMSLIB00000846558; origin=GNPS
Num Peaks:  10
123.07816	40.0
193.04697	40.0
219.10007	60.0
251.13013	10.0
281.14255	380.0
456.21173	60.0
457.19437	30.0
469.18524	30.0
487.20117	1000.0
775.20636	20.0

NAME:  NCGC00347452-02!4-[4-(2,4-dihydroxy-3,6-dimethylbenzoyl)oxy-2-methoxy-3,5,6-trimethylbenzoyl]oxy-2-methoxy-3,5,6-trimethylbenzoic acid
PRECURSORMZ:  565.20792084283
PRECURSORTYPE:  [M-H]-
FORMULA:  C31H34O10
Ontology: Kingdom: Organic compounds;Superclass: Phenylpropanoids and polyketides;Class: Depsides and depsidones;
INCHIKEY:  UULGWGARYDGVBM-UHFFFAOYSA-N
SMILES:  COC1=C(C(O)=O)C(C)=C(C)C(OC(=O)C2=C(OC)C(C)=C(OC(=O)C3=C(O)C(C)=C(O)C=C3C)C(C)=C2C)=C1C
RETENTIONTIME:  
CCS:  266.9075237
IONMODE:  Negative
INSTRUMENTTYPE:  
INSTRUMENT:  Maxis II HD Q-TOF Bruker
COLLISIONENERGY:  
Comment:  DB#=CCMSLIB00000846560; origin=GNPS
Num Peaks:  10
73.41776	30.0
119.04997	210.0
131.31424	30.0
150.06755	210.0
163.03893	1000.0
163.11684	10.0
165.09203	360.0
181.04755	210.0
209.08167	930.0
689.67902	20.0

NAME:  NCGC00384529-01!5,7-dihydroxy-2-methyl-8-[(2S,3R,4R,5S,6R)-3,4,5-trihydroxy-6-(hydroxymethyl)oxan-2-yl]chromen-4-one
PRECURSORMZ:  353.08780570783
PRECURSORTYPE:  [M-H]-
FORMULA:  C16H18O9
Ontology: Kingdom: Organic compounds;Superclass: Organic oxygen compounds;Class: Organooxygen compounds;Subclass: Carbohydrates and carbohydrate conjugates
INCHIKEY:  UDTUCCXZNVRBEJ-UHFFFAOYNA-N
SMILES:  CC1=CC(=O)C2=C(O1)C(C1OC(CO)C(O)C(O)C1O)=C(O)C=C2O
RETENTIONTIME:  
CCS:  190.4798122
IONMODE:  Negative
INSTRUMENTTYPE:  
INSTRUMENT:  Maxis II HD Q-TOF Bruker
COLLISIONENERGY:  
Comment:  DB#=CCMSLIB00000846562; origin=GNPS
Num Peaks:  7
205.0547	210.0
233.04716	1000.0
352.93896	220.0
353.08435	780.0
488.4931	310.0
1084.99597	50.0
1277.2345	60.0

NAME:  NCGC00384669-01![7-(3,4-dihydroxyphenyl)-1-(4-hydroxyphenyl)heptan-3-yl] acetate
PRECURSORMZ:  357.17074748483
PRECURSORTYPE:  [M-H]-
FORMULA:  C21H26O5
Ontology: Kingdom: Organic compounds;Superclass: Phenylpropanoids and polyketides;Class: Diarylheptanoids;Subclass: Linear diarylheptanoids
INCHIKEY:  HLPXMGYELYMAQM-UHFFFAOYNA-N
SMILES:  CC(=O)OC(CCCCC1=CC(O)=C(O)C=C1)CCC1=CC=C(O)C=C1
RETENTIONTIME:  
CCS:  214.7891462
IONMODE:  Negative
INSTRUMENTTYPE:  
INSTRUMENT:  Maxis II HD Q-TOF Bruker
COLLISIONENERGY:  
Comment:  DB#=CCMSLIB00000846564; origin=GNPS
Num Peaks:  7
70.72889	60.0
176.45621	70.0
297.14716	300.0
315.16425	270.0
357.17307	1000.0
357.23969	120.0
358.18729	110.0

NAME:  NCGC00384531-01!3-(2,4-dihydroxyphenyl)-7-hydroxy-6,8-bis(3-methylbut-2-enyl)-2,3-dihydrochromen-4-one
PRECURSORMZ:  407.18639754983
PRECURSORTYPE:  [M-H]-
FORMULA:  C25H28O5
Ontology: Kingdom: Organic compounds;Superclass: Phenylpropanoids and polyketides;Class: Isoflavonoids;Subclass: Isoflavans
INCHIKEY:  QUBRRXBPXPHDJO-UHFFFAOYNA-N
SMILES:  CC(C)=CCC1=CC2=C(OCC(C2=O)C2=C(O)C=C(O)C=C2)C(CC=C(C)C)=C1O
RETENTIONTIME:  
CCS:  228.3671622
IONMODE:  Negative
INSTRUMENTTYPE:  
INSTRUMENT:  Maxis II HD Q-TOF Bruker
COLLISIONENERGY:  
Comment:  DB#=CCMSLIB00000846565; origin=GNPS
Num Peaks:  10
90.30555	30.0
161.02501	660.0
173.06805	70.0
177.09158	40.0
202.461	70.0
212.28796	40.0
245.15475	1000.0
256.09753	20.0
407.18637	160.0
2001.36499	60.0

NAME:  NCGC00169635-03!3,5-dichloro-2-hydroxy-6-(4-hydroxy-2-methoxy-6-methoxycarbonylphenoxy)-4-methylbenzoic acid
PRECURSORMZ:  414.99929634783
PRECURSORTYPE:  [M-H]-
FORMULA:  C17H14Cl2O8
Ontology: Kingdom: Organic compounds;Superclass: Benzenoids;Class: Benzene and substituted derivatives;Subclass: Diphenylethers
INCHIKEY:  MYFFDMMUGIQJQM-UHFFFAOYSA-N
SMILES:  COC(=O)C1=C(OC2=C(Cl)C(C)=C(Cl)C(O)=C2C(O)=O)C(OC)=CC(O)=C1
RETENTIONTIME:  
CCS:  -1
IONMODE:  Negative
INSTRUMENTTYPE:  
INSTRUMENT:  Maxis II HD Q-TOF Bruker
COLLISIONENERGY:  
Comment:  DB#=CCMSLIB00000846568; origin=GNPS
Num Peaks:  10
167.08951	20.0
175.2664	30.0
184.00771	30.0
213.01498	30.0
295.96295	50.0
323.95837	420.0
324.9642	40.0
338.98553	1000.0
371.31	40.0
372.25058	10.0

NAME:  NCGC00384665-01!2-(3,4-dihydroxyphenyl)-5-hydroxy-3,7-bis[[(2S,3R,4R,5R,6S)-3,4,5-trihydroxy-6-methyloxan-2-yl]oxy]chromen-4-one
PRECURSORMZ:  593.15119381383
PRECURSORTYPE:  [M-H]-
FORMULA:  C27H30O15
Ontology: Kingdom: Organic compounds;Superclass: Phenylpropanoids and polyketides;Class: Flavonoids;Subclass: Flavonoid glycosides
INCHIKEY:  GXLQUHPXGLZNGE-UHFFFAOYNA-N
SMILES:  CC1OC(OC2=CC(O)=C3C(=O)C(OC4OC(C)C(O)C(O)C4O)=C(OC3=C2)C2=CC(O)=C(O)C=C2)C(O)C(O)C1O
RETENTIONTIME:  
CCS:  255.9400965
IONMODE:  Negative
INSTRUMENTTYPE:  
INSTRUMENT:  Maxis II HD Q-TOF Bruker
COLLISIONENERGY:  
Comment:  DB#=CCMSLIB00000846569; origin=GNPS
Num Peaks:  22
151.00406	40.0
153.55464	40.0
259.02139	20.0
271.02231	190.0
280.91412	30.0
283.02405	90.0
284.17996	20.0
293.54773	20.0
296.86185	30.0
298.51157	10.0
299.01797	760.0
300.02542	110.0
301.03308	510.0
324.12265	20.0
431.09491	20.0
446.08347	960.0
446.99234	70.0
447.09332	660.0
447.2684	10.0
447.52765	10.0
449.34421	20.0
593.15442	1000.0

NAME:  NCGC00384665-01!2-(3,4-dihydroxyphenyl)-5-hydroxy-3,7-bis[[(2S,3R,4R,5R,6S)-3,4,5-trihydroxy-6-methyloxan-2-yl]oxy]chromen-4-one
PRECURSORMZ:  639.15667281383
PRECURSORTYPE:  [M+FA-H]-
FORMULA:  C27H30O15
Ontology: Kingdom: Organic compounds;Superclass: Phenylpropanoids and polyketides;Class: Flavonoids;Subclass: Flavonoid glycosides
INCHIKEY:  GXLQUHPXGLZNGE-UHFFFAOYNA-N
SMILES:  CC1OC(OC2=CC(O)=C3C(=O)C(OC4OC(C)C(O)C(O)C4O)=C(OC3=C2)C2=CC(O)=C(O)C=C2)C(O)C(O)C1O
RETENTIONTIME:  
CCS:  -1
IONMODE:  Negative
INSTRUMENTTYPE:  
INSTRUMENT:  Maxis II HD Q-TOF Bruker
COLLISIONENERGY:  
Comment:  DB#=CCMSLIB00000846572; origin=GNPS
Num Peaks:  10
178.99857	20.0
190.15846	40.0
271.03595	150.0
299.02414	280.0
301.03119	280.0
348.13821	40.0
446.08102	160.0
447.09192	340.0
593.14917	1000.0
1714.58545	50.0

NAME:  NCGC00347522-02!2-[[1-[2-[[2-[[2-[[2-[[2-[[2-[[2-[[2-[(2-acetamido-3-phenylpropanoyl)amino]-2-methylpropanoyl]amino]-2-methylpropanoyl]amino]-2-methylpropanoyl]amino]-3-methylbutanoyl]amino]acetyl]amino]-4-methylpentanoyl]amino]-2-methylpropanoyl]amino]-2-methylpropanoyl]-4-hydroxypyrrolidine-2-carbonyl]amino]-N-[1-[4-hydroxy-2-[[1-[(1-hydroxy-3-phenylpropan-2-yl)amino]-2-methyl-1-oxopropan-2-yl]carbamoyl]pyrrolidin-1-yl]-2-methyl-1-oxopropan-2-yl]pentanediamide
PRECURSORMZ:  1603.87411819183
PRECURSORTYPE:  [M+FA-H]-
FORMULA:  C76H118N16O19
Ontology: Kingdom: Organic compounds;Superclass: Organic acids and derivatives;Class: Carboxylic acids and derivatives;Subclass: Amino acids
INCHIKEY:  OESVNVWXOTVKHT-UHFFFAOYNA-N
SMILES:  CC(C)CC(N=C(O)CN=C(O)C(N=C(O)C(C)(C)N=C(O)C(C)(C)N=C(O)C(C)(C)N=C(O)C(CC1=CC=CC=C1)N=C(C)O)C(C)C)C(O)=NC(C)(C)C(O)=NC(C)(C)C(=O)N1CC(O)CC1C(O)=NC(CCC(O)=N)C(O)=NC(C)(C)C(=O)N1CC(O)CC1C(O)=NC(C)(C)C(O)=NC(CO)CC1=CC=CC=C1
RETENTIONTIME:  
CCS:  -1
IONMODE:  Negative
INSTRUMENTTYPE:  
INSTRUMENT:  Maxis II HD Q-TOF Bruker
COLLISIONENERGY:  
Comment:  DB#=CCMSLIB00000846573; origin=GNPS
Num Peaks:  32
101.07256	10.0
112.04058	20.0
127.05168	20.0
129.06644	50.0
130.05144	10.0
151.08856	30.0
186.08896	10.0
194.09003	10.0
196.10934	330.0
197.09355	50.0
214.12024	280.0
215.1212	10.0
235.14508	30.0
240.09767	20.0
257.12701	30.0
261.12595	20.0
281.16272	30.0
325.15256	60.0
330.1835	40.0
346.17841	10.0
348.19342	1000.0
349.19699	110.0
412.22238	40.0
656.33887	10.0
674.35089	390.0
675.35449	90.0
676.36304	10.0
769.45905	10.0
882.51263	20.0
1557.87305	310.0
1558.87878	240.0
1559.8811	70.0

NAME:  NCGC00169848-02!3-[4,5-dihydroxy-3-(3,4,5-trihydroxy-6-methyloxan-2-yl)oxy-6-[(3,4,5-trihydroxy-6-methyloxan-2-yl)oxymethyl]oxan-2-yl]oxy-5,7-dihydroxy-2-(4-hydroxyphenyl)chromen-4-one
PRECURSORMZ:  739.20910261583
PRECURSORTYPE:  [M-H]-
FORMULA:  C33H40O19
Ontology: Kingdom: Organic compounds;Superclass: Phenylpropanoids and polyketides;Class: Flavonoids;Subclass: Flavonoid glycosides
INCHIKEY:  WRXVPTMENPZUIZ-UHFFFAOYNA-N
SMILES:  CC1OC(OCC2OC(OC3=C(OC4=CC(O)=CC(O)=C4C3=O)C3=CC=C(O)C=C3)C(OC3OC(C)C(O)C(O)C3O)C(O)C2O)C(O)C(O)C1O
RETENTIONTIME:  
CCS:  259.7559514
IONMODE:  Negative
INSTRUMENTTYPE:  
INSTRUMENT:  Maxis II HD Q-TOF Bruker
COLLISIONENERGY:  
Comment:  DB#=CCMSLIB00000846576; origin=GNPS
Num Peaks:  15
178.99663	20.0
227.03438	180.0
229.04771	10.0
255.02997	310.0
256.03204	50.0
257.04218	30.0
283.0256	20.0
284.03238	1000.0
285.04068	240.0
286.04767	10.0
327.06137	10.0
429.09354	10.0
575.14325	10.0
739.20996	680.0
740.21051	90.0

NAME:  NCGC00179920-02![(2S,3R,4R,5S,6S)-2-[[(1aS,1bS,2S,5aR,6S,6aS)-1a-(hydroxymethyl)-2-[(2S,3R,4S,5S,6R)-3,4,5-trihydroxy-6-(hydroxymethyl)oxan-2-yl]oxy-2,5a,6,6a-tetrahydro-1bH-oxireno[5,6]cyclopenta[1,3-c]pyran-6-yl]oxy]-5-hydroxy-6-methyl-3-[(E)-3-phenylprop-2-enoyl]oxyoxan-4-yl] (E)-3-phenylprop-2-enoate
PRECURSORMZ:  813.26113788483
PRECURSORTYPE:  [M+FA-H]-
FORMULA:  C39H44O16
Ontology: Kingdom: Organic compounds;Superclass: Phenylpropanoids and polyketides;Class: Cinnamic acids and derivatives;Subclass: Cinnamic acid esters
INCHIKEY:  OQXBCMJIIDQITC-UHFFFAOYNA-N
SMILES:  CC1OC(OC2C3OC3(CO)C3C2C=COC3OC2OC(CO)C(O)C(O)C2O)C(OC(=O)C=CC2=CC=CC=C2)C(OC(=O)C=CC2=CC=CC=C2)C1O
RETENTIONTIME:  
CCS:  -1
IONMODE:  Negative
INSTRUMENTTYPE:  
INSTRUMENT:  Maxis II HD Q-TOF Bruker
COLLISIONENERGY:  
Comment:  DB#=CCMSLIB00000846578; origin=GNPS
Num Peaks:  27
76.27354	10.0
78.73406	10.0
101.02654	20.0
107.04821	10.0
113.02255	20.0
123.04465	20.0
135.02936	10.0
135.04741	20.0
136.01598	10.0
145.03622	20.0
147.0461	1000.0
148.04686	20.0
161.06036	70.0
163.04274	100.0
164.0451	10.0
169.05229	30.0
180.0443	20.0
181.05365	70.0
189.02191	20.0
189.05159	50.0
203.07249	10.0
215.07071	50.0
265.09555	10.0
311.09402	60.0
361.12689	10.0
491.17477	160.0
1407.75488	20.0

NAME:  NCGC00380923-01!2-[4-[4-[3,5-dihydroxy-4-[3,4,5-trihydroxy-6-(hydroxymethyl)oxan-2-yl]phenyl]-2,5-bis(4-hydroxyphenyl)oxolan-3-yl]-2,6-dihydroxyphenyl]-6-(hydroxymethyl)oxane-3,4,5-triol
PRECURSORMZ:  795.25057350483
PRECURSORTYPE:  [M-H]-
FORMULA:  C40H44O17
Ontology: Kingdom: Organic compounds;Superclass: Phenylpropanoids and polyketides;Class: Stilbenes;Subclass: Stilbene glycosides
INCHIKEY:  ISHUKYBHEZATMQ-UHFFFAOYNA-N
SMILES:  OCC1OC(C(O)C(O)C1O)C1=C(O)C=C(C=C1O)C1C(OC(C1C1=CC(O)=C(C2OC(CO)C(O)C(O)C2O)C(O)=C1)C1=CC=C(O)C=C1)C1=CC=C(O)C=C1
RETENTIONTIME:  
CCS:  -1
IONMODE:  Negative
INSTRUMENTTYPE:  
INSTRUMENT:  Maxis II HD Q-TOF Bruker
COLLISIONENERGY:  
Comment:  DB#=CCMSLIB00000846579; origin=GNPS
Num Peaks:  79
75.26101	10.0
95.01405	10.0
119.05054	20.0
121.02928	250.0
149.03461	20.0
163.04485	10.0
165.04817	10.0
181.07162	10.0
185.06679	10.0
198.06728	10.0
225.05652	10.0
227.07152	30.0
239.075	50.0
240.08633	30.0
241.08673	30.0
255.10599	10.0
256.08105	10.0
257.07321	10.0
259.89499	10.0
264.0921	10.0
265.08539	10.0
267.06662	30.0
267.10577	10.0
269.08505	20.0
271.09933	10.0
281.0845	50.0
283.09402	70.0
285.07663	40.0
286.08685	10.0
289.09344	30.0
291.07306	20.0
301.10089	10.0
303.09219	10.0
305.0835	20.0
309.00531	10.0
309.08148	10.0
311.08844	70.0
321.11349	20.0
327.08908	20.0
339.08777	90.0
344.11118	10.0
351.08472	20.0
360.08148	20.0
361.12857	10.0
374.19031	10.0
376.81168	10.0
377.13907	40.0
391.11755	40.0
405.13055	60.0
427.12857	20.0
427.16077	10.0
433.12646	160.0
434.14191	20.0
445.142	20.0
463.13437	30.0
495.1481	10.0
513.15887	20.0
513.31171	10.0
527.16687	50.0
543.16229	40.0
549.1734	10.0
552.70966	10.0
555.052	10.0
555.16907	1000.0
556.1687	120.0
565.13947	10.0
567.16815	10.0
585.17896	230.0
586.18011	20.0
597.17487	40.0
609.18671	20.0
615.1405	10.0
615.20288	10.0
621.18549	10.0
675.20941	140.0
676.19342	30.0
705.20984	10.0
795.25275	30.0
1148.2002	10.0

NAME:  NCGC00169318-02!(E)-7-(4-methoxy-5-methyl-6-oxopyran-2-yl)-5-methyloct-6-enoic acid
PRECURSORMZ:  339.14492635583
PRECURSORTYPE:  [M+FA-H]-
FORMULA:  C16H22O5
Ontology: Kingdom: Organic compounds;Superclass: Lipids and lipid;Class: Fatty Acyls;Subclass: Fatty acids and conjugates
INCHIKEY:  HXLDSEPZKLJMIQ-UHFFFAOYNA-N
SMILES:  COC1=C(C)C(=O)OC(=C1)C(C)=CC(C)CCCC(O)=O
RETENTIONTIME:  
CCS:  -1
IONMODE:  Negative
INSTRUMENTTYPE:  
INSTRUMENT:  Maxis II HD Q-TOF Bruker
COLLISIONENERGY:  
Comment:  DB#=CCMSLIB00000846582; origin=GNPS
Num Peaks:  12
137.97438	60.0
147.07788	60.0
149.08946	80.0
152.0481	80.0
173.13257	150.0
193.08247	60.0
217.11493	80.0
217.13644	200.0
249.14861	310.0
261.12845	80.0
293.14297	1000.0
1719.40332	40.0

NAME:  NCGC00385758-01!7-hydroxy-2-(4-hydroxyphenyl)-8-[(2S,3R,4R,5S,6R)-3,4,5-trihydroxy-6-(hydroxymethyl)oxan-2-yl]chromen-4-one
PRECURSORMZ:  415.10345577183
PRECURSORTYPE:  [M-H]-
FORMULA:  C21H20O9
Ontology: Kingdom: Organic compounds;Superclass: Phenylpropanoids and polyketides;Class: Flavonoids;Subclass: Flavonoid glycosides
INCHIKEY:  IAEWGSIPWPKEFT-UHFFFAOYNA-N
SMILES:  OCC1OC(C(O)C(O)C1O)C1=C(O)C=CC2=C1OC(=CC2=O)C1=CC=C(O)C=C1
RETENTIONTIME:  
CCS:  -1
IONMODE:  Negative
INSTRUMENTTYPE:  
INSTRUMENT:  Maxis II HD Q-TOF Bruker
COLLISIONENERGY:  
Comment:  DB#=CCMSLIB00000846583; origin=GNPS
Num Peaks:  8
267.0676	540.0
268.06772	70.0
294.44095	60.0
294.86438	60.0
294.89929	40.0
295.06241	1000.0
337.07693	70.0
415.10431	970.0

NAME:  NCGC00163559-03!5-hydroxy-3-(4-hydroxyphenyl)-7-[(2S,3R,4S,5S,6R)-3,4,5-trihydroxy-6-(hydroxymethyl)oxan-2-yl]oxychromen-4-one
PRECURSORMZ:  477.10384939183
PRECURSORTYPE:  [M+FA-H]-
FORMULA:  C21H20O10
Ontology: Kingdom: Organic compounds;Superclass: Phenylpropanoids and polyketides;Class: Isoflavonoids;Subclass: Isoflavonoid O
INCHIKEY:  ZCOLJUOHXJRHDI-UHFFFAOYNA-N
SMILES:  OCC1OC(OC2=CC(O)=C3C(=O)C(=COC3=C2)C2=CC=C(O)C=C2)C(O)C(O)C1O
RETENTIONTIME:  
CCS:  -1
IONMODE:  Negative
INSTRUMENTTYPE:  
INSTRUMENT:  Maxis II HD Q-TOF Bruker
COLLISIONENERGY:  
Comment:  DB#=CCMSLIB00000846586; origin=GNPS
Num Peaks:  11
171.04741	30.0
183.04375	10.0
195.03992	40.0
241.05339	30.0
267.68323	40.0
268.03775	910.0
269.04385	1000.0
271.22058	20.0
271.60385	20.0
431.09793	670.0
434.97067	30.0

NAME:  NCGC00381130-01!methyl (2E,8E)-9-[3a-hydroxy-6,7-dimethyl-1-(2-methylpropyl)-3-oxo-2,4,7,7a-tetrahydro-1H-isoindol-4-yl]-4,5-dihydroxy-8-methylnona-2,8-dienoate
PRECURSORMZ:  494.27594052783
PRECURSORTYPE:  [M+FA-H]-
FORMULA:  C25H39NO6
Ontology: Kingdom: Organic compounds;Superclass: Lipids and lipid;Class: Prenol lipids;Subclass: Monoterpenoids
INCHIKEY:  YUXUTEAAGHFKKH-UHFFFAOYNA-N
SMILES:  COC(=O)C=CC(O)C(O)CCC(C)=CC1C=C(C)C(C)C2C(CC(C)C)N=C(O)C12O
RETENTIONTIME:  
CCS:  -1
IONMODE:  Negative
INSTRUMENTTYPE:  
INSTRUMENT:  Maxis II HD Q-TOF Bruker
COLLISIONENERGY:  
Comment:  DB#=CCMSLIB00000846588; origin=GNPS
Num Peaks:  10
115.03986	70.0
152.76115	30.0
154.08714	850.0
157.03198	20.0
176.23779	40.0
177.16551	30.0
239.12572	30.0
332.2251	1000.0
505.97229	30.0
592.5412	20.0

NAME:  NCGC00381421-01!2-ethyl-4-[(Z)-2-[(3-formamido-2-hydroxybenzoyl)amino]but-2-enoyl]oxy-3-(2-methylbutanoyloxy)pentanoic acid
PRECURSORMZ:  491.20350416583
PRECURSORTYPE:  [M-H]-
FORMULA:  C24H32N2O9
Ontology: Kingdom: Organic compounds;Superclass: Organic acids and derivatives;Class: Carboxylic acids and derivatives;Subclass: Amino acids
INCHIKEY:  JLINBAUQGJKNRS-UHFFFAOYNA-N
SMILES:  CCC(C)C(=O)OC(C(C)OC(=O)C(=CC)N=C(O)C1=C(O)C(=CC=C1)N=CO)C(CC)C(O)=O
RETENTIONTIME:  
CCS:  -1
IONMODE:  Negative
INSTRUMENTTYPE:  
INSTRUMENT:  Maxis II HD Q-TOF Bruker
COLLISIONENERGY:  
Comment:  DB#=CCMSLIB00000846590; origin=GNPS
Num Peaks:  20
82.00953	30.0
101.05955	70.0
101.87512	20.0
108.04662	180.0
134.95123	80.0
145.04034	80.0
145.07993	70.0
155.06985	100.0
161.03555	660.0
190.07277	50.0
191.08168	1000.0
217.06494	180.0
219.07793	890.0
245.05786	940.0
262.05716	40.0
263.0676	990.0
317.14514	50.0
345.09116	80.0
345.14624	630.0
491.20227	110.0

NAME:  NCGC00381220-01!16-butan-2-yl-3-(2,3-dihydroxypropyl)-10,11,14-trimethyl-13-propan-2-yl-4-oxa-1,8,11,14,17-pentazabicyclo[17.3.0]docosane-2,5,9,12,15,18-hexone
PRECURSORMZ:  656.35123072583
PRECURSORTYPE:  [M+FA-H]-
FORMULA:  C29H49N5O9
Ontology: ;;;
INCHIKEY:  DJYDCIUMNXZSBH-UHFFFAOYNA-N
SMILES:  CCC(C)C1N=C(O)C2CCCN2C(=O)C(CC(O)CO)OC(=O)CCN=C(O)C(C)N(C)C(=O)C(C(C)C)N(C)C1=O
RETENTIONTIME:  
CCS:  -1
IONMODE:  Negative
INSTRUMENTTYPE:  
INSTRUMENT:  Maxis II HD Q-TOF Bruker
COLLISIONENERGY:  
Comment:  DB#=CCMSLIB00000846592; origin=GNPS
Num Peaks:  46
127.04774	40.0
139.05203	10.0
140.06575	20.0
152.10271	10.0
154.11888	20.0
165.10287	170.0
169.09644	10.0
171.14847	20.0
173.04124	20.0
173.09377	60.0
181.13531	10.0
183.14401	10.0
196.10056	20.0
201.14151	20.0
209.1377	20.0
214.15086	20.0
225.18132	20.0
237.12169	20.0
240.17345	110.0
286.17258	30.0
286.20145	10.0
294.17905	20.0
322.2052	30.0
323.16632	40.0
350.20413	20.0
354.20798	50.0
406.29248	70.0
422.27942	10.0
424.29321	390.0
434.26904	10.0
452.29221	30.0
478.29666	50.0
495.33139	20.0
496.31058	140.0
508.30478	20.0
520.31549	20.0
521.28784	10.0
538.16803	20.0
538.32562	210.0
548.36072	10.0
550.31989	20.0
552.3031	30.0
592.37225	20.0
610.15515	20.0
610.34375	1000.0
611.32928	20.0

NAME:  NCGC00381219-01![3,4-dihydroxy-5-[2-methylidene-4-[(2R,3R,4S,5S,6R)-3,4,5-trihydroxy-6-[(4-hydroxy-2-methylidenebutanoyl)oxymethyl]oxan-2-yl]oxybutanoyl]oxyoxan-2-yl]methyl 4-hydroxy-2-methylidenebutanoate
PRECURSORMZ:  665.22983775583
PRECURSORTYPE:  [M+FA-H]-
FORMULA:  C27H40O16
Ontology: Kingdom: Organic compounds;Superclass: Lipids and lipid;Class: Saccharolipids;
INCHIKEY:  JGCNXPIMJMUVKE-UHFFFAOYNA-N
SMILES:  OCCC(=C)C(=O)OCC1OCC(OC(=O)C(=C)CCOC2OC(COC(=O)C(=C)CCO)C(O)C(O)C2O)C(O)C1O
RETENTIONTIME:  
CCS:  -1
IONMODE:  Negative
INSTRUMENTTYPE:  
INSTRUMENT:  Maxis II HD Q-TOF Bruker
COLLISIONENERGY:  
Comment:  DB#=CCMSLIB00000846593; origin=GNPS
Num Peaks:  16
85.02981	30.0
97.03022	20.0
101.02109	20.0
113.02392	70.0
115.04049	130.0
119.03317	10.0
137.36383	10.0
143.03511	40.0
161.04582	20.0
163.06012	120.0
164.99742	20.0
259.0835	1000.0
262.08209	10.0
277.09732	230.0
375.13336	20.0
423.15091	90.0

NAME:  NCGC00385087-01!3-[5,7-dihydroxy-2-(4-methoxyphenyl)-4-oxo-2,3-dihydrochromen-3-yl]-5,7-dihydroxy-2-(4-hydroxyphenyl)-2,3-dihydrochromen-4-one
PRECURSORMZ:  555.12967052083
PRECURSORTYPE:  [M-H]-
FORMULA:  C31H24O10
Ontology: Kingdom: Organic compounds;Superclass: Phenylpropanoids and polyketides;Class: Flavonoids;Subclass: Biflavonoids and polyflavonoids
INCHIKEY:  QOPUSVUZHPIYER-UHFFFAOYNA-N
SMILES:  COC1=CC=C(C=C1)C1OC2=CC(O)=CC(O)=C2C(=O)C1C1C(OC2=CC(O)=CC(O)=C2C1=O)C1=CC=C(O)C=C1
RETENTIONTIME:  
CCS:  238.1093465
IONMODE:  Negative
INSTRUMENTTYPE:  
INSTRUMENT:  Maxis II HD Q-TOF Bruker
COLLISIONENERGY:  
Comment:  DB#=CCMSLIB00000846596; origin=GNPS
Num Peaks:  40
125.02449	1000.0
125.10555	90.0
151.00127	540.0
163.11417	80.0
175.29744	120.0
177.02193	120.0
201.05948	70.0
207.08656	150.0
217.00493	140.0
229.0455	40.0
252.04378	130.0
281.04913	110.0
292.03793	90.0
295.05948	120.0
308.04019	250.0
308.74704	80.0
311.05457	80.0
317.11996	170.0
323.05597	150.0
325.07364	140.0
328.02243	130.0
341.09415	50.0
345.12277	160.0
348.06747	120.0
359.13669	300.0
361.09662	150.0
364.04889	70.0
370.07867	100.0
377.1011	90.0
385.11011	280.0
429.09982	750.0
431.07272	120.0
445.12976	480.0
449.05185	120.0
453.09253	60.0
469.12781	270.0
493.13574	110.0
511.1283	200.0
555.14142	590.0
1873.18811	150.0

NAME:  NCGC00385087-01!3-[5,7-dihydroxy-2-(4-methoxyphenyl)-4-oxo-2,3-dihydrochromen-3-yl]-5,7-dihydroxy-2-(4-hydroxyphenyl)-2,3-dihydrochromen-4-one
PRECURSORMZ:  601.13514952083
PRECURSORTYPE:  [M+FA-H]-
FORMULA:  C31H24O10
Ontology: Kingdom: Organic compounds;Superclass: Phenylpropanoids and polyketides;Class: Flavonoids;Subclass: Biflavonoids and polyflavonoids
INCHIKEY:  QOPUSVUZHPIYER-UHFFFAOYNA-N
SMILES:  COC1=CC=C(C=C1)C1OC2=CC(O)=CC(O)=C2C(=O)C1C1C(OC2=CC(O)=CC(O)=C2C1=O)C1=CC=C(O)C=C1
RETENTIONTIME:  
CCS:  -1
IONMODE:  Negative
INSTRUMENTTYPE:  
INSTRUMENT:  Maxis II HD Q-TOF Bruker
COLLISIONENERGY:  
Comment:  DB#=CCMSLIB00000846597; origin=GNPS
Num Peaks:  51
89.14285	80.0
125.02406	490.0
126.80219	30.0
145.02696	60.0
151.00189	590.0
203.90019	50.0
250.08224	50.0
269.04544	150.0
270.05917	50.0
277.04645	100.0
281.0849	50.0
283.06369	50.0
285.04309	50.0
307.07599	70.0
308.02875	70.0
317.077	40.0
317.11972	40.0
319.09448	150.0
323.2352	40.0
325.09299	40.0
336.04974	30.0
337.1076	40.0
342.09503	80.0
344.10233	40.0
359.13034	30.0
361.10745	90.0
370.08646	60.0
385.10736	310.0
386.07932	20.0
388.09628	60.0
390.06284	80.0
391.10236	40.0
403.11365	100.0
429.10043	790.0
434.06454	30.0
445.12628	90.0
448.0834	60.0
449.08063	210.0
449.31711	90.0
451.12402	30.0
461.08389	40.0
467.15347	30.0
469.12335	100.0
493.13144	90.0
511.12378	60.0
511.15698	70.0
554.09576	50.0
554.59076	50.0
555.12946	1000.0
556.12244	70.0
557.0025	80.0

NAME:  NCGC00385094-01!2-(3,4-dihydroxyphenyl)-3-[(2S,3R,4S,5R,6R)-4,5-dihydroxy-3-[(2R,3R,4R,5R,6S)-3,4,5-trihydroxy-6-methyloxan-2-yl]oxy-6-[[(2R,3R,4R,5R,6S)-3,4,5-trihydroxy-6-methyloxan-2-yl]oxymethyl]oxan-2-yl]oxy-5,7-dihydroxychromen-4-one
PRECURSORMZ:  755.20401723583
PRECURSORTYPE:  [M-H]-
FORMULA:  C33H40O20
Ontology: Kingdom: Organic compounds;Superclass: Phenylpropanoids and polyketides;Class: Flavonoids;Subclass: Flavonoid glycosides
INCHIKEY:  HKNBJSRIYRDSLB-UHFFFAOYNA-N
SMILES:  CC1OC(OCC2OC(OC3=C(OC4=CC(O)=CC(O)=C4C3=O)C3=CC(O)=C(O)C=C3)C(OC3OC(C)C(O)C(O)C3O)C(O)C2O)C(O)C(O)C1O
RETENTIONTIME:  
CCS:  254.5206459
IONMODE:  Negative
INSTRUMENTTYPE:  
INSTRUMENT:  Maxis II HD Q-TOF Bruker
COLLISIONENERGY:  
Comment:  DB#=CCMSLIB00000846600; origin=GNPS
Num Peaks:  12
151.00137	10.0
163.00191	10.0
178.99376	20.0
243.03006	40.0
254.0188	10.0
255.02982	70.0
271.02466	270.0
290.4696	10.0
300.02835	1000.0
301.03476	140.0
755.20465	560.0
756.21332	40.0

NAME:  NCGC00380904-01!1-(3,4-dihydroxy-5-methoxyphenyl)-7-(3,4-dihydroxyphenyl)heptan-3-one
PRECURSORMZ:  359.15001204083
PRECURSORTYPE:  [M-H]-
FORMULA:  C20H24O6
Ontology: Kingdom: Organic compounds;Superclass: Phenylpropanoids and polyketides;Class: Diarylheptanoids;Subclass: Linear diarylheptanoids
INCHIKEY:  VROIYIJLFIRSJU-UHFFFAOYSA-N
SMILES:  COC1=CC(CCC(=O)CCCCC2=CC(O)=C(O)C=C2)=CC(O)=C1O
RETENTIONTIME:  
CCS:  209.1672009
IONMODE:  Negative
INSTRUMENTTYPE:  
INSTRUMENT:  Maxis II HD Q-TOF Bruker
COLLISIONENERGY:  
Comment:  DB#=CCMSLIB00000846602; origin=GNPS
Num Peaks:  7
137.02246	140.0
139.0378	150.0
207.10301	420.0
210.02591	220.0
355.94006	40.0
359.15564	1000.0
359.2457	50.0

NAME:  NCGC00380882-01!5-chloro-2,4-dihydroxy-6-methyl-3-[(E)-3-methyl-5-[(1S,2R,6R)-1,2,6-trimethyl-3-oxocyclohexyl]pent-2-enyl]benzaldehyde
PRECURSORMZ:  405.18381074783
PRECURSORTYPE:  [M-H]-
FORMULA:  C23H31ClO4
Ontology: Kingdom: Organic compounds;Superclass: Organic oxygen compounds;Class: Organooxygen compounds;Subclass: Carbonyl compounds
INCHIKEY:  IJEHYEVNWOYGMS-UHFFFAOYNA-N
SMILES:  CC1CCC(=O)C(C)C1(C)CCC(C)=CCC1=C(O)C(Cl)=C(C)C(C=O)=C1O
RETENTIONTIME:  
CCS:  213.8482072
IONMODE:  Negative
INSTRUMENTTYPE:  
INSTRUMENT:  Maxis II HD Q-TOF Bruker
COLLISIONENERGY:  
Comment:  DB#=CCMSLIB00000846603; origin=GNPS
Num Peaks:  6
86.28384	80.0
87.89642	20.0
202.06221	40.0
206.63496	20.0
238.04008	30.0
405.18445	1000.0

NAME:  NCGC00180263-02!4-[(2S)-2-hydroxy-3-methyl-3-[(2S,3R,4S,5S,6R)-3,4,5-trihydroxy-6-(hydroxymethyl)oxan-2-yl]oxybutoxy]furo[3,2-g]chromen-7-one
PRECURSORMZ:  447.12967052483
PRECURSORTYPE:  [M-H2O-H]-
FORMULA:  C22H26O11
Ontology: Kingdom: Organic compounds;Superclass: Phenylpropanoids and polyketides;Class: Coumarins and derivatives;Subclass: Furanocoumarins
INCHIKEY:  VCJBNRNRYLKSGX-UHFFFAOYNA-N
SMILES:  CC(C)(OC1OC(CO)C(O)C(O)C1O)C(O)COC1=C2C=COC2=CC2=C1C=CC(=O)O2
RETENTIONTIME:  
CCS:  -1
IONMODE:  Negative
INSTRUMENTTYPE:  
INSTRUMENT:  Maxis II HD Q-TOF Bruker
COLLISIONENERGY:  
Comment:  DB#=CCMSLIB00000846606; origin=GNPS
Num Peaks:  7
136.05847	40.0
149.02563	20.0
163.03853	40.0
164.04453	80.0
167.02731	10.0
179.06998	1000.0
1787.65051	10.0

NAME:  NCGC00180263-02!4-[(2S)-2-hydroxy-3-methyl-3-[(2S,3R,4S,5S,6R)-3,4,5-trihydroxy-6-(hydroxymethyl)oxan-2-yl]oxybutoxy]furo[3,2-g]chromen-7-one
PRECURSORMZ:  511.14571420483
PRECURSORTYPE:  [M+FA-H]-
FORMULA:  C22H26O11
Ontology: Kingdom: Organic compounds;Superclass: Phenylpropanoids and polyketides;Class: Coumarins and derivatives;Subclass: Furanocoumarins
INCHIKEY:  VCJBNRNRYLKSGX-UHFFFAOYNA-N
SMILES:  CC(C)(OC1OC(CO)C(O)C(O)C1O)C(O)COC1=C2C=COC2=CC2=C1C=CC(=O)O2
RETENTIONTIME:  
CCS:  -1
IONMODE:  Negative
INSTRUMENTTYPE:  
INSTRUMENT:  Maxis II HD Q-TOF Bruker
COLLISIONENERGY:  
Comment:  DB#=CCMSLIB00000846608; origin=GNPS
Num Peaks:  5
101.3476	10.0
117.03762	20.0
173.02481	10.0
200.97206	10.0
201.01831	1000.0

NAME:  NCGC00025059-05!2-amino-4,6-dimethyl-3-oxo-1-N,9-N-bis[7,11,14-trimethyl-2,5,9,12,15-pentaoxo-3,10-di(propan-2-yl)-8-oxa-1,4,11,14-tetrazabicyclo[14.3.0]nonadecan-6-yl]phenoxazine-1,9-dicarboxamide
PRECURSORMZ:  1253.62119828483
PRECURSORTYPE:  [M-H]-
FORMULA:  C62H86N12O16
Ontology: Kingdom: Organic compounds;Superclass: Organic acids and derivatives;Class: Peptidomimetics;Subclass: Depsipeptides
INCHIKEY:  RJURFGZVJUQBHK-UHFFFAOYNA-N
SMILES:  CC(C)C1N=C(O)C(N=C(O)C2=C3N=C4C(OC3=C(C)C=C2)=C(C)C(=O)C(N)=C4C(O)=NC2C(C)OC(=O)C(C(C)C)N(C)C(=O)CN(C)C(=O)C3CCCN3C(=O)C(N=C2O)C(C)C)C(C)OC(=O)C(C(C)C)N(C)C(=O)CN(C)C(=O)C2CCCN2C1=O
RETENTIONTIME:  
CCS:  -1
IONMODE:  Negative
INSTRUMENTTYPE:  
INSTRUMENT:  Maxis II HD Q-TOF Bruker
COLLISIONENERGY:  
Comment:  DB#=CCMSLIB00000846610; origin=GNPS
Num Peaks:  420
85.0515	10.0
98.01127	20.0
100.03947	20.0
101.07544	40.0
102.05429	20.0
123.09218	10.0
124.049	20.0
124.07226	20.0
125.07129	60.0
126.05225	20.0
126.09244	50.0
127.08775	60.0
127.65514	10.0
129.62097	20.0
130.08632	480.0
131.09166	20.0
137.08276	10.0
138.04729	60.0
139.04533	20.0
141.0638	20.0
151.08957	20.0
152.10065	20.0
153.10393	20.0
155.05675	30.0
159.05174	30.0
160.0769	20.0
163.17487	10.0
164.02271	30.0
164.06566	40.0
165.06769	30.0
165.10027	20.0
167.04933	50.0
167.08275	130.0
169.09712	60.0
175.0484	20.0
177.10078	30.0
178.25853	10.0
179.08459	30.0
180.1019	40.0
181.09929	80.0
182.10049	40.0
185.04095	20.0
189.05899	10.0
191.11644	20.0
193.09827	30.0
194.1044	20.0
195.07916	30.0
195.11288	320.0
196.11458	40.0
197.92696	20.0
206.08665	30.0
206.16849	20.0
207.07788	80.0
210.08206	30.0
211.14085	10.0
213.05815	30.0
213.70023	10.0
215.05956	20.0
219.15082	20.0
221.11752	20.0
222.09669	30.0
223.10518	20.0
224.06575	20.0
226.16017	10.0
231.07948	20.0
232.06572	10.0
232.10994	10.0
234.12517	10.0
239.08356	50.0
240.08824	30.0
246.11496	10.0
248.14008	50.0
250.08591	30.0
250.12202	20.0
250.15633	10.0
251.08443	20.0
252.13278	20.0
259.1582	20.0
262.08804	20.0
264.08105	50.0
264.31927	20.0
265.10471	20.0
266.14438	30.0
266.21594	20.0
269.06314	10.0
270.07532	20.0
276.3844	10.0
278.09259	30.0
278.1496	30.0
279.11722	70.0
280.06992	20.0
280.16663	320.0
282.09351	20.0
283.07056	40.0
284.10446	10.0
286.15482	20.0
289.0929	70.0
290.06854	20.0
290.13718	20.0
291.06311	40.0
292.10748	70.0
293.07721	40.0
294.06995	10.0
294.14206	10.0
294.19296	20.0
295.09259	30.0
296.10001	20.0
303.10904	30.0
304.06827	10.0
304.11603	30.0
304.20612	60.0
305.08493	20.0
305.12531	30.0
306.05902	10.0
306.08331	20.0
306.17944	10.0
306.21359	20.0
307.06287	20.0
307.81229	10.0
309.09671	20.0
309.44891	10.0
310.0824	20.0
311.10635	20.0
313.17508	20.0
317.11649	20.0
318.08771	40.0
319.08932	30.0
320.09747	40.0
321.10983	80.0
322.11813	120.0
323.12747	20.0
324.07141	10.0
325.15271	20.0
328.12457	20.0
331.14545	10.0
332.15839	100.0
333.14401	40.0
334.12271	60.0
335.12454	20.0
336.09085	70.0
336.18262	10.0
338.07834	20.0
338.12256	40.0
344.12747	20.0
345.09549	30.0
346.1069	50.0
346.76413	20.0
347.11618	230.0
348.09103	40.0
349.07391	10.0
349.11826	20.0
349.19495	50.0
350.09979	30.0
351.23083	10.0
353.25162	80.0
354.09668	20.0
358.0936	30.0
360.1442	20.0
360.18149	20.0
361.12512	20.0
361.22153	100.0
362.11905	40.0
363.1102	70.0
363.1662	20.0
364.11218	10.0
365.12387	160.0
366.11429	60.0
367.32391	20.0
369.08133	30.0
370.10306	30.0
372.11594	20.0
373.12924	20.0
373.25531	40.0
374.1626	10.0
375.09396	30.0
375.1669	70.0
376.12326	60.0
377.12231	30.0
378.19339	30.0
378.6442	20.0
379.23929	50.0
380.22397	10.0
385.14453	20.0
386.14676	30.0
387.14999	160.0
387.60657	20.0
388.09064	20.0
388.12625	10.0
388.16885	20.0
388.20239	10.0
389.16315	30.0
390.11069	30.0
391.17343	20.0
391.49268	10.0
392.15112	30.0
393.15033	30.0
396.14981	20.0
398.24609	10.0
400.11469	10.0
403.13873	70.0
403.19003	20.0
404.14667	120.0
405.15619	90.0
405.22153	10.0
406.15552	10.0
410.14386	10.0
414.11218	10.0
414.45923	20.0
417.19702	20.0
419.22232	20.0
421.14801	10.0
422.19357	10.0
423.22217	230.0
424.21866	10.0
425.20126	10.0
427.99426	20.0
429.13885	40.0
431.1391	270.0
432.1412	30.0
432.20227	20.0
434.22479	20.0
436.23349	20.0
440.16962	20.0
443.17758	20.0
447.20367	30.0
448.16467	30.0
457.17377	30.0
458.18036	80.0
458.24371	10.0
459.19711	20.0
460.16577	40.0
461.16464	30.0
462.17831	10.0
462.2356	10.0
462.27386	80.0
469.18274	20.0
473.13303	20.0
473.22586	10.0
474.17853	30.0
476.19879	30.0
477.19885	20.0
481.27258	20.0
483.21466	10.0
484.14899	10.0
485.26828	30.0
486.21667	200.0
487.16214	20.0
487.25	20.0
488.18951	110.0
488.24252	10.0
499.21368	30.0
502.20685	150.0
503.20935	70.0
504.20587	20.0
506.26562	350.0
507.24698	30.0
507.2951	20.0
510.25153	40.0
512.19342	20.0
517.24707	10.0
528.18054	10.0
529.20123	10.0
530.20331	40.0
537.20355	20.0
544.23761	20.0
545.22864	10.0
547.23669	20.0
552.20361	20.0
553.31012	10.0
554.27368	20.0
557.35126	20.0
558.21631	40.0
561.25562	10.0
566.15497	40.0
571.21332	10.0
572.25629	190.0
573.25763	100.0
573.43109	30.0
574.24268	30.0
578.42078	30.0
579.29449	20.0
582.22546	30.0
585.21899	20.0
587.25946	20.0
588.24518	20.0
596.22186	10.0
597.29871	10.0
599.22565	30.0
599.26385	50.0
600.25513	40.0
601.31854	20.0
602.26703	10.0
612.23865	30.0
615.25671	110.0
616.27631	10.0
627.25372	20.0
627.36139	20.0
628.23358	20.0
629.31323	20.0
633.27325	50.0
635.79584	20.0
642.2641	50.0
643.28607	10.0
644.27722	20.0
647.31342	10.0
651.74243	20.0
652.31622	30.0
653.2583	10.0
654.30963	10.0
655.28107	30.0
656.2536	20.0
658.30371	30.0
659.27856	10.0
668.28461	10.0
670.29828	30.0
672.32111	30.0
675.29657	10.0
678.28827	10.0
680.27771	20.0
681.2688	20.0
681.33722	20.0
682.31433	30.0
684.3056	10.0
685.35974	10.0
690.33087	20.0
696.28766	10.0
697.28058	60.0
698.29419	360.0
699.29791	50.0
700.29449	70.0
702.33215	40.0
703.35626	80.0
709.24249	20.0
713.2962	20.0
714.36377	10.0
716.30591	70.0
720.83099	10.0
723.98981	10.0
725.36456	20.0
735.3974	10.0
742.3385	20.0
746.34747	560.0
746.46735	20.0
747.30286	30.0
747.35944	180.0
755.31964	10.0
756.36096	30.0
757.41675	10.0
758.37659	10.0
762.34894	10.0
768.3797	30.0
769.28577	10.0
769.39911	40.0
772.33105	20.0
773.32745	10.0
779.34558	30.0
782.33789	10.0
784.341	40.0
784.39734	80.0
785.40253	140.0
786.40894	60.0
789.36432	10.0
798.38379	20.0
801.36096	10.0
811.36115	50.0
812.37012	30.0
814.34326	10.0
827.36664	60.0
827.74811	10.0
827.90668	10.0
828.38263	230.0
829.32532	50.0
829.39215	1000.0
830.39929	230.0
831.38062	30.0
833.97528	10.0
852.98218	10.0
860.60669	10.0
879.50732	10.0
880.50806	10.0
898.43097	40.0
899.44244	20.0
905.51154	10.0
923.41406	10.0
954.45038	30.0
966.43213	10.0
968.47064	10.0
991.48334	10.0
992.43994	10.0
994.46326	10.0
996.49384	10.0
1024.47546	20.0
1062.29932	10.0
1077.51123	10.0
1078.53101	10.0
1079.48083	20.0
1080.46484	10.0
1080.51587	10.0
1094.50037	10.0
1106.50439	10.0
1120.5896	10.0
1122.53088	90.0
1123.46887	10.0
1126.50549	10.0
1140.49927	10.0
1141.54785	10.0
1183.36121	10.0
1209.62756	30.0
1210.46777	20.0
1210.61414	10.0
1224.58606	60.0
1225.573	40.0
1225.61572	40.0
1236.59216	20.0
1250.70056	10.0
1252.18909	20.0
1253.62244	820.0
1253.88794	20.0
1254.62842	450.0
1255.62537	70.0

NAME:  NCGC00385080-01!4-[(E)-3-[(2R,3R,4S,5S,6R)-3-[(2S,3R,4R)-3,4-dihydroxy-4-(hydroxymethyl)oxolan-2-yl]oxy-4,5-dihydroxy-6-(hydroxymethyl)oxan-2-yl]oxybut-1-enyl]-3,5,5-trimethylcyclohex-2-en-1-one
PRECURSORMZ:  547.23961459183
PRECURSORTYPE:  [M+FA-H]-
FORMULA:  C24H38O11
Ontology: Kingdom: Organic compounds;Superclass: Lipids and lipid;Class: Fatty Acyls;Subclass: Fatty acyl glycosides
INCHIKEY:  IDPRQTHSAHGSDW-UHFFFAOYNA-N
SMILES:  CC(OC1OC(CO)C(O)C(O)C1OC1OCC(O)(CO)C1O)C=CC1C(C)=CC(=O)CC1(C)C
RETENTIONTIME:  
CCS:  -1
IONMODE:  Negative
INSTRUMENTTYPE:  
INSTRUMENT:  Maxis II HD Q-TOF Bruker
COLLISIONENERGY:  
Comment:  DB#=CCMSLIB00000846612; origin=GNPS
Num Peaks:  15
86.03163	50.0
99.00629	50.0
101.02616	150.0
112.37478	90.0
113.02859	240.0
120.45228	20.0
131.03775	130.0
143.03487	90.0
149.0463	760.0
153.41187	30.0
161.0441	470.0
191.05571	1000.0
233.06691	900.0
293.09164	410.0
311.09683	100.0

NAME:  NCGC00385081-01!7-[(2S,3R,4S,5S,6R)-6-[[(2R,3R,4R)-3,4-dihydroxy-4-(hydroxymethyl)oxolan-2-yl]oxymethyl]-3,4,5-trihydroxyoxan-2-yl]oxy-3-(4-methoxyphenyl)chromen-4-one
PRECURSORMZ:  607.16684357383
PRECURSORTYPE:  [M+FA-H]-
FORMULA:  C27H30O13
Ontology: Kingdom: Organic compounds;Superclass: Phenylpropanoids and polyketides;Class: Isoflavonoids;Subclass: Isoflavonoid O
INCHIKEY:  PJHJORWYAZKNAL-UHFFFAOYNA-N
SMILES:  COC1=CC=C(C=C1)C1=COC2=C(C=CC(OC3OC(COC4OCC(O)(CO)C4O)C(O)C(O)C3O)=C2)C1=O
RETENTIONTIME:  
CCS:  -1
IONMODE:  Negative
INSTRUMENTTYPE:  
INSTRUMENT:  Maxis II HD Q-TOF Bruker
COLLISIONENERGY:  
Comment:  DB#=CCMSLIB00000846614; origin=GNPS
Num Peaks:  2
252.04277	110.0
267.06665	1000.0

NAME:  NCGC00091915-03![(2R,3R,4R,5R,6R)-6-[2-(3,4-dihydroxyphenyl)ethoxy]-5-hydroxy-2-[[(2R,3R,4S,5S,6R)-3,4,5-trihydroxy-6-(hydroxymethyl)oxan-2-yl]oxymethyl]-4-[(2S,3R,4R,5R,6S)-3,4,5-trihydroxy-6-methyloxan-2-yl]oxyoxan-3-yl] (E)-3-(3,4-dihydroxyphenyl)prop-2-enoate
PRECURSORMZ:  785.25096742883
PRECURSORTYPE:  [M-H]-
FORMULA:  C35H46O20
Ontology: Kingdom: Organic compounds;Superclass: Organic oxygen compounds;Class: Organooxygen compounds;Subclass: Carbohydrates and carbohydrate conjugates
INCHIKEY:  FSBUXLDOLNLABB-UHFFFAOYNA-N
SMILES:  CC1OC(OC2C(O)C(OCCC3=CC(O)=C(O)C=C3)OC(COC3OC(CO)C(O)C(O)C3O)C2OC(=O)C=CC2=CC(O)=C(O)C=C2)C(O)C(O)C1O
RETENTIONTIME:  
CCS:  248.755812
IONMODE:  Negative
INSTRUMENTTYPE:  
INSTRUMENT:  Maxis II HD Q-TOF Bruker
COLLISIONENERGY:  
Comment:  DB#=CCMSLIB00000846616; origin=GNPS
Num Peaks:  22
89.02491	20.0
119.03309	10.0
125.02573	10.0
132.02184	20.0
133.02936	100.0
134.04156	10.0
135.04543	40.0
153.05603	40.0
161.0244	1000.0
162.02185	10.0
179.03308	40.0
221.0686	10.0
301.37186	10.0
315.10568	10.0
362.19421	10.0
459.15552	20.0
461.16718	20.0
477.15781	20.0
623.21893	270.0
624.22479	30.0
785.25226	680.0
786.25128	100.0

NAME:  NCGC00380357-01!7-[3,5-dihydroxy-4-(4-hydroxyphenyl)-2-methoxyphenyl]-3-methoxy-3,4-dihydrooxepine-2,5-dione
PRECURSORMZ:  385.09289108783
PRECURSORTYPE:  [M-H]-
FORMULA:  C20H18O8
Ontology: Kingdom: Organic compounds;Superclass: Benzenoids;Class: Benzene and substituted derivatives;Subclass: Biphenyls and derivatives
INCHIKEY:  PHJBAEPUTMLVER-UHFFFAOYNA-N
SMILES:  COC1CC(=O)C=C(OC1=O)C1=CC(O)=C(C(O)=C1OC)C1=CC=C(O)C=C1
RETENTIONTIME:  
CCS:  -1
IONMODE:  Negative
INSTRUMENTTYPE:  
INSTRUMENT:  Maxis II HD Q-TOF Bruker
COLLISIONENERGY:  
Comment:  DB#=CCMSLIB00000846618; origin=GNPS
Num Peaks:  9
155.12456	80.0
174.32562	50.0
251.07373	110.0
267.07056	260.0
295.06674	100.0
297.10913	230.0
311.05917	1000.0
326.07498	250.0
341.09503	440.0

NAME:  NCGC00347672-02!N-[4,5-dihydroxy-2-[[4-[hydroxy(phenyl)methyl]-5-oxo-3-phenyl-2H-furan-2-yl]oxy]-6-(methoxymethyl)oxan-3-yl]acetamide
PRECURSORMZ:  544.18243406583
PRECURSORTYPE:  [M+FA-H]-
FORMULA:  C26H29NO9
Ontology: Kingdom: Organic compounds;Superclass: Organic oxygen compounds;Class: Organooxygen compounds;Subclass: Carbohydrates and carbohydrate conjugates
INCHIKEY:  UCFGUMMLHWLLKJ-UHFFFAOYNA-N
SMILES:  COCC1OC(OC2OC(=O)C(C(O)C3=CC=CC=C3)=C2C2=CC=CC=C2)C(N=C(C)O)C(O)C1O
RETENTIONTIME:  
CCS:  -1
IONMODE:  Negative
INSTRUMENTTYPE:  
INSTRUMENT:  Maxis II HD Q-TOF Bruker
COLLISIONENERGY:  
Comment:  DB#=CCMSLIB00000846620; origin=GNPS
Num Peaks:  28
100.03793	40.0
101.03815	60.0
133.0275	10.0
133.06169	20.0
147.28023	20.0
157.02513	30.0
170.06841	20.0
172.07191	20.0
174.02721	40.0
179.0836	20.0
185.02577	10.0
191.08496	240.0
206.06804	20.0
207.0838	50.0
214.08864	20.0
216.08656	30.0
234.0997	40.0
235.07623	110.0
237.77786	10.0
245.06456	10.0
253.09486	10.0
257.08371	10.0
263.07098	1000.0
276.1377	40.0
280.07727	60.0
298.62027	20.0
302.12292	30.0
616.90472	10.0

NAME:  NCGC00380356-01![2-[4-[3,4-dihydroxy-6-methyl-5-(3,4,5-trihydroxy-6-methyloxan-2-yl)oxyoxan-2-yl]oxy-3-hydroxy-6-(hydroxymethyl)-5-[(E)-3-(4-hydroxyphenyl)prop-2-enoyl]oxyoxan-2-yl]oxy-3,4-dihydroxy-5-(hydroxymethyl)oxolan-2-yl]methyl (E)-3-(4-hydroxyphenyl)prop-2-enoate
PRECURSORMZ:  925.29831154683
PRECURSORTYPE:  [M-H]-
FORMULA:  C42H54O23
Ontology: Kingdom: Organic compounds;Superclass: Organic oxygen compounds;Class: Organooxygen compounds;Subclass: Carbohydrates and carbohydrate conjugates
INCHIKEY:  YGVDLUVQOOJTBM-UHFFFAOYNA-N
SMILES:  CC1OC(OC2C(C)OC(OC3C(O)C(OC4(COC(=O)C=CC5=CC=C(O)C=C5)OC(CO)C(O)C4O)OC(CO)C3OC(=O)C=CC3=CC=C(O)C=C3)C(O)C2O)C(O)C(O)C1O
RETENTIONTIME:  
CCS:  -1
IONMODE:  Negative
INSTRUMENTTYPE:  
INSTRUMENT:  Maxis II HD Q-TOF Bruker
COLLISIONENERGY:  
Comment:  DB#=CCMSLIB00000846622; origin=GNPS
Num Peaks:  20
117.03394	90.0
119.05057	30.0
129.01903	10.0
143.0322	10.0
145.02771	1000.0
146.02892	20.0
163.03868	180.0
165.05397	10.0
205.04536	10.0
205.06813	20.0
229.05167	10.0
231.08336	10.0
235.05954	10.0
307.07999	20.0
599.19244	20.0
633.22559	20.0
779.26031	180.0
780.26556	50.0
925.29846	280.0
926.30011	80.0

NAME:  NCGC00347806-02!2,4-dihydroxy-6-methyl-3-[(E)-3-methyl-5-[(1S,2R,6R)-1,2,6-trimethyl-3-oxocyclohexyl]pent-2-enyl]benzaldehyde
PRECURSORMZ:  371.22278305783
PRECURSORTYPE:  [M-H]-
FORMULA:  C23H32O4
Ontology: Kingdom: Organic compounds;Superclass: Organic oxygen compounds;Class: Organooxygen compounds;Subclass: Carbonyl compounds
INCHIKEY:  JSPPDMSCDGJJOM-UHFFFAOYNA-N
SMILES:  CC1CCC(=O)C(C)C1(C)CCC(C)=CCC1=C(O)C=C(C)C(C=O)=C1O
RETENTIONTIME:  
CCS:  209.1234935
IONMODE:  Negative
INSTRUMENTTYPE:  
INSTRUMENT:  Maxis II HD Q-TOF Bruker
COLLISIONENERGY:  
Comment:  DB#=CCMSLIB00000846623; origin=GNPS
Num Peaks:  6
164.04808	80.0
179.03149	80.0
181.20247	60.0
369.20959	70.0
371.22406	1000.0
371.61865	40.0

NAME:  NCGC00384627-01!
PRECURSORMZ:  411.16605602983
PRECURSORTYPE:  [M-H]-
FORMULA:  C20H28O9
Ontology: Kingdom: Organic compounds;Superclass: Organoheterocyclic compounds;Class: Dioxanes;
INCHIKEY:  JPRAADAALYQLIE-UHFFFAOYNA-N
SMILES:  CC1C(O)C(=O)C2C3C(O)(OOC2(C)C)C(CO)CC2(O)C(C=C(C)C2=O)C13O
RETENTIONTIME:  
CCS:  -1
IONMODE:  Negative
INSTRUMENTTYPE:  
INSTRUMENT:  Maxis II HD Q-TOF Bruker
COLLISIONENERGY:  
Comment:  DB#=CCMSLIB00000846626; origin=GNPS
Num Peaks:  20
141.01559	280.0
165.05688	1000.0
195.0679	610.0
209.08073	700.0
215.10919	300.0
219.10583	630.0
233.08217	450.0
237.0715	210.0
243.07195	600.0
257.09	370.0
277.13635	330.0
287.09076	870.0
301.11871	600.0
317.11237	550.0
323.11615	760.0
335.12491	290.0
353.11682	370.0
357.13434	700.0
411.14453	540.0
1770.7384	140.0

NAME:  NCGC00384627-01!
PRECURSORMZ:  457.17153502983
PRECURSORTYPE:  [M+FA-H]-
FORMULA:  C20H28O9
Ontology: Kingdom: Organic compounds;Superclass: Organoheterocyclic compounds;Class: Dioxanes;
INCHIKEY:  JPRAADAALYQLIE-UHFFFAOYNA-N
SMILES:  CC1C(O)C(=O)C2C3C(O)(OOC2(C)C)C(CO)CC2(O)C(C=C(C)C2=O)C13O
RETENTIONTIME:  
CCS:  -1
IONMODE:  Negative
INSTRUMENTTYPE:  
INSTRUMENT:  Maxis II HD Q-TOF Bruker
COLLISIONENERGY:  
Comment:  DB#=CCMSLIB00000846628; origin=GNPS
Num Peaks:  41
116.45566	310.0
122.03535	420.0
127.03491	240.0
137.03308	270.0
139.04311	480.0
145.06621	310.0
147.04596	280.0
151.03932	810.0
153.05969	240.0
155.03761	250.0
167.07082	320.0
169.05017	710.0
181.04837	150.0
190.07079	320.0
191.06885	120.0
194.07547	360.0
195.05933	170.0
201.0493	290.0
203.06802	140.0
225.09473	260.0
226.06587	190.0
229.04837	160.0
230.07628	240.0
241.08958	360.0
243.10445	660.0
255.12051	330.0
259.06131	500.0
263.12344	160.0
269.06348	310.0
269.28113	140.0
270.19247	70.0
271.09238	200.0
287.09122	1000.0
289.10162	150.0
299.09439	400.0
305.10141	320.0
329.14435	120.0
335.11353	290.0
411.16971	750.0
457.17236	180.0
1408.11597	200.0

NAME:  NCGC00347423-02!3-[(3S,5S,8R,10S,13R,14S,17R)-3-[4,5-dihydroxy-6-(hydroxymethyl)-3-[3,4,5-trihydroxy-6-(hydroxymethyl)oxan-2-yl]oxyoxan-2-yl]oxy-14-hydroxy-10,13-dimethyl-1,2,3,4,5,6,7,8,9,11,12,15,16,17-tetradecahydrocyclopenta[a]phenanthren-17-yl]-2H-furan-5-one
PRECURSORMZ:  743.34955896683
PRECURSORTYPE:  [M+FA-H]-
FORMULA:  C35H54O14
Ontology: Kingdom: Organic compounds;Superclass: Lipids and lipid;Class: Steroids and steroid derivatives;Subclass: Steroid lactones
INCHIKEY:  RIPMDUQTRRLJTE-UHFFFAOYNA-N
SMILES:  CC12CCC3C(CCC4CC(CCC34C)OC3OC(CO)C(O)C(O)C3OC3OC(CO)C(O)C(O)C3O)C1(O)CCC2C1=CC(=O)OC1
RETENTIONTIME:  
CCS:  -1
IONMODE:  Negative
INSTRUMENTTYPE:  
INSTRUMENT:  Maxis II HD Q-TOF Bruker
COLLISIONENERGY:  
Comment:  DB#=CCMSLIB00000846634; origin=GNPS
Num Peaks:  28
85.02985	30.0
101.02331	40.0
113.02568	90.0
124.38988	10.0
125.02261	20.0
131.03851	20.0
143.03381	30.0
159.02936	20.0
161.04437	190.0
179.06209	20.0
221.06508	30.0
261.07477	10.0
295.19342	10.0
332.1886	20.0
372.94272	10.0
373.24139	230.0
374.23734	10.0
443.25012	20.0
535.29303	220.0
536.28894	20.0
553.30115	10.0
666.3855	10.0
694.16272	10.0
696.32306	10.0
697.19214	10.0
697.34253	1000.0
698.34796	60.0
742.29327	10.0

NAME:  NCGC00385458-01!(2R)-9-hydroxy-2-[2-[(2S,3R,4S,5S,6R)-3,4,5-trihydroxy-6-(hydroxymethyl)oxan-2-yl]oxypropan-2-yl]-2,3-dihydrofuro[3,2-g]chromen-7-one
PRECURSORMZ:  469.13514952083
PRECURSORTYPE:  [M+FA-H]-
FORMULA:  C20H24O10
Ontology: Kingdom: Organic compounds;Superclass: Phenylpropanoids and polyketides;Class: Coumarins and derivatives;Subclass: Furanocoumarins
INCHIKEY:  QZUDEXAHKXCIDG-UHFFFAOYNA-N
SMILES:  CC(C)(OC1OC(CO)C(O)C(O)C1O)C1CC2=C(O1)C(O)=C1OC(=O)C=CC1=C2
RETENTIONTIME:  
CCS:  -1
IONMODE:  Negative
INSTRUMENTTYPE:  
INSTRUMENT:  Maxis II HD Q-TOF Bruker
COLLISIONENERGY:  
Comment:  DB#=CCMSLIB00000846636; origin=GNPS
Num Peaks:  7
85.24618	10.0
101.02229	50.0
242.62004	10.0
243.06714	800.0
261.07745	240.0
333.09543	40.0
423.13062	1000.0

NAME:  NCGC00385353-01!(2S,3S,4S,5R,6S)-3,4,5-trihydroxy-6-(5-hydroxy-4-oxo-2-phenylchromen-7-yl)oxyoxane-2-carboxylic acid
PRECURSORMZ:  429.08272032783
PRECURSORTYPE:  [M-H]-
FORMULA:  C21H18O10
Ontology: ;;;
INCHIKEY:  IDRSJGHHZXBATQ-UHFFFAOYNA-N
SMILES:  OC1C(O)C(OC2=CC(O)=C3C(=O)C=C(OC3=C2)C2=CC=CC=C2)OC(C1O)C(O)=O
RETENTIONTIME:  
CCS:  220.9888449
IONMODE:  Negative
INSTRUMENTTYPE:  
INSTRUMENT:  Maxis II HD Q-TOF Bruker
COLLISIONENERGY:  
Comment:  DB#=CCMSLIB00000846638; origin=GNPS
Num Peaks:  3
113.02418	70.0
140.92287	80.0
253.05124	1000.0

NAME:  NCGC00385447-01!1,8,10-trihydroxy-3-(hydroxymethyl)-10-[3,4,5-trihydroxy-6-(hydroxymethyl)oxan-2-yl]anthracen-9-one
PRECURSORMZ:  479.11949945583
PRECURSORTYPE:  [M+FA-H]-
FORMULA:  C21H22O10
Ontology: Kingdom: Organic compounds;Superclass: Benzenoids;Class: Anthracenes;
INCHIKEY:  WRQPROLXESIJKE-UHFFFAOYNA-N
SMILES:  OCC1OC(C(O)C(O)C1O)C1(O)C2=C(C(O)=CC=C2)C(=O)C2=C1C=C(CO)C=C2O
RETENTIONTIME:  
CCS:  -1
IONMODE:  Negative
INSTRUMENTTYPE:  
INSTRUMENT:  Maxis II HD Q-TOF Bruker
COLLISIONENERGY:  
Comment:  DB#=CCMSLIB00000846640; origin=GNPS
Num Peaks:  8
73.99027	20.0
140.60236	10.0
253.04594	20.0
270.05472	1000.0
273.09808	10.0
283.37292	20.0
433.1163	100.0
833.84015	20.0

NAME:  NCGC00385459-01!(3R,4R,5R)-3-hydroxy-4,5-bis[(3,4,5-trihydroxybenzoyl)oxy]cyclohexene-1-carboxylic acid
PRECURSORMZ:  477.06746418783
PRECURSORTYPE:  [M-H]-
FORMULA:  C21H18O13
Ontology: Kingdom: Organic compounds;Superclass: Benzenoids;Class: Benzene and substituted derivatives;Subclass: Benzoic acids and derivatives
INCHIKEY:  UFDJVOQZZQZYJG-UHFFFAOYNA-N
SMILES:  OC1C=C(CC(OC(=O)C2=CC(O)=C(O)C(O)=C2)C1OC(=O)C1=CC(O)=C(O)C(O)=C1)C(O)=O
RETENTIONTIME:  
CCS:  202.0780442
IONMODE:  Negative
INSTRUMENTTYPE:  
INSTRUMENT:  Maxis II HD Q-TOF Bruker
COLLISIONENERGY:  
Comment:  DB#=CCMSLIB00000846641; origin=GNPS
Num Peaks:  17
93.03769	10.0
93.18802	20.0
124.01728	10.0
125.02374	90.0
140.01241	20.0
168.00218	20.0
169.01524	1000.0
201.05263	50.0
263.05957	20.0
301.00162	20.0
307.04239	20.0
325.04868	20.0
476.38611	10.0
477.06802	180.0
485.28198	20.0
1392.62451	40.0
1827.90906	20.0

NAME:  NCGC00384991-01!(3R,5S)-4-[(E)-3-(3,4-dihydroxyphenyl)prop-2-enoyl]oxy-1,3,5-trihydroxycyclohexane-1-carboxylic acid
PRECURSORMZ:  353.08780570783
PRECURSORTYPE:  [M-H]-
FORMULA:  C16H18O9
Ontology: Kingdom: Organic compounds;Superclass: Organic oxygen compounds;Class: Organooxygen compounds;Subclass: Alcohols and polyols
INCHIKEY:  GYFFKZTYYAFCTR-UHFFFAOYNA-N
SMILES:  OC1CC(O)(CC(O)C1OC(=O)C=CC1=CC(O)=C(O)C=C1)C(O)=O
RETENTIONTIME:  
CCS:  204.1685122
IONMODE:  Negative
INSTRUMENTTYPE:  
INSTRUMENT:  Maxis II HD Q-TOF Bruker
COLLISIONENERGY:  
Comment:  DB#=CCMSLIB00000846643; origin=GNPS
Num Peaks:  8
93.03535	130.0
135.05046	340.0
137.02815	300.0
161.02292	460.0
173.04504	1000.0
179.03265	750.0
191.05368	730.0
405.39996	50.0

NAME:  NCGC00180681-02!(1R,3R,4S,5R)-3,4-bis[[(E)-3-(3,4-dihydroxyphenyl)prop-2-enoyl]oxy]-1,5-dihydroxycyclohexane-1-carboxylic acid
PRECURSORMZ:  515.11949976083
PRECURSORTYPE:  [M-H]-
FORMULA:  C25H24O12
Ontology: Kingdom: Organic compounds;Superclass: Organic oxygen compounds;Class: Organooxygen compounds;Subclass: Alcohols and polyols
INCHIKEY:  UFCLZKMFXSILNL-UHFFFAOYNA-N
SMILES:  OC1CC(O)(CC(OC(=O)C=CC2=CC(O)=C(O)C=C2)C1OC(=O)C=CC1=CC(O)=C(O)C=C1)C(O)=O
RETENTIONTIME:  
CCS:  208.9993028
IONMODE:  Negative
INSTRUMENTTYPE:  
INSTRUMENT:  Maxis II HD Q-TOF Bruker
COLLISIONENERGY:  
Comment:  DB#=CCMSLIB00000846645; origin=GNPS
Num Peaks:  30
83.30626	10.0
91.26744	50.0
93.04216	50.0
107.0511	70.0
111.04525	60.0
133.02669	130.0
133.15051	30.0
135.0437	360.0
135.07533	10.0
137.02669	50.0
155.03552	260.0
161.0248	170.0
162.30455	50.0
162.62392	10.0
173.04716	1000.0
179.03499	770.0
191.05777	510.0
250.5652	20.0
267.86618	10.0
334.53937	30.0
334.57669	40.0
334.61322	20.0
335.08347	190.0
352.89056	20.0
353.08932	750.0
354.0892	20.0
513.13318	30.0
515.12109	610.0
516.13116	40.0
1235.53479	20.0

NAME:  NCGC00384990-01!(1S,3R,4R,5R)-3-[(E)-3-(3,4-dihydroxyphenyl)prop-2-enoyl]oxy-1,5-dihydroxy-4-[(E)-3-(4-hydroxy-3,5-dimethoxyphenyl)prop-2-enoyl]oxycyclohexane-1-carboxylic acid
PRECURSORMZ:  559.14571450983
PRECURSORTYPE:  [M-H]-
FORMULA:  C27H28O13
Ontology: Kingdom: Organic compounds;Superclass: Organic oxygen compounds;Class: Organooxygen compounds;Subclass: Alcohols and polyols
INCHIKEY:  BEDSGEULUAVXQH-UHFFFAOYNA-N
SMILES:  COC1=CC(C=CC(=O)OC2C(O)CC(O)(CC2OC(=O)C=CC2=CC(O)=C(O)C=C2)C(O)=O)=CC(OC)=C1O
RETENTIONTIME:  
CCS:  270.1974751
IONMODE:  Negative
INSTRUMENTTYPE:  
INSTRUMENT:  Maxis II HD Q-TOF Bruker
COLLISIONENERGY:  
Comment:  DB#=CCMSLIB00000846647; origin=GNPS
Num Peaks:  18
82.51966	10.0
89.26128	10.0
93.03478	20.0
93.44635	10.0
111.04745	30.0
132.0278	20.0
137.02612	10.0
149.02022	50.0
155.03615	120.0
161.02327	40.0
164.05226	100.0
171.66431	10.0
173.04585	1000.0
180.10992	20.0
221.23656	10.0
223.06168	230.0
308.99899	20.0
397.11746	400.0

NAME:  NCGC00384986-01!1-hydroxy-2-(hydroxymethyl)-3-[(2S,3R,4S,5S,6R)-3,4,5-trihydroxy-6-[[(2S,3R,4S,5R)-3,4,5-trihydroxyoxan-2-yl]oxymethyl]oxan-2-yl]oxyanthracene-9,10-dione
PRECURSORMZ:  563.14062912983
PRECURSORTYPE:  [M-H]-
FORMULA:  C26H28O14
Ontology: Kingdom: Organic compounds;Superclass: Benzenoids;Class: Anthracenes;Subclass: Anthraquinones
INCHIKEY:  NVKNRXOMCYTFJF-UHFFFAOYNA-N
SMILES:  OCC1=C(OC2OC(COC3OCC(O)C(O)C3O)C(O)C(O)C2O)C=C2C(=O)C3=CC=CC=C3C(=O)C2=C1O
RETENTIONTIME:  
CCS:  247.8628298
IONMODE:  Negative
INSTRUMENTTYPE:  
INSTRUMENT:  Maxis II HD Q-TOF Bruker
COLLISIONENERGY:  
Comment:  DB#=CCMSLIB00000846650; origin=GNPS
Num Peaks:  16
99.31147	40.0
135.36482	60.0
135.42189	40.0
216.0448	50.0
237.05701	60.0
239.02904	60.0
251.03749	310.0
255.08414	30.0
265.05078	190.0
269.04648	1000.0
280.04089	30.0
282.05469	40.0
306.04892	70.0
311.065	110.0
562.20685	20.0
563.13824	40.0

NAME:  NCGC00384986-01!1-hydroxy-2-(hydroxymethyl)-3-[(2S,3R,4S,5S,6R)-3,4,5-trihydroxy-6-[[(2S,3R,4S,5R)-3,4,5-trihydroxyoxan-2-yl]oxymethyl]oxan-2-yl]oxyanthracene-9,10-dione
PRECURSORMZ:  609.14610812983
PRECURSORTYPE:  [M+FA-H]-
FORMULA:  C26H28O14
Ontology: Kingdom: Organic compounds;Superclass: Benzenoids;Class: Anthracenes;Subclass: Anthraquinones
INCHIKEY:  NVKNRXOMCYTFJF-UHFFFAOYNA-N
SMILES:  OCC1=C(OC2OC(COC3OCC(O)C(O)C3O)C(O)C(O)C2O)C=C2C(=O)C3=CC=CC=C3C(=O)C2=C1O
RETENTIONTIME:  
CCS:  -1
IONMODE:  Negative
INSTRUMENTTYPE:  
INSTRUMENT:  Maxis II HD Q-TOF Bruker
COLLISIONENERGY:  
Comment:  DB#=CCMSLIB00000846652; origin=GNPS
Num Peaks:  14
139.00468	10.0
157.82291	30.0
237.05518	50.0
249.0607	20.0
251.03787	140.0
265.05157	110.0
269.04761	1000.0
269.90189	10.0
283.06656	20.0
293.03958	20.0
311.05301	70.0
353.06717	20.0
563.13959	20.0
719.13623	20.0

NAME:  NCGC00380822-01!1-[(Z)-but-2-en-2-yl]-8-chloro-3,9-dihydroxy-4,7-dimethylbenzo[b][1,4]benzodioxepin-6-one
PRECURSORMZ:  359.06917484783
PRECURSORTYPE:  [M-H]-
FORMULA:  C19H17ClO5
Ontology: Kingdom: Organic compounds;Superclass: Phenylpropanoids and polyketides;Class: Depsides and depsidones;
INCHIKEY:  KZPINWADEGOBQG-UHFFFAOYSA-N
SMILES:  CC=C(C)C1=CC(O)=C(C)C2=C1OC1=CC(O)=C(Cl)C(C)=C1C(=O)O2
RETENTIONTIME:  
CCS:  188.266202
IONMODE:  Negative
INSTRUMENTTYPE:  
INSTRUMENT:  Maxis II HD Q-TOF Bruker
COLLISIONENERGY:  
Comment:  DB#=CCMSLIB00000846654; origin=GNPS
Num Peaks:  11
182.99368	190.0
208.99741	280.0
237.09267	120.0
267.10187	270.0
295.09665	220.0
300.05145	50.0
303.04135	260.0
308.0722	120.0
315.08371	440.0
323.09076	140.0
359.07401	1000.0

NAME:  NCGC00347605-02!(2S,3R,4S,5R)-2-[4-[7-hydroxy-3-(hydroxymethyl)-5-(3-hydroxypropyl)-2,3-dihydro-1-benzofuran-2-yl]-2-methoxyphenoxy]oxane-3,4,5-triol
PRECURSORMZ:  523.18209971383
PRECURSORTYPE:  [M+FA-H]-
FORMULA:  C24H30O10
Ontology: Kingdom: Organic compounds;Superclass: Phenylpropanoids and polyketides;;
INCHIKEY:  QDWGYCCSJIYJAE-UHFFFAOYNA-N
SMILES:  COC1=C(OC2OCC(O)C(O)C2O)C=CC(=C1)C1OC2=C(C=C(CCCO)C=C2O)C1CO
RETENTIONTIME:  
CCS:  -1
IONMODE:  Negative
INSTRUMENTTYPE:  
INSTRUMENT:  Maxis II HD Q-TOF Bruker
COLLISIONENERGY:  
Comment:  DB#=CCMSLIB00000846655; origin=GNPS
Num Peaks:  16
116.48798	20.0
163.97327	10.0
165.86626	30.0
165.89417	30.0
209.0809	40.0
211.07823	50.0
260.01917	20.0
269.08157	30.0
300.10583	70.0
312.10611	70.0
315.12637	1000.0
315.43115	10.0
321.69031	20.0
327.12347	400.0
332.04202	20.0
345.13843	90.0

NAME:  NCGC00179693-03![(1S,4aS,6S,7R,7aS)-4-methoxycarbonyl-7-methyl-1-[(2S,3R,4S,5S,6R)-3,4,5-trihydroxy-6-(hydroxymethyl)oxan-2-yl]oxy-1,4a,5,6,7,7a-hexahydrocyclopenta[c]pyran-6-yl] (1S,4aS,6S,7R,7aS)-6-acetyloxy-7-methyl-1-[(2S,3R,4S,5S,6R)-3,4,5-trihydroxy-6-(hydroxymethyl)oxan-2-yl]oxy-1,4a,5,6,7,7a-hexahydrocyclopenta[c]pyran-4-carboxylate
PRECURSORMZ:  835.28774655783
PRECURSORTYPE:  [M+FA-H]-
FORMULA:  C35H50O20
Ontology: Kingdom: Organic compounds;Superclass: Lipids and lipid;Class: Prenol lipids;Subclass: Terpene glycosides
INCHIKEY:  YDHSGSSEZHFAJJ-UHFFFAOYNA-N
SMILES:  COC(=O)C1=COC(OC2OC(CO)C(O)C(O)C2O)C2C(C)C(CC12)OC(=O)C1=COC(OC2OC(CO)C(O)C(O)C2O)C2C(C)C(CC12)OC(C)=O
RETENTIONTIME:  
CCS:  -1
IONMODE:  Negative
INSTRUMENTTYPE:  
INSTRUMENT:  Maxis II HD Q-TOF Bruker
COLLISIONENERGY:  
Comment:  DB#=CCMSLIB00000846658; origin=GNPS
Num Peaks:  47
99.5555	10.0
101.02422	140.0
107.04945	130.0
113.02336	30.0
119.0363	40.0
133.06328	50.0
136.06097	10.0
151.07295	130.0
177.05609	50.0
179.06277	30.0
193.08908	110.0
195.06577	390.0
201.01759	10.0
208.58426	10.0
209.08176	340.0
209.72404	10.0
211.09462	80.0
217.05269	10.0
227.09471	40.0
229.21616	10.0
255.08727	190.0
269.09494	10.0
297.10046	90.0
340.12076	10.0
345.47772	10.0
357.12347	50.0
371.13345	20.0
375.12616	30.0
399.12976	20.0
405.15784	30.0
417.14304	390.0
418.15704	50.0
431.37909	10.0
455.95343	10.0
459.1539	550.0
460.15533	20.0
467.16226	20.0
567.2099	190.0
568.21643	40.0
585.22198	90.0
627.08319	10.0
627.23199	1000.0
628.23328	140.0
628.30511	10.0
729.27344	20.0
789.28546	180.0
790.29004	30.0

NAME:  NCGC00380731-01!3-[6,12,22-tris(2-amino-2-oxoethyl)-19-(hydroxymethyl)-9-[(4-hydroxyphenyl)methyl]-16-(11-methyldodecyl)-2,5,8,11,14,18,21,24-octaoxo-1,4,7,10,13,17,20,23-octazabicyclo[23.3.0]octacosan-3-yl]propanamide
PRECURSORMZ:  1069.56876878783
PRECURSORTYPE:  [M-H]-
FORMULA:  C50H78N12O14
Ontology: Kingdom: Organic compounds;Superclass: Organic acids and derivatives;Class: Peptidomimetics;Subclass: Hybrid peptides
INCHIKEY:  KKIVMGDDVLIFLL-UHFFFAOYNA-N
SMILES:  CC(C)CCCCCCCCCCC1CC(O)=NC(CC(O)=N)C(O)=NC(CC2=CC=C(O)C=C2)C(O)=NC(CC(O)=N)C(O)=NC(CCC(O)=N)C(=O)N2CCCC2C(O)=NC(CC(O)=N)C(O)=NC(CO)C(O)=N1
RETENTIONTIME:  
CCS:  -1
IONMODE:  Negative
INSTRUMENTTYPE:  
INSTRUMENT:  Maxis II HD Q-TOF Bruker
COLLISIONENERGY:  
Comment:  DB#=CCMSLIB00000846660; origin=GNPS
Num Peaks:  166
95.02562	40.0
96.00968	590.0
97.04637	30.0
98.02502	250.0
98.32075	40.0
107.05878	60.0
109.04144	210.0
110.12855	50.0
111.02051	60.0
113.03739	430.0
119.05096	70.0
120.59858	20.0
124.04321	90.0
127.0512	200.0
131.04364	40.0
138.05547	200.0
139.04738	60.0
152.04619	200.0
152.08221	60.0
152.43234	70.0
152.61617	70.0
153.03041	110.0
153.06841	60.0
153.95703	30.0
162.0406	40.0
166.03528	40.0
167.04039	40.0
170.05618	620.0
170.09468	870.0
170.2047	20.0
170.64444	30.0
171.0909	160.0
178.0976	60.0
179.08128	120.0
180.07889	50.0
180.69945	50.0
181.05792	50.0
182.06677	30.0
182.09538	120.0
184.06787	70.0
187.08102	80.0
195.07439	80.0
199.0825	60.0
202.04813	50.0
207.08365	110.0
209.08363	70.0
211.0817	30.0
214.0954	50.0
215.08774	80.0
219.44142	30.0
223.7077	50.0
224.06322	570.0
224.10577	110.0
231.38644	30.0
233.08545	80.0
234.09267	90.0
241.13618	80.0
258.09225	50.0
259.07339	80.0
263.12436	60.0
266.12399	30.0
267.11118	60.0
267.14365	30.0
268.52411	10.0
275.11871	100.0
276.10095	850.0
276.94928	30.0
277.10706	100.0
283.13351	50.0
284.09952	20.0
284.13214	60.0
289.23041	40.0
292.11685	20.0
295.23056	60.0
296.13431	50.0
298.10373	100.0
298.15839	340.0
307.2384	80.0
310.53558	30.0
320.13199	40.0
321.11517	20.0
332.13806	70.0
338.16995	50.0
340.14572	50.0
343.13776	90.0
348.3017	70.0
352.16971	60.0
366.27682	480.0
367.26123	50.0
377.146	50.0
378.19525	100.0
385.97592	50.0
389.14383	70.0
392.12497	50.0
392.17746	90.0
392.23715	40.0
395.16772	860.0
396.16635	140.0
404.16049	50.0
421.27399	20.0
430.18332	40.0
447.31473	50.0
452.32724	40.0
463.28516	130.0
466.20865	20.0
480.36252	110.0
501.1763	90.0
503.49802	70.0
509.21442	310.0
509.31393	20.0
511.32874	40.0
518.23657	20.0
520.32025	20.0
521.22302	30.0
529.34656	80.0
530.36218	50.0
536.43317	30.0
537.38068	80.0
540.22144	10.0
549.36206	80.0
575.26044	170.0
579.57623	60.0
612.24811	80.0
625.37054	40.0
626.33716	70.0
643.38361	200.0
644.39868	20.0
667.27734	30.0
672.27783	390.0
684.26672	60.0
687.39948	30.0
689.29919	90.0
691.41125	30.0
702.3183	120.0
736.38361	50.0
744.43427	40.0
761.64014	50.0
762.04114	30.0
762.45465	120.0
763.44543	130.0
786.29901	70.0
809.4057	80.0
836.51904	40.0
925.52856	80.0
938.53394	30.0
942.52264	50.0
942.57886	30.0
955.51801	50.0
1004.54138	30.0
1021.56177	50.0
1022.50916	50.0
1039.48401	70.0
1039.56091	1000.0
1040.04163	20.0
1040.54846	360.0
1041.57349	40.0
1045.55542	40.0
1051.50977	40.0
1052.55432	110.0
1069.55408	560.0
1070.1333	50.0
1070.4137	20.0
1070.53247	150.0
1070.57654	180.0
1071.55347	40.0
1630.22778	60.0

NAME:  NCGC00380731-01!3-[6,12,22-tris(2-amino-2-oxoethyl)-19-(hydroxymethyl)-9-[(4-hydroxyphenyl)methyl]-16-(11-methyldodecyl)-2,5,8,11,14,18,21,24-octaoxo-1,4,7,10,13,17,20,23-octazabicyclo[23.3.0]octacosan-3-yl]propanamide
PRECURSORMZ:  1115.57424778783
PRECURSORTYPE:  [M+FA-H]-
FORMULA:  C50H78N12O14
Ontology: Kingdom: Organic compounds;Superclass: Organic acids and derivatives;Class: Peptidomimetics;Subclass: Hybrid peptides
INCHIKEY:  KKIVMGDDVLIFLL-UHFFFAOYNA-N
SMILES:  CC(C)CCCCCCCCCCC1CC(O)=NC(CC(O)=N)C(O)=NC(CC2=CC=C(O)C=C2)C(O)=NC(CC(O)=N)C(O)=NC(CCC(O)=N)C(=O)N2CCCC2C(O)=NC(CC(O)=N)C(O)=NC(CO)C(O)=N1
RETENTIONTIME:  
CCS:  -1
IONMODE:  Negative
INSTRUMENTTYPE:  
INSTRUMENT:  Maxis II HD Q-TOF Bruker
COLLISIONENERGY:  
Comment:  DB#=CCMSLIB00000846662; origin=GNPS
Num Peaks:  292
82.02948	40.0
83.02274	10.0
93.4997	10.0
94.03175	10.0
94.96667	20.0
95.02477	20.0
96.00993	260.0
97.02026	10.0
97.04581	10.0
98.02456	140.0
109.03995	100.0
110.02459	160.0
111.02073	70.0
113.03568	270.0
114.78174	10.0
118.2022	10.0
123.05582	10.0
124.04311	20.0
125.03677	20.0
126.0209	20.0
127.05114	240.0
127.739	10.0
128.0538	20.0
130.07208	10.0
134.0609	20.0
134.07344	20.0
136.04134	10.0
137.05244	10.0
137.07921	30.0
138.06007	40.0
139.05402	50.0
140.08107	20.0
141.02744	10.0
143.0457	10.0
144.08174	10.0
145.02702	10.0
149.045	20.0
150.05634	20.0
151.04131	10.0
152.04825	270.0
153.02881	220.0
153.06927	130.0
154.09245	10.0
154.87462	20.0
155.01262	10.0
155.04486	40.0
156.04544	20.0
162.05585	100.0
163.05136	30.0
164.05956	10.0
164.07979	20.0
165.032	20.0
165.06572	30.0
166.06004	10.0
167.04849	20.0
168.04428	20.0
169.07253	20.0
169.12329	10.0
170.05692	730.0
170.09407	610.0
171.03886	100.0
171.08209	20.0
172.06853	10.0
174.06012	10.0
176.07561	30.0
177.06604	40.0
179.08304	40.0
180.076	70.0
181.06172	50.0
181.25444	10.0
182.05626	60.0
182.09531	70.0
182.76831	10.0
183.08287	10.0
184.07153	40.0
185.05875	10.0
187.08609	50.0
195.07794	70.0
198.06288	20.0
198.09087	20.0
200.09985	10.0
201.09589	30.0
205.10368	10.0
206.05727	90.0
206.09496	20.0
207.07703	90.0
208.21129	10.0
210.09401	10.0
213.06465	10.0
215.08269	30.0
216.06602	10.0
224.06876	740.0
224.10443	160.0
225.06775	10.0
225.1082	20.0
226.07707	10.0
227.07549	30.0
227.11473	60.0
228.1221	10.0
231.07741	20.0
232.11102	20.0
233.09306	40.0
234.11955	10.0
235.6317	10.0
235.75018	10.0
237.11311	10.0
241.09178	100.0
241.13306	100.0
249.09711	20.0
250.09111	20.0
250.61314	10.0
252.06032	10.0
252.23183	30.0
253.10109	10.0
253.13567	20.0
258.08545	70.0
258.12234	10.0
259.0903	10.0
260.10281	20.0
263.11383	30.0
264.23053	30.0
266.08444	40.0
266.12363	10.0
266.1492	20.0
267.07944	40.0
267.11514	30.0
269.12848	10.0
275.11761	30.0
276.09949	780.0
277.14203	10.0
280.14722	40.0
281.12433	90.0
283.14554	10.0
284.09811	40.0
284.13751	120.0
291.14954	20.0
292.13043	10.0
293.12769	90.0
294.12585	10.0
295.09882	10.0
295.14401	60.0
298.11163	20.0
298.15036	150.0
299.1478	10.0
307.23962	30.0
309.15778	20.0
310.14844	30.0
321.11887	20.0
321.24881	10.0
323.13211	10.0
324.12872	140.0
325.13821	20.0
329.13962	20.0
333.67426	10.0
333.76459	20.0
334.14505	20.0
335.12918	10.0
335.16254	10.0
338.14807	100.0
345.11597	10.0
348.26572	20.0
349.2468	50.0
351.1767	10.0
352.15833	60.0
355.13885	20.0
366.28006	400.0
367.16956	20.0
367.29099	10.0
368.28064	10.0
373.12259	30.0
374.11581	20.0
377.15228	40.0
377.39044	20.0
378.15479	20.0
378.26822	10.0
390.14673	20.0
392.28336	20.0
394.17059	20.0
395.16919	890.0
396.17184	80.0
405.20087	10.0
407.16605	20.0
408.19009	10.0
410.30081	20.0
412.19431	20.0
419.21439	10.0
421.18408	30.0
423.30243	10.0
425.17285	40.0
426.19073	10.0
438.19418	10.0
452.33517	30.0
462.95932	10.0
467.30441	20.0
479.31216	10.0
480.32184	10.0
487.02737	10.0
491.20792	10.0
491.69556	10.0
492.19498	30.0
493.2496	10.0
501.17209	40.0
503.13171	10.0
507.73227	20.0
509.13535	20.0
509.20898	190.0
509.68372	10.0
510.21048	40.0
511.32025	20.0
515.92181	10.0
519.25305	10.0
522.20538	20.0
526.24438	10.0
529.34039	120.0
530.35675	30.0
537.34283	10.0
537.38757	70.0
538.39313	20.0
539.19702	10.0
540.27209	20.0
567.39294	10.0
570.23175	10.0
575.25983	80.0
589.38623	20.0
598.22729	30.0
599.23523	10.0
602.00055	20.0
605.25946	30.0
613.24237	20.0
616.26447	20.0
625.38403	10.0
634.38831	20.0
641.24176	10.0
643.37933	110.0
644.39105	20.0
645.38147	10.0
647.45123	10.0
654.27185	10.0
668.38501	10.0
672.08759	10.0
672.28259	190.0
673.27026	20.0
673.33447	10.0
684.28339	20.0
689.30487	30.0
690.31097	10.0
702.27777	40.0
703.29675	20.0
722.6051	30.0
737.34106	10.0
744.44128	10.0
754.40881	30.0
762.45599	180.0
763.44159	40.0
786.30933	40.0
787.31616	20.0
792.48151	20.0
814.48065	30.0
815.44098	10.0
816.31482	10.0
844.49542	10.0
868.47241	20.0
889.48212	10.0
900.72327	10.0
923.50006	10.0
924.47363	10.0
925.53809	30.0
941.50793	10.0
942.55017	40.0
943.50397	10.0
955.54388	20.0
968.54529	20.0
972.55731	10.0
1021.54669	20.0
1022.55396	60.0
1034.54199	10.0
1039.55957	1000.0
1040.56177	380.0
1040.65564	20.0
1041.55908	60.0
1051.55872	130.0
1052.49829	20.0
1052.57727	50.0
1053.55872	20.0
1063.67554	10.0
1066.42871	10.0
1068.42712	10.0
1069.56714	930.0
1070.57532	450.0
1071.57141	70.0
1392.48865	20.0
1703.68982	10.0

NAME:  NCGC00180738-02!(E)-3-[2-[(2S,3R,4S,5S,6R)-3,4,5-trihydroxy-6-(hydroxymethyl)oxan-2-yl]oxyphenyl]prop-2-enoic acid
PRECURSORMZ:  371.09837008783
PRECURSORTYPE:  [M+FA-H]-
FORMULA:  C15H18O8
Ontology: ;;;
INCHIKEY:  GVRIYIMNJGULCZ-UHFFFAOYNA-N
SMILES:  OCC1OC(OC2=CC=CC=C2C=CC(O)=O)C(O)C(O)C1O
RETENTIONTIME:  
CCS:  -1
IONMODE:  Negative
INSTRUMENTTYPE:  
INSTRUMENT:  Maxis II HD Q-TOF Bruker
COLLISIONENERGY:  
Comment:  DB#=CCMSLIB00000846664; origin=GNPS
Num Peaks:  3
119.04803	210.0
163.04076	1000.0
325.08862	150.0

NAME:  NCGC00180788-02!3-(4-hydroxyphenyl)-5-methoxy-7-[(2S,3R,4S,5S,6R)-3,4,5-trihydroxy-6-(hydroxymethyl)oxan-2-yl]oxychromen-4-one
PRECURSORMZ:  491.11949945583
PRECURSORTYPE:  [M+FA-H]-
FORMULA:  C22H22O10
Ontology: ;;;
INCHIKEY:  KSVVGBSBNPMXJF-UHFFFAOYNA-N
SMILES:  COC1=C2C(=O)C(=COC2=CC(OC2OC(CO)C(O)C(O)C2O)=C1)C1=CC=C(O)C=C1
RETENTIONTIME:  
CCS:  -1
IONMODE:  Negative
INSTRUMENTTYPE:  
INSTRUMENT:  Maxis II HD Q-TOF Bruker
COLLISIONENERGY:  
Comment:  DB#=CCMSLIB00000846665; origin=GNPS
Num Peaks:  8
240.04417	30.0
268.0376	40.0
281.06964	20.0
282.05447	280.0
283.06564	1000.0
285.98172	80.0
445.11179	160.0
678.19141	20.0

NAME:  NCGC00180799-02!2-(3,4-dihydroxyphenyl)-5,7-dihydroxy-3-[(2S,3R,4R,5R,6S)-3,4,5-trihydroxy-6-methyloxan-2-yl]oxychromen-4-one
PRECURSORMZ:  447.09328501183
PRECURSORTYPE:  [M-H]-
FORMULA:  C21H20O11
Ontology: ;;;
INCHIKEY:  OXGUCUVFOIWWQJ-UHFFFAOYNA-N
SMILES:  CC1OC(OC2=C(OC3=CC(O)=CC(O)=C3C2=O)C2=CC(O)=C(O)C=C2)C(O)C(O)C1O
RETENTIONTIME:  
CCS:  200.6827075
IONMODE:  Negative
INSTRUMENTTYPE:  
INSTRUMENT:  Maxis II HD Q-TOF Bruker
COLLISIONENERGY:  
Comment:  DB#=CCMSLIB00000846668; origin=GNPS
Num Peaks:  10
140.83803	30.0
243.03864	60.0
255.02618	30.0
271.03116	150.0
300.02914	1000.0
301.03799	470.0
446.48517	40.0
447.09024	640.0
467.8815	30.0
1159.85449	30.0

NAME:  NCGC00180847-02!(2S,3R,4S,5S,6R)-2-[(2R,3R,4S,5S,6R)-2-[[(3S,8R,10R,12R,14R,17S)-17-[(2S)-2-[(2S,3R,4S,5S,6R)-6-[[(2R,3R,4R,5S)-3,4-dihydroxy-5-(hydroxymethyl)oxolan-2-yl]oxymethyl]-3,4,5-trihydroxyoxan-2-yl]oxy-6-methylhept-5-en-2-yl]-12-hydroxy-4,4,8,10,14-pentamethyl-2,3,5,6,7,9,11,12,13,15,16,17-dodecahydro-1H-cyclopenta[a]phenanthren-3-yl]oxy]-4,5-dihydroxy-6-(hydroxymethyl)oxan-3-yl]oxy-6-(hydroxymethyl)oxane-3,4,5-triol
PRECURSORMZ:  1123.59057708583
PRECURSORTYPE:  [M+FA-H]-
FORMULA:  C53H90O22
Ontology: ;;;
INCHIKEY:  JDCPEKQWFDWQLI-UHFFFAOYNA-N
SMILES:  CC(C)=CCCC(C)(OC1OC(COC2OC(CO)C(O)C2O)C(O)C(O)C1O)C1CCC2(C)C1C(O)CC1C3(C)CCC(OC4OC(CO)C(O)C(O)C4OC4OC(CO)C(O)C(O)C4O)C(C)(C)C3CCC21C
RETENTIONTIME:  
CCS:  -1
IONMODE:  Negative
INSTRUMENTTYPE:  
INSTRUMENT:  Maxis II HD Q-TOF Bruker
COLLISIONENERGY:  
Comment:  DB#=CCMSLIB00000846670; origin=GNPS
Num Peaks:  10
180.06479	10.0
191.05753	10.0
876.25055	10.0
1077.58423	1000.0
1077.79236	20.0
1078.30652	10.0
1078.59326	130.0
1079.57056	10.0
1123.59143	120.0
1124.59045	30.0

NAME:  NCGC00385660-01!(10R)-2,8-dihydroxy-1-methoxy-6-methyl-10-[(2S,3R,4R,5S,6R)-3,4,5-trihydroxy-6-(hydroxymethyl)oxan-2-yl]-10H-anthracen-9-one
PRECURSORMZ:  477.14023490083
PRECURSORTYPE:  [M+FA-H]-
FORMULA:  C22H24O9
Ontology: ;;;
INCHIKEY:  RVKRJABUQLMQNO-UHFFFAOYNA-N
SMILES:  COC1=C(O)C=CC2=C1C(=O)C1=C(C=C(C)C=C1O)C2C1OC(CO)C(O)C(O)C1O
RETENTIONTIME:  
CCS:  -1
IONMODE:  Negative
INSTRUMENTTYPE:  
INSTRUMENT:  Maxis II HD Q-TOF Bruker
COLLISIONENERGY:  
Comment:  DB#=CCMSLIB00000846672; origin=GNPS
Num Peaks:  17
131.19427	30.0
140.51219	10.0
153.09566	10.0
187.08041	20.0
225.06	10.0
236.57491	10.0
249.05748	80.0
253.05022	200.0
267.06595	50.0
268.07333	120.0
269.08102	10.0
285.42157	30.0
294.06274	20.0
296.06998	140.0
311.09146	1000.0
431.1391	160.0
1066.30078	10.0

NAME:  NCGC00169775-02!4-(3,4-dihydroxyphenyl)-7-methoxy-5-[(2S,3R,4S,5S,6R)-3,4,5-trihydroxy-6-(hydroxymethyl)oxan-2-yl]oxychromen-2-one
PRECURSORMZ:  461.10893507583
PRECURSORTYPE:  [M-H]-
FORMULA:  C22H22O11
Ontology: ;;;
INCHIKEY:  JZBHUVGJBWDUSA-UHFFFAOYNA-N
SMILES:  COC1=CC2=C(C(OC3OC(CO)C(O)C(O)C3O)=C1)C(=CC(=O)O2)C1=CC(O)=C(O)C=C1
RETENTIONTIME:  
CCS:  206.7562258
IONMODE:  Negative
INSTRUMENTTYPE:  
INSTRUMENT:  Maxis II HD Q-TOF Bruker
COLLISIONENERGY:  
Comment:  DB#=CCMSLIB00000846674; origin=GNPS
Num Peaks:  10
133.06064	30.0
147.8015	40.0
214.01978	20.0
256.03	10.0
283.01981	20.0
284.02951	50.0
298.54187	20.0
298.90869	30.0
299.05478	1000.0
461.10065	20.0

NAME:  NCGC00169775-02!4-(3,4-dihydroxyphenyl)-7-methoxy-5-[(2S,3R,4S,5S,6R)-3,4,5-trihydroxy-6-(hydroxymethyl)oxan-2-yl]oxychromen-2-one
PRECURSORMZ:  507.11441407583
PRECURSORTYPE:  [M+FA-H]-
FORMULA:  C22H22O11
Ontology: ;;;
INCHIKEY:  JZBHUVGJBWDUSA-UHFFFAOYNA-N
SMILES:  COC1=CC2=C(C(OC3OC(CO)C(O)C(O)C3O)=C1)C(=CC(=O)O2)C1=CC(O)=C(O)C=C1
RETENTIONTIME:  
CCS:  -1
IONMODE:  Negative
INSTRUMENTTYPE:  
INSTRUMENT:  Maxis II HD Q-TOF Bruker
COLLISIONENERGY:  
Comment:  DB#=CCMSLIB00000846676; origin=GNPS
Num Peaks:  7
284.03159	20.0
297.0477	20.0
298.05182	20.0
299.05603	1000.0
362.58597	30.0
458.68304	10.0
461.11411	180.0

NAME:  NCGC00385646-01!7-[(2S,3R,4S,5S,6R)-4,5-dihydroxy-6-(hydroxymethyl)-3-[(2S,3R,4R,5R,6S)-3,4,5-trihydroxy-6-methyloxan-2-yl]oxyoxan-2-yl]oxy-5-hydroxy-2-(4-hydroxy-3-methoxyphenyl)-2,3-dihydrochromen-4-one
PRECURSORMZ:  609.18249394283
PRECURSORTYPE:  [M-H]-
FORMULA:  C28H34O15
Ontology: ;;;
INCHIKEY:  AODBEDTXATXPNK-UHFFFAOYNA-N
SMILES:  COC1=C(O)C=CC(=C1)C1CC(=O)C2=C(O)C=C(OC3OC(CO)C(O)C(O)C3OC3OC(C)C(O)C(O)C3O)C=C2O1
RETENTIONTIME:  
CCS:  -1
IONMODE:  Negative
INSTRUMENTTYPE:  
INSTRUMENT:  Maxis II HD Q-TOF Bruker
COLLISIONENERGY:  
Comment:  DB#=CCMSLIB00000846678; origin=GNPS
Num Peaks:  19
108.02122	140.0
149.06113	100.0
151.00398	240.0
151.08746	30.0
161.18137	20.0
164.01611	110.0
175.04424	40.0
203.06355	30.0
285.04059	90.0
286.04144	60.0
299.06482	110.0
301.07034	770.0
302.06628	50.0
310.89771	60.0
343.09012	60.0
455.13016	60.0
459.11816	200.0
463.12234	70.0
609.18542	1000.0

NAME:  NCGC00385646-01!7-[(2S,3R,4S,5S,6R)-4,5-dihydroxy-6-(hydroxymethyl)-3-[(2S,3R,4R,5R,6S)-3,4,5-trihydroxy-6-methyloxan-2-yl]oxyoxan-2-yl]oxy-5-hydroxy-2-(4-hydroxy-3-methoxyphenyl)-2,3-dihydrochromen-4-one
PRECURSORMZ:  655.18797294283
PRECURSORTYPE:  [M+FA-H]-
FORMULA:  C28H34O15
Ontology: ;;;
INCHIKEY:  AODBEDTXATXPNK-UHFFFAOYNA-N
SMILES:  COC1=C(O)C=CC(=C1)C1CC(=O)C2=C(O)C=C(OC3OC(CO)C(O)C(O)C3OC3OC(C)C(O)C(O)C3O)C=C2O1
RETENTIONTIME:  
CCS:  -1
IONMODE:  Negative
INSTRUMENTTYPE:  
INSTRUMENT:  Maxis II HD Q-TOF Bruker
COLLISIONENERGY:  
Comment:  DB#=CCMSLIB00000846679; origin=GNPS
Num Peaks:  18
116.52358	40.0
151.00261	400.0
163.06604	50.0
164.00481	100.0
164.08403	30.0
165.02177	80.0
193.01999	140.0
231.94952	70.0
286.04846	80.0
301.07242	1000.0
403.10101	70.0
452.04349	90.0
606.76685	50.0
608.86798	70.0
609.177	930.0
610.19537	40.0
654.30994	40.0
972.92743	20.0

NAME:  NCGC00385666-01!(1R,2S)-7-hydroxy-1-(4-hydroxy-3,5-dimethoxyphenyl)-2-N,3-N-bis[2-(4-hydroxyphenyl)ethyl]-6,8-dimethoxy-1,2-dihydronaphthalene-2,3-dicarboxamide
PRECURSORMZ:  683.26101904383
PRECURSORTYPE:  [M-H]-
FORMULA:  C38H40N2O10
Ontology: ;;;
INCHIKEY:  IFNFMIMLJKQPGW-UHFFFAOYNA-N
SMILES:  COC1=CC(=CC(OC)=C1O)C1C(C(O)=NCCC2=CC=C(O)C=C2)C(=CC2=CC(OC)=C(O)C(OC)=C12)C(=O)NCCC1=CC=C(O)C=C1
RETENTIONTIME:  
CCS:  276.5822479
IONMODE:  Negative
INSTRUMENTTYPE:  
INSTRUMENT:  Maxis II HD Q-TOF Bruker
COLLISIONENERGY:  
Comment:  DB#=CCMSLIB00000846682; origin=GNPS
Num Peaks:  62
138.02936	40.0
153.0594	10.0
174.03574	50.0
175.03644	20.0
188.04251	20.0
189.05576	160.0
202.06102	20.0
204.62048	10.0
216.01817	30.0
229.03812	20.0
230.04617	70.0
244.05708	20.0
249.68968	20.0
255.05499	20.0
258.07724	20.0
281.23611	10.0
299.09338	10.0
307.73077	30.0
307.86044	10.0
308.08902	30.0
310.07629	20.0
311.05219	10.0
312.06995	20.0
313.07571	10.0
318.85413	10.0
327.08813	30.0
331.466	20.0
336.07816	70.0
337.09146	60.0
338.10254	10.0
339.07977	20.0
341.10867	40.0
343.09976	20.0
344.08737	20.0
351.11298	90.0
352.12054	510.0
356.12384	30.0
366.13782	50.0
369.08603	10.0
382.08704	20.0
387.93588	10.0
407.11713	10.0
432.11154	30.0
440.11258	10.0
445.16	10.0
488.17627	10.0
489.13394	20.0
490.14764	90.0
500.1481	10.0
504.16577	80.0
505.17441	120.0
514.16699	50.0
515.18127	30.0
520.19598	560.0
520.32678	20.0
521.20538	10.0
529.19879	40.0
668.2326	20.0
681.19623	10.0
683.26251	1000.0
684.26672	50.0
684.76917	20.0

NAME:  NCGC00385173-01!3-(3,4-dihydroxyphenyl)-5,7-dihydroxy-6,8-bis(3-methylbut-2-enyl)chromen-4-one
PRECURSORMZ:  421.16566210483
PRECURSORTYPE:  [M-H]-
FORMULA:  C25H26O6
Ontology: ;;;
INCHIKEY:  OAUIRSVJXOFAOO-UHFFFAOYSA-N
SMILES:  CC(C)=CCC1=C(O)C(CC=C(C)C)=C2OC=C(C(=O)C2=C1O)C1=CC(O)=C(O)C=C1
RETENTIONTIME:  
CCS:  231.0998507
IONMODE:  Negative
INSTRUMENTTYPE:  
INSTRUMENT:  Maxis II HD Q-TOF Bruker
COLLISIONENERGY:  
Comment:  DB#=CCMSLIB00000846684; origin=GNPS
Num Peaks:  8
218.61728	50.0
311.06421	60.0
323.05493	70.0
363.08548	60.0
382.08923	30.0
421.16553	1000.0
422.16681	70.0
436.10782	40.0

NAME:  NCGC00347371-02!methyl (4S,5Z,6S)-4-(2-methoxy-2-oxoethyl)-5-[2-[(E)-3-phenylprop-2-enoyl]oxyethylidene]-6-[(2S,3R,4S,5S,6R)-3,4,5-trihydroxy-6-(hydroxymethyl)oxan-2-yl]oxy-4H-pyran-3-carboxylate
PRECURSORMZ:  609.18249363783
PRECURSORTYPE:  [M+FA-H]-
FORMULA:  C27H32O13
Ontology: Kingdom: Organic compounds;Superclass: Lipids and lipid;Class: Prenol lipids;Subclass: Terpene glycosides
INCHIKEY:  QBKMGAJNGCTGFA-UHFFFAOYNA-N
SMILES:  COC(=O)CC1C(=CCOC(=O)C=CC2=CC=CC=C2)C(OC2OC(CO)C(O)C(O)C2O)OC=C1C(=O)OC
RETENTIONTIME:  
CCS:  -1
IONMODE:  Negative
INSTRUMENTTYPE:  
INSTRUMENT:  Maxis II HD Q-TOF Bruker
COLLISIONENERGY:  
Comment:  DB#=CCMSLIB00000846686; origin=GNPS
Num Peaks:  12
116.93277	30.0
147.04251	1000.0
149.06232	30.0
150.42821	20.0
153.01483	20.0
177.0596	50.0
185.04141	90.0
209.08388	370.0
221.04552	50.0
253.06871	150.0
299.09644	30.0
415.12381	40.0

NAME:  NCGC00385183-01!(9R)-9-[(9R)-2-carboxy-4-hydroxy-10-oxo-5-[(2S,3R,4S,5S,6R)-3,4,5-trihydroxy-6-(hydroxymethyl)oxan-2-yl]oxy-9H-anthracen-9-yl]-4-hydroxy-10-oxo-5-[(2S,3R,4S,5S,6R)-3,4,5-trihydroxy-6-(hydroxymethyl)oxan-2-yl]oxy-9H-anthracene-2-carboxylic acid
PRECURSORMZ:  861.18836717183
PRECURSORTYPE:  [M-H]-
FORMULA:  C42H38O20
Ontology: ;;;
INCHIKEY:  IPQVTOJGNYVQEO-UHFFFAOYNA-N
SMILES:  OCC1OC(OC2=CC=CC3=C2C(=O)C2=C(C=C(C=C2O)C(O)=O)C3C2C3=C(C(OC4OC(CO)C(O)C(O)C4O)=CC=C3)C(=O)C3=C2C=C(C=C3O)C(O)=O)C(O)C(O)C1O
RETENTIONTIME:  
CCS:  251.9483248
IONMODE:  Negative
INSTRUMENTTYPE:  
INSTRUMENT:  Maxis II HD Q-TOF Bruker
COLLISIONENERGY:  
Comment:  DB#=CCMSLIB00000846688; origin=GNPS
Num Peaks:  76
75.7588	40.0
84.07755	30.0
172.05281	90.0
195.0423	150.0
199.7917	40.0
199.83759	40.0
200.03824	90.0
200.05359	90.0
200.0946	90.0
201.05594	40.0
204.0363	100.0
212.04022	70.0
219.02548	120.0
224.04634	670.0
225.05281	170.0
226.06178	60.0
226.75018	30.0
227.03169	1000.0
228.04292	70.0
238.06255	90.0
253.05261	60.0
255.03664	70.0
268.03918	160.0
269.03778	120.0
311.05051	60.0
319.06454	40.0
351.38181	60.0
355.11154	50.0
373.00912	40.0
375.12701	50.0
379.06085	30.0
386.09711	980.0
386.38504	40.0
387.08429	60.0
388.10574	40.0
388.34418	30.0
388.62152	30.0
389.08664	460.0
390.10187	330.0
400.07294	40.0
418.09058	410.0
419.09064	50.0
422.08679	110.0
429.0751	60.0
431.08542	120.0
446.0929	60.0
448.07584	130.0
449.10129	170.0
450.10718	80.0
473.0556	30.0
491.08075	140.0
493.08548	140.0
593.14618	30.0
609.1618	80.0
610.14362	100.0
611.14301	100.0
611.1861	40.0
636.12445	120.0
653.16412	50.0
654.14886	50.0
655.14929	80.0
691.49622	60.0
697.72485	60.0
698.12054	200.0
699.13898	60.0
699.26508	30.0
700.14014	30.0
817.19812	170.0
818.20667	90.0
861.19666	580.0
862.21124	80.0
880.78778	20.0
1016.55939	50.0
1121.66711	40.0
1214.34119	40.0
1214.52051	50.0

NAME:  NCGC00380241-01!5-methyl-4-[(2S,3R,4S,5S,6R)-3,4,5-trihydroxy-6-(hydroxymethyl)oxan-2-yl]oxychromen-2-one
PRECURSORMZ:  383.09837008783
PRECURSORTYPE:  [M+FA-H]-
FORMULA:  C16H18O8
Ontology: ;;;
INCHIKEY:  DXBGTODWNFZHCD-UHFFFAOYNA-N
SMILES:  CC1=C2C(OC3OC(CO)C(O)C(O)C3O)=CC(=O)OC2=CC=C1
RETENTIONTIME:  
CCS:  -1
IONMODE:  Negative
INSTRUMENTTYPE:  
INSTRUMENT:  Maxis II HD Q-TOF Bruker
COLLISIONENERGY:  
Comment:  DB#=CCMSLIB00000846690; origin=GNPS
Num Peaks:  4
131.04855	90.0
173.36963	70.0
175.03935	1000.0
189.05217	70.0

NAME:  NCGC00380394-01!methyl 2-(4a,6,10a-trihydroxy-1-methyl-5,10-dioxo-3,4-dihydro-1H-benzo[g]isochromen-3-yl)acetate
PRECURSORMZ:  395.09837008783
PRECURSORTYPE:  [M+FA-H]-
FORMULA:  C17H18O8
Ontology: ;;;
INCHIKEY:  HILBWEPXZDMOAE-UHFFFAOYNA-N
SMILES:  COC(=O)CC1CC2(O)C(=O)C3=C(C=CC=C3O)C(=O)C2(O)C(C)O1
RETENTIONTIME:  
CCS:  -1
IONMODE:  Negative
INSTRUMENTTYPE:  
INSTRUMENT:  Maxis II HD Q-TOF Bruker
COLLISIONENERGY:  
Comment:  DB#=CCMSLIB00000846692; origin=GNPS
Num Peaks:  15
161.06438	230.0
187.03838	210.0
187.07312	230.0
189.01837	330.0
204.04356	410.0
205.01634	370.0
205.04752	240.0
206.01984	790.0
219.06827	140.0
229.05728	620.0
247.07262	320.0
255.06361	280.0
271.28378	230.0
271.35468	60.0
349.09763	1000.0

NAME:  NCGC00380399-01!5-chloro-2,4-dihydroxy-6-methyl-3-[(2E,4E)-3-methyl-5-(1,2,6-trimethyl-5-oxocyclohex-3-en-1-yl)penta-2,4-dienyl]benzaldehyde
PRECURSORMZ:  401.15251054783
PRECURSORTYPE:  [M-H]-
FORMULA:  C23H27ClO4
Ontology: ;;;
INCHIKEY:  ZLAQYJKDQSZARB-UHFFFAOYNA-N
SMILES:  CC1C=CC(=O)C(C)C1(C)C=CC(C)=CCC1=C(O)C(Cl)=C(C)C(C=O)=C1O
RETENTIONTIME:  
CCS:  216.39974
IONMODE:  Negative
INSTRUMENTTYPE:  
INSTRUMENT:  Maxis II HD Q-TOF Bruker
COLLISIONENERGY:  
Comment:  DB#=CCMSLIB00000846694; origin=GNPS
Num Peaks:  10
128.00455	100.0
154.47386	10.0
169.00168	60.0
214.19858	40.0
235.01427	50.0
264.05972	70.0
306.68634	50.0
319.11105	40.0
401.15631	1000.0
415.37637	60.0

NAME:  NCGC00380243-01!
PRECURSORMZ:  411.10854115183
PRECURSORTYPE:  [M-H]-
FORMULA:  C22H20O8
Ontology: ;;;
INCHIKEY:  VXTQFTUOAJRUDO-UHFFFAOYNA-N
SMILES:  CC(C)(O)CCC1=C2OC3=CC4=C(C(O)=C3C(=O)C2=C(O)C=C1)C1(O)C=COC1O4
RETENTIONTIME:  
CCS:  201.880683
IONMODE:  Negative
INSTRUMENTTYPE:  
INSTRUMENT:  Maxis II HD Q-TOF Bruker
COLLISIONENERGY:  
Comment:  DB#=CCMSLIB00000846696; origin=GNPS
Num Peaks:  10
323.13385	140.0
344.08139	120.0
349.11383	150.0
355.10492	210.0
365.10526	270.0
368.09549	390.0
411.10626	1000.0
411.31	230.0
411.3588	40.0
413.88663	70.0

NAME:  NCGC00380504-01!7-[(2S,3R,4S,5S,6R)-6-[[(2R,3R,4R)-3,4-dihydroxy-4-(hydroxymethyl)oxolan-2-yl]oxymethyl]-3,4,5-trihydroxyoxan-2-yl]oxychromen-2-one
PRECURSORMZ:  501.12497876083
PRECURSORTYPE:  [M+FA-H]-
FORMULA:  C20H24O12
Ontology: ;;;
INCHIKEY:  SXPBJYHKMRWZNA-UHFFFAOYNA-N
SMILES:  OCC1(O)COC(OCC2OC(OC3=CC4=C(C=CC(=O)O4)C=C3)C(O)C(O)C2O)C1O
RETENTIONTIME:  
CCS:  -1
IONMODE:  Negative
INSTRUMENTTYPE:  
INSTRUMENT:  Maxis II HD Q-TOF Bruker
COLLISIONENERGY:  
Comment:  DB#=CCMSLIB00000846698; origin=GNPS
Num Peaks:  4
123.04465	10.0
133.02951	20.0
161.02368	1000.0
293.08646	20.0

NAME:  NCGC00380510-01![6-[5,7-dihydroxy-2-(4-hydroxyphenyl)-4-oxochromen-3-yl]oxy-3,4-dihydroxy-5-(3,4,5-trihydroxybenzoyl)oxyoxan-2-yl]methyl 3,4,5-trihydroxybenzoate
PRECURSORMZ:  751.11520222983
PRECURSORTYPE:  [M-H]-
FORMULA:  C35H28O19
Ontology: ;;;
INCHIKEY:  GAWOMYRLBFCSGL-UHFFFAOYNA-N
SMILES:  OC1C(O)C(OC(=O)C2=CC(O)=C(O)C(O)=C2)C(OC2=C(OC3=CC(O)=CC(O)=C3C2=O)C2=CC=C(O)C=C2)OC1COC(=O)C1=CC(O)=C(O)C(O)=C1
RETENTIONTIME:  
CCS:  272.9535021
IONMODE:  Negative
INSTRUMENTTYPE:  
INSTRUMENT:  Maxis II HD Q-TOF Bruker
COLLISIONENERGY:  
Comment:  DB#=CCMSLIB00000846700; origin=GNPS
Num Peaks:  12
125.0238	20.0
166.99568	20.0
169.01451	130.0
211.02414	10.0
235.02806	20.0
285.03848	10.0
295.05002	20.0
313.05618	140.0
465.06744	1000.0
466.06998	60.0
751.11517	310.0
752.11511	50.0

NAME:  NCGC00385469-01!1,3,5-trihydroxy-2,4-bis(3-methylbut-2-enyl)-10H-acridin-9-one
PRECURSORMZ:  378.17108183683
PRECURSORTYPE:  [M-H]-
FORMULA:  C23H25NO4
Ontology: Kingdom: Organic compounds;Superclass: Organoheterocyclic compounds;Class: Quinolines and derivatives;Subclass: Benzoquinolines
INCHIKEY:  GLXYKTASIIUSRC-UHFFFAOYSA-N
SMILES:  CC(C)=CCC1=C(O)C(CC=C(C)C)=C2NC3=C(C=CC=C3O)C(=O)C2=C1O
RETENTIONTIME:  
CCS:  194.1416508
IONMODE:  Negative
INSTRUMENTTYPE:  
INSTRUMENT:  Maxis II HD Q-TOF Bruker
COLLISIONENERGY:  
Comment:  DB#=CCMSLIB00000846702; origin=GNPS
Num Peaks:  6
280.07016	50.0
281.06595	100.0
292.0593	120.0
320.09705	70.0
322.10757	90.0
378.17078	1000.0

NAME:  NCGC00347820-02!5-[[17-(5,6-dihydroxy-6-methylheptan-2-yl)-3,12-dihydroxy-4,4,10,13,14-pentamethyl-2,3,5,6,7,11,12,15,16,17-decahydro-1H-cyclopenta[a]phenanthren-2-yl]oxy]-3-hydroxy-3-methyl-5-oxopentanoic acid
PRECURSORMZ:  635.41645705983
PRECURSORTYPE:  [M-H]-
FORMULA:  C36H60O9
Ontology: ;;;
INCHIKEY:  SWRXIGFQDQTNKP-UHFFFAOYNA-N
SMILES:  CC(CCC(O)C(C)(C)O)C1CCC2(C)C3=C(CC(O)C12C)C1(C)CC(OC(=O)CC(C)(O)CC(O)=O)C(O)C(C)(C)C1CC3
RETENTIONTIME:  
CCS:  268.1574395
IONMODE:  Negative
INSTRUMENTTYPE:  
INSTRUMENT:  Maxis II HD Q-TOF Bruker
COLLISIONENERGY:  
Comment:  DB#=CCMSLIB00000846703; origin=GNPS
Num Peaks:  30
81.03291	220.0
99.051	80.0
101.02174	140.0
125.02328	150.0
143.03426	90.0
177.8645	180.0
299.23074	70.0
457.33408	70.0
471.34363	30.0
471.37732	90.0
472.54388	20.0
473.3508	90.0
491.37088	690.0
515.35217	90.0
533.38776	50.0
553.39923	60.0
573.41321	60.0
573.4585	100.0
574.41919	60.0
575.42773	40.0
617.38373	70.0
634.66046	30.0
635.42468	1000.0
635.70392	100.0
636.43225	110.0
994.06616	30.0
1575.53101	350.0
1582.12781	40.0
1582.49866	90.0
1603.25195	30.0

NAME:  NCGC00169035-02!3-[(2S,3R,4S,5R,6R)-6-[[(2R,3R,4R,5S,6S)-3,5-dihydroxy-6-methyl-4-[(2S,3R,4R,5R,6S)-3,4,5-trihydroxy-6-methyloxan-2-yl]oxyoxan-2-yl]oxymethyl]-3,4,5-trihydroxyoxan-2-yl]oxy-5,7-dihydroxy-2-(4-hydroxyphenyl)chromen-4-one
PRECURSORMZ:  739.20910261583
PRECURSORTYPE:  [M-H]-
FORMULA:  C33H40O19
Ontology: ;;;
INCHIKEY:  UYVBMGULWGRDQT-UHFFFAOYNA-N
SMILES:  CC1OC(OC2C(O)C(C)OC(OCC3OC(OC4=C(OC5=CC(O)=CC(O)=C5C4=O)C4=CC=C(O)C=C4)C(O)C(O)C3O)C2O)C(O)C(O)C1O
RETENTIONTIME:  
CCS:  270.1631514
IONMODE:  Negative
INSTRUMENTTYPE:  
INSTRUMENT:  Maxis II HD Q-TOF Bruker
COLLISIONENERGY:  
Comment:  DB#=CCMSLIB00000846706; origin=GNPS
Num Peaks:  27
90.83716	10.0
127.04221	10.0
140.86174	10.0
148.54027	10.0
151.0051	20.0
154.15312	10.0
156.15016	10.0
162.77043	10.0
165.02341	20.0
168.0563	10.0
187.03984	10.0
227.03416	140.0
228.03815	20.0
229.04793	30.0
255.03094	180.0
256.03537	60.0
257.04382	60.0
269.04944	20.0
276.90265	10.0
284.03214	540.0
284.11261	10.0
285.04166	1000.0
286.0401	10.0
299.06299	10.0
327.05127	30.0
739.21155	800.0
740.21106	40.0

NAME:  NCGC00169108-02!3-[6-[[(2R,3R,4R,5S,6S)-3,5-dihydroxy-6-methyl-4-[(2S,3R,4R,5R,6S)-3,4,5-trihydroxy-6-methyloxan-2-yl]oxyoxan-2-yl]oxymethyl]-3,4,5-trihydroxyoxan-2-yl]oxy-2-(3,4-dihydroxyphenyl)-5,7-dihydroxychromen-4-one
PRECURSORMZ:  755.20401723583
PRECURSORTYPE:  [M-H]-
FORMULA:  C33H40O20
Ontology: Kingdom: Organic compounds;Superclass: Phenylpropanoids and polyketides;Class: Flavonoids;Subclass: Flavonoid glycosides
INCHIKEY:  MNIDWWPXTZZMMY-UHFFFAOYNA-N
SMILES:  CC1OC(OC2C(O)C(C)OC(OCC3OC(OC4=C(OC5=CC(O)=CC(O)=C5C4=O)C4=CC(O)=C(O)C=C4)C(O)C(O)C3O)C2O)C(O)C(O)C1O
RETENTIONTIME:  
CCS:  260.8290459
IONMODE:  Negative
INSTRUMENTTYPE:  
INSTRUMENT:  Maxis II HD Q-TOF Bruker
COLLISIONENERGY:  
Comment:  DB#=CCMSLIB00000846708; origin=GNPS
Num Peaks:  14
151.00308	50.0
178.99748	40.0
243.03432	50.0
255.02957	100.0
271.02548	240.0
273.04239	10.0
300.02747	1000.0
301.03497	340.0
313.0369	10.0
343.04462	20.0
357.06741	10.0
609.15289	10.0
755.20386	950.0
756.21094	90.0

NAME:  NCGC00384751-01!5-hydroxy-2-(4-hydroxyphenyl)-3-[(2S,3R,4S,5S,6R)-3,4,5-trihydroxy-6-(hydroxymethyl)oxan-2-yl]oxy-7-[(2S,3R,4R,5R,6S)-3,4,5-trihydroxy-6-methyloxan-2-yl]oxychromen-4-one
PRECURSORMZ:  593.15119381383
PRECURSORTYPE:  [M-H]-
FORMULA:  C27H30O15
Ontology: Kingdom: Organic compounds;Superclass: Phenylpropanoids and polyketides;Class: Flavonoids;Subclass: Flavonoid glycosides
INCHIKEY:  JYXSWDCPHRTYGU-UHFFFAOYNA-N
SMILES:  CC1OC(OC2=CC(O)=C3C(=O)C(OC4OC(CO)C(O)C(O)C4O)=C(OC3=C2)C2=CC=C(O)C=C2)C(O)C(O)C1O
RETENTIONTIME:  
CCS:  239.2707965
IONMODE:  Negative
INSTRUMENTTYPE:  
INSTRUMENT:  Maxis II HD Q-TOF Bruker
COLLISIONENERGY:  
Comment:  DB#=CCMSLIB00000846709; origin=GNPS
Num Peaks:  16
189.05751	40.0
227.03362	30.0
229.56479	20.0
255.02943	70.0
283.02847	980.0
284.02594	40.0
284.26413	10.0
285.03876	440.0
430.08679	660.0
431.09912	510.0
432.09784	30.0
447.09341	630.0
581.00128	10.0
593.15265	1000.0
593.36792	20.0
1865.53186	40.0

NAME:  NCGC00384751-01!5-hydroxy-2-(4-hydroxyphenyl)-3-[(2S,3R,4S,5S,6R)-3,4,5-trihydroxy-6-(hydroxymethyl)oxan-2-yl]oxy-7-[(2S,3R,4R,5R,6S)-3,4,5-trihydroxy-6-methyloxan-2-yl]oxychromen-4-one
PRECURSORMZ:  575.14062913383
PRECURSORTYPE:  [M-H2O-H]-
FORMULA:  C27H30O15
Ontology: Kingdom: Organic compounds;Superclass: Phenylpropanoids and polyketides;Class: Flavonoids;Subclass: Flavonoid glycosides
INCHIKEY:  JYXSWDCPHRTYGU-UHFFFAOYNA-N
SMILES:  CC1OC(OC2=CC(O)=C3C(=O)C(OC4OC(CO)C(O)C(O)C4O)=C(OC3=C2)C2=CC=C(O)C=C2)C(O)C(O)C1O
RETENTIONTIME:  
CCS:  -1
IONMODE:  Negative
INSTRUMENTTYPE:  
INSTRUMENT:  Maxis II HD Q-TOF Bruker
COLLISIONENERGY:  
Comment:  DB#=CCMSLIB00000846712; origin=GNPS
Num Peaks:  4
138.49924	20.0
252.03928	190.0
266.38864	40.0
267.06558	1000.0

NAME:  NCGC00384752-01!5,7-dihydroxy-2-(4-hydroxyphenyl)-6,8-bis[3,4,5-trihydroxy-6-(hydroxymethyl)oxan-2-yl]-2,3-dihydrochromen-4-one
PRECURSORMZ:  595.16684387783
PRECURSORTYPE:  [M-H]-
FORMULA:  C27H32O15
Ontology: Kingdom: Organic compounds;Superclass: Phenylpropanoids and polyketides;Class: Flavonoids;Subclass: Flavonoid glycosides
INCHIKEY:  KLDARLGFVGIIIL-UHFFFAOYNA-N
SMILES:  OCC1OC(C(O)C(O)C1O)C1=C(O)C2=C(OC(CC2=O)C2=CC=C(O)C=C2)C(C2OC(CO)C(O)C(O)C2O)=C1O
RETENTIONTIME:  
CCS:  260.8910528
IONMODE:  Negative
INSTRUMENTTYPE:  
INSTRUMENT:  Maxis II HD Q-TOF Bruker
COLLISIONENERGY:  
Comment:  DB#=CCMSLIB00000846714; origin=GNPS
Num Peaks:  67
80.61503	30.0
84.96327	10.0
107.00931	20.0
109.02537	50.0
119.04739	110.0
125.02211	30.0
127.55709	20.0
158.03656	40.0
162.99802	40.0
163.037	40.0
164.04285	30.0
177.01768	40.0
177.05487	40.0
187.05064	40.0
190.89156	20.0
193.01086	30.0
203.06995	30.0
207.0228	30.0
209.04422	30.0
219.03563	60.0
223.02507	110.0
226.43394	20.0
229.37985	20.0
230.60655	20.0
235.02121	40.0
239.05426	20.0
261.03613	20.0
265.03284	70.0
270.08453	40.0
275.08789	30.0
282.07306	30.0
291.58826	10.0
292.54703	30.0
313.06949	170.0
317.08368	30.0
325.07364	40.0
327.11444	10.0
337.06989	30.0
343.07816	30.0
353.05225	30.0
355.08078	670.0
358.31384	30.0
367.0842	100.0
369.10263	30.0
383.05301	40.0
385.0889	690.0
397.08121	10.0
415.10565	170.0
427.09869	30.0
439.08859	30.0
445.11691	20.0
451.09528	20.0
457.11752	140.0
475.12421	380.0
475.7886	20.0
487.12573	80.0
504.36429	10.0
505.13507	90.0
506.03061	10.0
535.1568	20.0
577.14978	130.0
595.16431	1000.0
596.20862	20.0
599.00055	10.0
691.40967	20.0
1126.59399	20.0
1771.03271	10.0

NAME:  NCGC00385772-01!5,7-dihydroxy-3-[4-hydroxy-2-methoxy-5-(2-methylbut-3-en-2-yl)phenyl]-6-(3-methylbut-2-enyl)-2,3-dihydrochromen-4-one
PRECURSORMZ:  437.19696223383
PRECURSORTYPE:  [M-H]-
FORMULA:  C26H30O6
Ontology: ;;;
INCHIKEY:  UTHDGFYWNZCMEW-UHFFFAOYNA-N
SMILES:  COC1=C(C=C(C(O)=C1)C(C)(C)C=C)C1COC2=C(C(O)=C(CC=C(C)C)C(O)=C2)C1=O
RETENTIONTIME:  
CCS:  223.4430979
IONMODE:  Negative
INSTRUMENTTYPE:  
INSTRUMENT:  Maxis II HD Q-TOF Bruker
COLLISIONENERGY:  
Comment:  DB#=CCMSLIB00000846716; origin=GNPS
Num Peaks:  13
93.03723	60.0
164.08757	50.0
219.06731	30.0
232.17339	20.0
232.28181	70.0
232.8506	30.0
233.08403	770.0
233.83791	30.0
234.27293	20.0
264.05945	50.0
407.14587	40.0
437.19485	1000.0
857.13849	90.0

NAME:  NCGC00385760-01!(2S,3S,9R,13R,14S,16R)-2,3,16-trihydroxy-17-[(2R)-2-hydroxy-6-methyl-3-oxohept-6-en-2-yl]-4,4,9,13,14-pentamethyl-1,2,3,7,8,10,12,15,16,17-decahydrocyclopenta[a]phenanthren-11-one
PRECURSORMZ:  547.32764174883
PRECURSORTYPE:  [M+FA-H]-
FORMULA:  C30H46O6
Ontology: Kingdom: Organic compounds;Superclass: Lipids and lipid;Class: Steroids and steroid derivatives;Subclass: Cucurbitacins
INCHIKEY:  JQKLZAQSMGFZSI-UHFFFAOYNA-N
SMILES:  CC(=C)CCC(=O)C(C)(O)C1C(O)CC2(C)C3CC=C4C(CC(O)C(O)C4(C)C)C3(C)C(=O)CC12C
RETENTIONTIME:  
CCS:  -1
IONMODE:  Negative
INSTRUMENTTYPE:  
INSTRUMENT:  Maxis II HD Q-TOF Bruker
COLLISIONENERGY:  
Comment:  DB#=CCMSLIB00000846718; origin=GNPS
Num Peaks:  26
109.06067	90.0
135.08173	80.0
139.07591	220.0
155.11479	70.0
157.4399	40.0
233.32657	30.0
302.72696	60.0
303.20682	70.0
343.22791	270.0
345.20126	80.0
385.23517	80.0
387.25482	80.0
397.23621	110.0
399.16431	50.0
403.23892	80.0
413.22769	50.0
414.23615	500.0
415.25848	270.0
421.28165	80.0
441.29999	60.0
446.2355	140.0
465.29752	90.0
468.29639	40.0
483.31656	1000.0
501.32541	190.0
829.69293	80.0

NAME:  NCGC00385759-01!(5S)-1,7-bis(3,4-dihydroxyphenyl)-5-[(2R,3R,4S,5S,6R)-3,4,5-trihydroxy-6-(hydroxymethyl)oxan-2-yl]oxyheptan-3-one
PRECURSORMZ:  507.18718539783
PRECURSORTYPE:  [M-H]-
FORMULA:  C25H32O11
Ontology: Kingdom: Organic compounds;Superclass: Phenylpropanoids and polyketides;Class: Diarylheptanoids;Subclass: Linear diarylheptanoids
INCHIKEY:  LDAXQCVBWKSHLB-UHFFFAOYNA-N
SMILES:  OCC1OC(OC(CCC2=CC(O)=C(O)C=C2)CC(=O)CCC2=CC(O)=C(O)C=C2)C(O)C(O)C1O
RETENTIONTIME:  
CCS:  218.2425578
IONMODE:  Negative
INSTRUMENTTYPE:  
INSTRUMENT:  Maxis II HD Q-TOF Bruker
COLLISIONENERGY:  
Comment:  DB#=CCMSLIB00000846720; origin=GNPS
Num Peaks:  12
83.05179	30.0
106.30865	20.0
121.02934	60.0
147.04292	20.0
163.14467	20.0
205.09207	170.0
325.11542	20.0
326.95135	20.0
327.12476	1000.0
340.25677	10.0
507.19058	230.0
924.78088	30.0

NAME:  NCGC00381287-01!(2S,3R,4S,5S,6R)-2-[4-[(3R,3aR,6S,6aR)-6-[3-methoxy-4-[(2S,3R,4S,5S,6R)-3,4,5-trihydroxy-6-(hydroxymethyl)oxan-2-yl]oxyphenyl]-1,3,3a,4,6,6a-hexahydrofuro[3,4-c]furan-3-yl]-2-methoxyphenoxy]-6-(hydroxymethyl)oxane-3,4,5-triol
PRECURSORMZ:  727.24548781983
PRECURSORTYPE:  [M+FA-H]-
FORMULA:  C32H42O16
Ontology: Kingdom: Organic compounds;Superclass: Lignans;Class: Lignan glycosides;
INCHIKEY:  ZJSJQWDXAYNLNS-UHFFFAOYNA-N
SMILES:  COC1=C(OC2OC(CO)C(O)C(O)C2O)C=CC(=C1)C1OCC2C1COC2C1=CC(OC)=C(OC2OC(CO)C(O)C(O)C2O)C=C1
RETENTIONTIME:  
CCS:  -1
IONMODE:  Negative
INSTRUMENTTYPE:  
INSTRUMENT:  Maxis II HD Q-TOF Bruker
COLLISIONENERGY:  
Comment:  DB#=CCMSLIB00000846722; origin=GNPS
Num Peaks:  29
81.66788	30.0
91.88486	130.0
101.02454	150.0
113.02391	210.0
125.0286	200.0
136.01443	170.0
139.03943	310.0
143.0378	160.0
149.04529	120.0
151.03621	840.0
159.02859	130.0
161.04517	450.0
162.04909	150.0
163.03508	190.0
177.06375	130.0
178.80212	50.0
178.83818	70.0
178.93156	70.0
179.05585	640.0
221.06505	770.0
223.83481	40.0
262.97818	130.0
263.08502	160.0
323.095	1000.0
327.11563	130.0
342.11444	220.0
357.13336	980.0
681.23248	210.0
682.24725	80.0

NAME:  NCGC00385765-01![(2S,3R,4S,5R,6R)-6-[[(2R,3R,4R,5S,6S)-3,5-dihydroxy-6-methyl-4-[(2S,3R,4S,5S,6R)-3,4,5-trihydroxy-6-(hydroxymethyl)oxan-2-yl]oxyoxan-2-yl]oxymethyl]-2-[2-(3,4-dihydroxyphenyl)-5,7-dihydroxy-4-oxochromen-3-yl]oxy-5-hydroxy-4-[(2S,3R,4S,5S)-3,4,5-trihydroxyoxan-2-yl]oxyoxan-3-yl] (E)-3-(4-hydroxyphenyl)prop-2-enoate
PRECURSORMZ:  1049.27797002683
PRECURSORTYPE:  [M-H]-
FORMULA:  C47H54O27
Ontology: Kingdom: Organic compounds;Superclass: Phenylpropanoids and polyketides;Class: Flavonoids;Subclass: Flavonoid glycosides
INCHIKEY:  YDPDTPHAIHAETR-UHFFFAOYNA-N
SMILES:  CC1OC(OCC2OC(OC3=C(OC4=CC(O)=CC(O)=C4C3=O)C3=CC(O)=C(O)C=C3)C(OC(=O)C=CC3=CC=C(O)C=C3)C(OC3OCC(O)C(O)C3O)C2O)C(O)C(OC2OC(CO)C(O)C(O)C2O)C1O
RETENTIONTIME:  
CCS:  -1
IONMODE:  Negative
INSTRUMENTTYPE:  
INSTRUMENT:  Maxis II HD Q-TOF Bruker
COLLISIONENERGY:  
Comment:  DB#=CCMSLIB00000846724; origin=GNPS
Num Peaks:  34
119.04872	30.0
131.83014	10.0
135.01376	20.0
145.0296	40.0
146.38718	10.0
151.00256	140.0
163.00597	20.0
163.04015	40.0
178.99722	60.0
179.04927	10.0
191.01276	10.0
199.07611	10.0
229.04854	50.0
243.02843	70.0
245.04939	30.0
255.03232	100.0
256.03574	30.0
271.02646	420.0
272.03024	90.0
273.04294	50.0
283.02155	20.0
299.02084	310.0
299.13922	10.0
300.02719	710.0
300.29745	20.0
301.03571	1000.0
302.04501	60.0
391.08548	10.0
885.22345	20.0
886.22937	10.0
903.23828	90.0
904.23242	30.0
1049.27661	480.0
1050.28357	130.0

NAME:  NCGC00180622-03!methyl 4-hydroxy-3-(4-hydroxyphenyl)-2-[(4-hydroxyphenyl)methyl]-5-oxofuran-2-carboxylate
PRECURSORMZ:  401.08780540283
PRECURSORTYPE:  [M+FA-H]-
FORMULA:  C19H16O7
Ontology: ;;;
INCHIKEY:  AEKPZNDJHWFONI-UHFFFAOYNA-N
SMILES:  COC(=O)C1(CC2=CC=C(O)C=C2)OC(=O)C(O)=C1C1=CC=C(O)C=C1
RETENTIONTIME:  
CCS:  -1
IONMODE:  Negative
INSTRUMENTTYPE:  
INSTRUMENT:  Maxis II HD Q-TOF Bruker
COLLISIONENERGY:  
Comment:  DB#=CCMSLIB00000846726; origin=GNPS
Num Peaks:  9
133.02628	50.0
189.01941	70.0
204.04158	100.0
205.0443	40.0
240.02077	30.0
249.03229	150.0
295.0618	120.0
296.06775	1000.0
328.05362	40.0

NAME:  NCGC00180813-03!methyl 2-hydroxy-6-(4-hydroxy-2-methoxy-6-methoxycarbonylphenoxy)-4-methylbenzoate
PRECURSORMZ:  407.09837008783
PRECURSORTYPE:  [M+FA-H]-
FORMULA:  C18H18O8
Ontology: ;;;
INCHIKEY:  KYDNOVLBVBYOSW-UHFFFAOYSA-N
SMILES:  COC(=O)C1=C(OC2=CC(C)=CC(O)=C2C(=O)OC)C(OC)=CC(O)=C1
RETENTIONTIME:  
CCS:  -1
IONMODE:  Negative
INSTRUMENTTYPE:  
INSTRUMENT:  Maxis II HD Q-TOF Bruker
COLLISIONENERGY:  
Comment:  DB#=CCMSLIB00000846727; origin=GNPS
Num Peaks:  25
128.74214	60.0
165.01944	30.0
196.03862	30.0
197.05923	20.0
211.03609	30.0
212.04857	30.0
224.04535	20.0
225.05222	50.0
226.06158	20.0
227.02553	20.0
240.0461	30.0
241.05092	20.0
253.049	120.0
254.05896	160.0
255.03078	20.0
255.06775	30.0
270.06033	130.0
271.01346	30.0
285.03244	30.0
297.04077	30.0
301.07095	60.0
329.06827	1000.0
331.68604	30.0
361.09436	270.0
1099.41174	20.0

NAME:  NCGC00347390-02!(2R,3S)-7-[(2S,3R,4R,5S)-3,4-dihydroxy-5-(hydroxymethyl)oxolan-2-yl]oxy-2-(3,4-dihydroxyphenyl)-3,4-dihydro-2H-chromene-3,5-diol
PRECURSORMZ:  467.11949945583
PRECURSORTYPE:  [M+FA-H]-
FORMULA:  C20H22O10
Ontology: ;;;
INCHIKEY:  JRAAEKBJXQXXBZ-UHFFFAOYNA-N
SMILES:  OCC1OC(OC2=CC(O)=C3CC(O)C(OC3=C2)C2=CC(O)=C(O)C=C2)C(O)C1O
RETENTIONTIME:  
CCS:  -1
IONMODE:  Negative
INSTRUMENTTYPE:  
INSTRUMENT:  Maxis II HD Q-TOF Bruker
COLLISIONENERGY:  
Comment:  DB#=CCMSLIB00000846730; origin=GNPS
Num Peaks:  13
97.02884	50.0
125.03703	70.0
174.25186	50.0
188.04541	80.0
205.05121	60.0
219.53804	40.0
221.08336	40.0
224.8815	40.0
245.0836	160.0
269.0708	40.0
289.07199	1000.0
421.10968	110.0
422.11755	60.0

NAME:  NCGC00347615-02!methyl 3,5-dichloro-2-hydroxy-6-(4-hydroxy-2-methoxy-6-methoxycarbonylphenoxy)-4-methylbenzoate
PRECURSORMZ:  475.02042544783
PRECURSORTYPE:  [M+FA-H]-
FORMULA:  C18H16Cl2O8
Ontology: ;;;
INCHIKEY:  UWTOESDPWKUNBD-UHFFFAOYSA-N
SMILES:  COC(=O)C1=C(OC2=C(Cl)C(C)=C(Cl)C(O)=C2C(=O)OC)C(OC)=CC(O)=C1
RETENTIONTIME:  
CCS:  -1
IONMODE:  Negative
INSTRUMENTTYPE:  
INSTRUMENT:  Maxis II HD Q-TOF Bruker
COLLISIONENERGY:  
Comment:  DB#=CCMSLIB00000846732; origin=GNPS
Num Peaks:  17
146.85887	40.0
160.41383	60.0
254.02539	50.0
290.99915	40.0
308.98279	40.0
319.00803	140.0
327.01483	40.0
334.9924	60.0
337.983	100.0
353.00497	40.0
362.02203	730.0
362.36255	30.0
392.41907	20.0
393.03122	40.0
396.99533	240.0
397.0433	40.0
429.01685	1000.0

NAME:  NCGC00347381-02!(3S,5S,8R,9S,10S,13R,14S,17R)-5,14-dihydroxy-13-methyl-17-(6-oxopyran-3-yl)-3-[(2R,3R,4S,5S,6R)-3,4,5-trihydroxy-6-(hydroxymethyl)oxan-2-yl]oxy-2,3,4,6,7,8,9,11,12,15,16,17-dodecahydro-1H-cyclopenta[a]phenanthrene-10-carbaldehyde
PRECURSORMZ:  623.27091471983
PRECURSORTYPE:  [M+FA-H]-
FORMULA:  C30H42O11
Ontology: Kingdom: Organic compounds;Superclass: Lipids and lipid;Class: Steroids and steroid derivatives;Subclass: Steroid lactones
INCHIKEY:  AXUYMUBJXHVZEL-UHFFFAOYNA-N
SMILES:  CC12CCC3C(CCC4(O)CC(CCC34C=O)OC3OC(CO)C(O)C(O)C3O)C1(O)CCC2C1=COC(=O)C=C1
RETENTIONTIME:  
CCS:  -1
IONMODE:  Negative
INSTRUMENTTYPE:  
INSTRUMENT:  Maxis II HD Q-TOF Bruker
COLLISIONENERGY:  
Comment:  DB#=CCMSLIB00000846734; origin=GNPS
Num Peaks:  28
101.02719	140.0
113.02509	120.0
119.03082	160.0
143.03526	180.0
143.19101	20.0
149.04747	100.0
161.04366	190.0
179.0542	1000.0
179.17493	10.0
274.39569	10.0
283.16129	10.0
288.21286	50.0
288.35156	20.0
301.22519	20.0
327.21384	30.0
353.22086	20.0
371.18964	40.0
371.22467	30.0
397.13174	20.0
397.20172	560.0
398.2001	30.0
415.21417	360.0
577.07751	20.0
577.26672	580.0
578.26324	50.0
603.13391	30.0
623.27515	20.0
624.28973	20.0

NAME:  NCGC00384649-01!3-[(2S,3R,4S,5S,6R)-4,5-dihydroxy-6-(hydroxymethyl)-3-[(2S,3R,4S,5R,6R)-3,4,5-trihydroxy-6-(hydroxymethyl)oxan-2-yl]oxyoxan-2-yl]oxy-5-hydroxy-2-(4-hydroxyphenyl)-7-methoxychromen-4-one
PRECURSORMZ:  623.16175849783
PRECURSORTYPE:  [M-H]-
FORMULA:  C28H32O16
Ontology: ;;;
INCHIKEY:  PNBMEXOTFKNHLQ-UHFFFAOYNA-N
SMILES:  COC1=CC(O)=C2C(=O)C(OC3OC(CO)C(O)C(O)C3OC3OC(CO)C(O)C(O)C3O)=C(OC2=C1)C1=CC=C(O)C=C1
RETENTIONTIME:  
CCS:  253.6563829
IONMODE:  Negative
INSTRUMENTTYPE:  
INSTRUMENT:  Maxis II HD Q-TOF Bruker
COLLISIONENERGY:  
Comment:  DB#=CCMSLIB00000846736; origin=GNPS
Num Peaks:  29
134.78961	80.0
160.10463	20.0
179.05182	120.0
227.04089	60.0
255.02649	60.0
256.04434	60.0
270.05005	60.0
271.03195	30.0
283.02515	420.0
284.04013	50.0
296.83975	20.0
297.81577	20.0
298.0473	1000.0
298.97916	20.0
299.01898	90.0
299.05835	360.0
299.48026	20.0
300.90414	30.0
314.04333	350.0
315.03226	90.0
319.51135	30.0
321.00345	40.0
341.07309	60.0
354.21924	60.0
383.08514	40.0
386.50961	50.0
443.09912	60.0
623.15918	880.0
624.19958	30.0

NAME:  NCGC00384649-01!3-[(2S,3R,4S,5S,6R)-4,5-dihydroxy-6-(hydroxymethyl)-3-[(2S,3R,4S,5R,6R)-3,4,5-trihydroxy-6-(hydroxymethyl)oxan-2-yl]oxyoxan-2-yl]oxy-5-hydroxy-2-(4-hydroxyphenyl)-7-methoxychromen-4-one
PRECURSORMZ:  669.16723749783
PRECURSORTYPE:  [M+FA-H]-
FORMULA:  C28H32O16
Ontology: ;;;
INCHIKEY:  PNBMEXOTFKNHLQ-UHFFFAOYNA-N
SMILES:  COC1=CC(O)=C2C(=O)C(OC3OC(CO)C(O)C(O)C3OC3OC(CO)C(O)C(O)C3O)=C(OC2=C1)C1=CC=C(O)C=C1
RETENTIONTIME:  
CCS:  -1
IONMODE:  Negative
INSTRUMENTTYPE:  
INSTRUMENT:  Maxis II HD Q-TOF Bruker
COLLISIONENERGY:  
Comment:  DB#=CCMSLIB00000846738; origin=GNPS
Num Peaks:  29
147.06181	20.0
147.34615	30.0
148.98682	10.0
167.03027	20.0
193.01787	50.0
215.03676	20.0
227.04134	10.0
255.02948	20.0
262.59915	30.0
271.061	40.0
283.02551	370.0
283.11084	20.0
284.02823	40.0
297.03311	20.0
297.07529	30.0
297.12103	10.0
297.77106	10.0
298.04999	940.0
299.05875	290.0
300.05746	30.0
301.26202	10.0
312.06259	20.0
325.90741	30.0
371.07874	20.0
443.09494	30.0
621.43323	20.0
623.16449	1000.0
624.17047	20.0
1019.06024	10.0

NAME:  NCGC00380812-01!3-(4-hydroxy-2,2-dimethyl-1-oxo-3,3a-dihydroimidazo[1,2-a]indol-4-yl)-2-(4-oxoquinazolin-3-yl)propanoic acid
PRECURSORMZ:  433.15174337183
PRECURSORTYPE:  [M-H]-
FORMULA:  C23H22N4O5
Ontology: ;;;
INCHIKEY:  BMFPATPGMGPSGR-UHFFFAOYNA-N
SMILES:  CC1(C)NC2N(C1=O)C1=CC=CC=C1C2(O)CC(N1C=NC2=CC=CC=C2C1=O)C(O)=O
RETENTIONTIME:  
CCS:  211.7592653
IONMODE:  Negative
INSTRUMENTTYPE:  
INSTRUMENT:  Maxis II HD Q-TOF Bruker
COLLISIONENERGY:  
Comment:  DB#=CCMSLIB00000846740; origin=GNPS
Num Peaks:  9
74.10612	10.0
145.03947	1000.0
146.02621	80.0
147.05363	60.0
199.1192	80.0
243.11015	340.0
243.19148	30.0
389.1687	220.0
433.16861	40.0

NAME:  NCGC00380872-01!(2R,3S)-2-[(3,4-dihydroxyphenyl)methyl]-2-hydroxy-3-[(E)-3-(3-hydroxy-4-methoxyphenyl)prop-2-enoyl]oxybutanedioic acid
PRECURSORMZ:  447.09328501183
PRECURSORTYPE:  [M-H]-
FORMULA:  C21H20O11
Ontology: ;;;
INCHIKEY:  YVHLLZXSGPDXOA-UHFFFAOYNA-N
SMILES:  COC1=C(O)C=C(C=CC(=O)OC(C(O)=O)C(O)(CC2=CC(O)=C(O)C=C2)C(O)=O)C=C1
RETENTIONTIME:  
CCS:  216.6318295
IONMODE:  Negative
INSTRUMENTTYPE:  
INSTRUMENT:  Maxis II HD Q-TOF Bruker
COLLISIONENERGY:  
Comment:  DB#=CCMSLIB00000846742; origin=GNPS
Num Peaks:  15
109.03305	80.0
122.03568	40.0
134.03647	80.0
150.23181	20.0
163.04231	80.0
165.05685	270.0
173.02831	120.0
179.03471	60.0
181.04945	1000.0
189.01778	170.0
191.03964	420.0
209.05197	70.0
253.03426	680.0
271.04825	80.0
1011.2851	90.0

NAME:  NCGC00380799-01!5-[5-[5-(3,5-dihydroxydecanoyloxy)-3-hydroxydecanoyl]oxy-3-hydroxydecanoyl]oxy-3-hydroxydecanoic acid
PRECURSORMZ:  761.50566599083
PRECURSORTYPE:  [M-H]-
FORMULA:  C40H74O13
Ontology: Kingdom: Organic compounds;Superclass: Organic acids and derivatives;Class: Carboxylic acids and derivatives;Subclass: Tetracarboxylic acids and derivatives
INCHIKEY:  PBYPZVMETKFGQR-UHFFFAOYNA-N
SMILES:  CCCCCC(O)CC(O)CC(=O)OC(CCCCC)CC(O)CC(=O)OC(CCCCC)CC(O)CC(=O)OC(CCCCC)CC(O)CC(O)=O
RETENTIONTIME:  
CCS:  -1
IONMODE:  Negative
INSTRUMENTTYPE:  
INSTRUMENT:  Maxis II HD Q-TOF Bruker
COLLISIONENERGY:  
Comment:  DB#=CCMSLIB00000846744; origin=GNPS
Num Peaks:  28
75.18834	20.0
75.2792	20.0
123.11825	20.0
125.10602	20.0
167.11093	60.0
185.11844	360.0
186.12573	20.0
201.92438	20.0
203.04926	10.0
203.09303	10.0
203.12715	1000.0
203.7524	20.0
204.13513	30.0
227.13669	10.0
245.13472	10.0
353.22815	20.0
370.71411	10.0
371.24777	80.0
389.25797	30.0
431.25861	30.0
535.01331	10.0
557.37885	20.0
558.39069	40.0
565.04028	20.0
575.37592	100.0
761.45789	20.0
761.51324	80.0
762.50726	40.0

NAME:  NCGC00381312-01!5-[10-(3,5-dihydroxyphenyl)decyl]benzene-1,3-diol
PRECURSORMZ:  403.21261199383
PRECURSORTYPE:  [M+FA-H]-
FORMULA:  C22H30O4
Ontology: ;;;
INCHIKEY:  JEFDYMSGEDIFOV-UHFFFAOYSA-N
SMILES:  OC1=CC(CCCCCCCCCCC2=CC(O)=CC(O)=C2)=CC(O)=C1
RETENTIONTIME:  
CCS:  -1
IONMODE:  Negative
INSTRUMENTTYPE:  
INSTRUMENT:  Maxis II HD Q-TOF Bruker
COLLISIONENERGY:  
Comment:  DB#=CCMSLIB00000846746; origin=GNPS
Num Peaks:  4
176.41942	30.0
309.4614	30.0
315.20987	10.0
357.21146	1000.0

NAME:  NCGC00180206-02!5-hydroxy-7-[3,4,5-trihydroxy-6-(hydroxymethyl)oxan-2-yl]oxy-2-[4-(3,4,5-trihydroxy-6-methyloxan-2-yl)oxyphenyl]chromen-4-one
PRECURSORMZ:  577.15627919383
PRECURSORTYPE:  [M-H]-
FORMULA:  C27H30O14
Ontology: Kingdom: Organic compounds;Superclass: Phenylpropanoids and polyketides;Class: Flavonoids;Subclass: Flavonoid glycosides
INCHIKEY:  JWESWEUFMKPWPH-UHFFFAOYNA-N
SMILES:  CC1OC(OC2=CC=C(C=C2)C2=CC(=O)C3=C(O)C=C(OC4OC(CO)C(O)C(O)C4O)C=C3O2)C(O)C(O)C1O
RETENTIONTIME:  
CCS:  -1
IONMODE:  Negative
INSTRUMENTTYPE:  
INSTRUMENT:  Maxis II HD Q-TOF Bruker
COLLISIONENERGY:  
Comment:  DB#=CCMSLIB00000846748; origin=GNPS
Num Peaks:  8
154.0468	60.0
218.33937	20.0
268.03845	100.0
269.04248	680.0
296.02286	40.0
577.15552	1000.0
577.29126	40.0
578.1571	80.0

NAME:  NCGC00180206-02!5-hydroxy-7-[3,4,5-trihydroxy-6-(hydroxymethyl)oxan-2-yl]oxy-2-[4-(3,4,5-trihydroxy-6-methyloxan-2-yl)oxyphenyl]chromen-4-one
PRECURSORMZ:  623.16175819383
PRECURSORTYPE:  [M+FA-H]-
FORMULA:  C27H30O14
Ontology: Kingdom: Organic compounds;Superclass: Phenylpropanoids and polyketides;Class: Flavonoids;Subclass: Flavonoid glycosides
INCHIKEY:  JWESWEUFMKPWPH-UHFFFAOYNA-N
SMILES:  CC1OC(OC2=CC=C(C=C2)C2=CC(=O)C3=C(O)C=C(OC4OC(CO)C(O)C(O)C4O)C=C3O2)C(O)C(O)C1O
RETENTIONTIME:  
CCS:  -1
IONMODE:  Negative
INSTRUMENTTYPE:  
INSTRUMENT:  Maxis II HD Q-TOF Bruker
COLLISIONENERGY:  
Comment:  DB#=CCMSLIB00000846750; origin=GNPS
Num Peaks:  10
183.08081	20.0
268.03995	80.0
269.04739	570.0
269.08725	20.0
277.58176	10.0
293.04602	20.0
441.30756	30.0
576.36139	20.0
577.1579	1000.0
578.1507	20.0

NAME:  NCGC00381314-01![3-methyl-1-[3-methyl-1-[3-methyl-1-oxo-1-(2,3,4,5,6-pentahydroxyhexoxy)pentan-2-yl]oxy-1-oxopentan-2-yl]oxy-1-oxopentan-2-yl] 2-acetyloxy-3-methylpentanoate
PRECURSORMZ:  725.36012365083
PRECURSORTYPE:  [M+FA-H]-
FORMULA:  C32H56O15
Ontology: Kingdom: Organic compounds;Superclass: Organic acids and derivatives;Class: Peptidomimetics;Subclass: Depsipeptides
INCHIKEY:  BENIATCKWZLKMA-UHFFFAOYNA-N
SMILES:  CCC(C)C(OC(=O)C(OC(=O)C(OC(=O)C(OC(C)=O)C(C)CC)C(C)CC)C(C)CC)C(=O)OCC(O)C(O)C(O)C(O)CO
RETENTIONTIME:  
CCS:  -1
IONMODE:  Negative
INSTRUMENTTYPE:  
INSTRUMENT:  Maxis II HD Q-TOF Bruker
COLLISIONENERGY:  
Comment:  DB#=CCMSLIB00000846751; origin=GNPS
Num Peaks:  8
113.06078	40.0
131.0713	340.0
173.0818	780.0
287.15045	1000.0
288.15146	20.0
401.21802	510.0
402.21909	10.0
515.28522	80.0

NAME:  NCGC00385674-01!6,8-dihydroxy-3-(10-hydroxyundecyl)-3,4-dihydroisochromen-1-one
PRECURSORMZ:  349.20204761383
PRECURSORTYPE:  [M-H]-
FORMULA:  C20H30O5
Ontology: ;;;
INCHIKEY:  YLEKEQNOOIMZQM-UHFFFAOYNA-N
SMILES:  CC(O)CCCCCCCCCC1CC2=CC(O)=CC(O)=C2C(=O)O1
RETENTIONTIME:  
CCS:  198.6102579
IONMODE:  Negative
INSTRUMENTTYPE:  
INSTRUMENT:  Maxis II HD Q-TOF Bruker
COLLISIONENERGY:  
Comment:  DB#=CCMSLIB00000846754; origin=GNPS
Num Peaks:  5
331.18817	20.0
347.63055	50.0
349.20474	1000.0
349.31464	50.0
839.49121	60.0

NAME:  NCGC00169021-02!(2S,3S,4S,5R,6S)-6-[5,7-dihydroxy-2-(4-hydroxyphenyl)-4-oxochromen-3-yl]oxy-3,4,5-trihydroxyoxane-2-carboxylic acid
PRECURSORMZ:  461.07254956783
PRECURSORTYPE:  [M-H]-
FORMULA:  C21H18O12
Ontology: Kingdom: Organic compounds;Superclass: Phenylpropanoids and polyketides;Class: Flavonoids;Subclass: Flavonoid glycosides
INCHIKEY:  FNTJVYCFNVUBOL-UHFFFAOYNA-N
SMILES:  OC1C(O)C(OC2=C(OC3=CC(O)=CC(O)=C3C2=O)C2=CC=C(O)C=C2)OC(C1O)C(O)=O
RETENTIONTIME:  
CCS:  213.7236997
IONMODE:  Negative
INSTRUMENTTYPE:  
INSTRUMENT:  Maxis II HD Q-TOF Bruker
COLLISIONENERGY:  
Comment:  DB#=CCMSLIB00000846756; origin=GNPS
Num Peaks:  13
99.01592	60.0
103.00209	40.0
151.00273	30.0
169.01381	40.0
175.02588	40.0
179.1055	10.0
185.06232	30.0
187.04503	30.0
221.72112	20.0
229.05417	20.0
284.98508	30.0
285.03952	1000.0
461.06046	110.0

NAME:  NCGC00385532-01!2-(3,5-dihydroxy-4-methoxyphenyl)-5,7-dihydroxy-3-[(2S,3R,4S,5S,6R)-3,4,5-trihydroxy-6-(hydroxymethyl)oxan-2-yl]oxychromen-4-one
PRECURSORMZ:  493.09876431583
PRECURSORTYPE:  [M-H]-
FORMULA:  C22H22O13
Ontology: Kingdom: Organic compounds;Superclass: Phenylpropanoids and polyketides;Class: Flavonoids;Subclass: Flavonoid glycosides
INCHIKEY:  SCHVWZLYQPLPJV-UHFFFAOYNA-N
SMILES:  COC1=C(O)C=C(C=C1O)C1=C(OC2OC(CO)C(O)C(O)C2O)C(=O)C2=C(O)C=C(O)C=C2O1
RETENTIONTIME:  
CCS:  223.3353504
IONMODE:  Negative
INSTRUMENTTYPE:  
INSTRUMENT:  Maxis II HD Q-TOF Bruker
COLLISIONENERGY:  
Comment:  DB#=CCMSLIB00000846758; origin=GNPS
Num Peaks:  13
221.40559	30.0
222.64975	20.0
240.77248	30.0
287.01886	150.0
315.01471	730.0
316.02161	80.0
330.03271	70.0
331.05121	50.0
344.94577	10.0
474.07413	40.0
478.07523	120.0
492.0936	50.0
493.09604	1000.0

NAME:  NCGC00385601-01!5-hydroxy-2-(4-hydroxyphenyl)-7-[(2S,3R,4R,5R,6S)-3,4,5-trihydroxy-6-methyloxan-2-yl]oxy-3-[(2S,3R,4S,5R,6R)-3,4,5-trihydroxy-6-[[(2S,3R,4R,5R,6S)-3,4,5-trihydroxy-6-methyloxan-2-yl]oxymethyl]oxan-2-yl]oxychromen-4-one
PRECURSORMZ:  739.20910261583
PRECURSORTYPE:  [M-H]-
FORMULA:  C33H40O19
Ontology: Kingdom: Organic compounds;Superclass: Phenylpropanoids and polyketides;Class: Flavonoids;Subclass: Flavonoid glycosides
INCHIKEY:  PEFASEPMJYRQBW-UHFFFAOYNA-N
SMILES:  CC1OC(OCC2OC(OC3=C(OC4=CC(OC5OC(C)C(O)C(O)C5O)=CC(O)=C4C3=O)C3=CC=C(O)C=C3)C(O)C(O)C2O)C(O)C(O)C1O
RETENTIONTIME:  
CCS:  247.3258482
IONMODE:  Negative
INSTRUMENTTYPE:  
INSTRUMENT:  Maxis II HD Q-TOF Bruker
COLLISIONENERGY:  
Comment:  DB#=CCMSLIB00000846759; origin=GNPS
Num Peaks:  16
153.01945	10.0
212.04593	10.0
217.05618	20.0
255.03133	40.0
256.03683	30.0
282.97015	10.0
283.02393	340.0
284.03348	370.0
285.04208	150.0
327.04395	10.0
430.0907	90.0
431.1022	40.0
592.73712	10.0
593.15308	1000.0
594.15619	70.0
739.21161	220.0

NAME:  NCGC00169525-02!5-hydroxy-2-(4-hydroxyphenyl)-7-[(2S,3R,4S,5S,6R)-3,4,5-trihydroxy-6-(hydroxymethyl)oxan-2-yl]oxy-2,3-dihydrochromen-4-one
PRECURSORMZ:  479.11949945583
PRECURSORTYPE:  [M+FA-H]-
FORMULA:  C21H22O10
Ontology: Kingdom: Organic compounds;Superclass: Phenylpropanoids and polyketides;Class: Flavonoids;Subclass: Flavonoid glycosides
INCHIKEY:  DLIKSSGEMUFQOK-UHFFFAOYNA-N
SMILES:  OCC1OC(OC2=CC(O)=C3C(=O)CC(OC3=C2)C2=CC=C(O)C=C2)C(O)C(O)C1O
RETENTIONTIME:  
CCS:  -1
IONMODE:  Negative
INSTRUMENTTYPE:  
INSTRUMENT:  Maxis II HD Q-TOF Bruker
COLLISIONENERGY:  
Comment:  DB#=CCMSLIB00000846762; origin=GNPS
Num Peaks:  13
151.00119	80.0
169.02472	10.0
270.68076	20.0
270.96164	20.0
271.0614	1000.0
274.05713	10.0
295.06619	30.0
313.07376	10.0
315.04361	30.0
433.09814	30.0
433.13922	10.0
478.11227	20.0
928.32654	10.0

NAME:  NCGC00180625-02!3-[5,7-dihydroxy-2-(4-hydroxyphenyl)-4-oxo-2,3-dihydrochromen-3-yl]-5,7-dihydroxy-2-(4-hydroxyphenyl)-2,3-dihydrochromen-4-one
PRECURSORMZ:  541.11402045583
PRECURSORTYPE:  [M-H]-
FORMULA:  C30H22O10
Ontology: Kingdom: Organic compounds;Superclass: Phenylpropanoids and polyketides;Class: Flavonoids;Subclass: Biflavonoids and polyflavonoids
INCHIKEY:  RNQBLQALVMHBKH-UHFFFAOYNA-N
SMILES:  OC1=CC=C(C=C1)C1OC2=CC(O)=CC(O)=C2C(=O)C1C1C(OC2=CC(O)=CC(O)=C2C1=O)C1=CC=C(O)C=C1
RETENTIONTIME:  
CCS:  220.0438932
IONMODE:  Negative
INSTRUMENTTYPE:  
INSTRUMENT:  Maxis II HD Q-TOF Bruker
COLLISIONENERGY:  
Comment:  DB#=CCMSLIB00000846764; origin=GNPS
Num Peaks:  27
117.04148	110.0
125.02284	1000.0
146.03387	40.0
165.01799	60.0
190.03111	100.0
191.02983	50.0
197.06213	100.0
213.05394	50.0
217.01665	910.0
229.04739	60.0
231.06381	140.0
231.51152	150.0
259.02478	90.0
272.03162	120.0
279.03125	30.0
280.49469	40.0
298.05441	240.0
299.05493	60.0
342.03705	160.0
342.46194	100.0
343.04651	960.0
343.11383	90.0
359.09427	30.0
367.1431	60.0
371.09631	60.0
541.10522	220.0
921.02362	20.0

NAME:  NCGC00180625-02!3-[5,7-dihydroxy-2-(4-hydroxyphenyl)-4-oxo-2,3-dihydrochromen-3-yl]-5,7-dihydroxy-2-(4-hydroxyphenyl)-2,3-dihydrochromen-4-one
PRECURSORMZ:  587.11949945583
PRECURSORTYPE:  [M+FA-H]-
FORMULA:  C30H22O10
Ontology: Kingdom: Organic compounds;Superclass: Phenylpropanoids and polyketides;Class: Flavonoids;Subclass: Biflavonoids and polyflavonoids
INCHIKEY:  RNQBLQALVMHBKH-UHFFFAOYNA-N
SMILES:  OC1=CC=C(C=C1)C1OC2=CC(O)=CC(O)=C2C(=O)C1C1C(OC2=CC(O)=CC(O)=C2C1=O)C1=CC=C(O)C=C1
RETENTIONTIME:  
CCS:  -1
IONMODE:  Negative
INSTRUMENTTYPE:  
INSTRUMENT:  Maxis II HD Q-TOF Bruker
COLLISIONENERGY:  
Comment:  DB#=CCMSLIB00000846766; origin=GNPS
Num Peaks:  77
83.01808	20.0
107.01156	50.0
124.01529	50.0
125.02367	480.0
151.00233	570.0
169.01462	50.0
172.01668	20.0
172.63271	20.0
173.01912	30.0
177.02234	30.0
187.06932	30.0
193.01505	30.0
195.05376	70.0
197.0663	50.0
215.0753	40.0
225.05104	30.0
229.05267	150.0
233.04752	20.0
239.07181	180.0
239.15393	40.0
243.0719	40.0
258.36725	40.0
265.05637	60.0
267.06195	40.0
269.04019	50.0
270.05768	80.0
271.06726	40.0
277.04492	20.0
281.04581	20.0
283.06198	200.0
285.03918	70.0
287.94788	10.0
289.05981	30.0
293.10052	20.0
296.02591	20.0
303.11465	30.0
307.01932	50.0
308.03409	40.0
309.04706	370.0
309.41064	20.0
310.07446	30.0
311.04083	80.0
313.03265	20.0
321.03732	30.0
329.08295	90.0
340.0108	30.0
341.02689	70.0
345.11484	70.0
347.09039	50.0
353.03339	20.0
353.07367	20.0
359.08954	30.0
371.09827	240.0
379.56668	40.0
379.64264	10.0
385.09286	30.0
387.09378	30.0
389.10367	100.0
390.08353	20.0
391.08624	60.0
403.07904	20.0
415.08594	750.0
424.25958	20.0
430.73019	20.0
431.11966	60.0
435.07617	150.0
435.11984	30.0
440.09317	30.0
447.07233	180.0
455.11966	20.0
497.13422	150.0
499.10876	30.0
523.11749	50.0
540.01031	10.0
541.11774	1000.0
541.5224	10.0
542.11719	50.0

NAME:  NCGC00344564-03!5-hydroxy-2-(3-hydroxy-4-methoxyphenyl)-7-[(2S,3R,4S,5S,6R)-3,4,5-trihydroxy-6-[[(2R,3R,4R,5R,6S)-3,4,5-trihydroxy-6-methyloxan-2-yl]oxymethyl]oxan-2-yl]oxychromen-4-one
PRECURSORMZ:  607.16684387783
PRECURSORTYPE:  [M-H]-
FORMULA:  C28H32O15
Ontology: Kingdom: Organic compounds;Superclass: Phenylpropanoids and polyketides;Class: Flavonoids;Subclass: Flavonoid glycosides
INCHIKEY:  GZSOSUNBTXMUFQ-UHFFFAOYNA-N
SMILES:  COC1=C(O)C=C(C=C1)C1=CC(=O)C2=C(O)C=C(OC3OC(COC4OC(C)C(O)C(O)C4O)C(O)C(O)C3O)C=C2O1
RETENTIONTIME:  
CCS:  228.0225004
IONMODE:  Negative
INSTRUMENTTYPE:  
INSTRUMENT:  Maxis II HD Q-TOF Bruker
COLLISIONENERGY:  
Comment:  DB#=CCMSLIB00000846772; origin=GNPS
Num Peaks:  4
150.32138	30.0
265.0318	120.0
284.03748	300.0
299.05798	1000.0

NAME:  NCGC00344564-03!5-hydroxy-2-(3-hydroxy-4-methoxyphenyl)-7-[(2S,3R,4S,5S,6R)-3,4,5-trihydroxy-6-[[(2R,3R,4R,5R,6S)-3,4,5-trihydroxy-6-methyloxan-2-yl]oxymethyl]oxan-2-yl]oxychromen-4-one
PRECURSORMZ:  653.17232287783
PRECURSORTYPE:  [M+FA-H]-
FORMULA:  C28H32O15
Ontology: Kingdom: Organic compounds;Superclass: Phenylpropanoids and polyketides;Class: Flavonoids;Subclass: Flavonoid glycosides
INCHIKEY:  GZSOSUNBTXMUFQ-UHFFFAOYNA-N
SMILES:  COC1=C(O)C=C(C=C1)C1=CC(=O)C2=C(O)C=C(OC3OC(COC4OC(C)C(O)C(O)C4O)C(O)C(O)C3O)C=C2O1
RETENTIONTIME:  
CCS:  -1
IONMODE:  Negative
INSTRUMENTTYPE:  
INSTRUMENT:  Maxis II HD Q-TOF Bruker
COLLISIONENERGY:  
Comment:  DB#=CCMSLIB00000846773; origin=GNPS
Num Peaks:  6
72.87192	30.0
163.03978	70.0
171.77455	210.0
201.01733	1000.0
349.09097	860.0
352.45062	30.0

NAME:  NCGC00180525-02!5,7-dihydroxy-2-(4-hydroxy-3-methoxyphenyl)-3-[3,4,5-trihydroxy-6-[[(2R,3R,4R,5R,6S)-3,4,5-trihydroxy-6-methyloxan-2-yl]oxymethyl]oxan-2-yl]oxychromen-4-one
PRECURSORMZ:  623.16175849783
PRECURSORTYPE:  [M-H]-
FORMULA:  C28H32O16
Ontology: Kingdom: Organic compounds;Superclass: Phenylpropanoids and polyketides;Class: Flavonoids;Subclass: Flavonoid glycosides
INCHIKEY:  UIDGLYUNOUKLBM-UHFFFAOYNA-N
SMILES:  COC1=C(O)C=CC(=C1)C1=C(OC2OC(COC3OC(C)C(O)C(O)C3O)C(O)C(O)C2O)C(=O)C2=C(O)C=C(O)C=C2O1
RETENTIONTIME:  
CCS:  223.4724829
IONMODE:  Negative
INSTRUMENTTYPE:  
INSTRUMENT:  Maxis II HD Q-TOF Bruker
COLLISIONENERGY:  
Comment:  DB#=CCMSLIB00000846775; origin=GNPS
Num Peaks:  28
100.06399	20.0
118.56803	20.0
150.99969	20.0
154.53229	20.0
162.79663	10.0
169.01366	40.0
178.99646	10.0
199.03799	30.0
243.03053	40.0
255.02797	40.0
269.04428	150.0
271.02527	80.0
285.03091	40.0
286.06546	20.0
294.72504	20.0
299.01825	190.0
300.02155	150.0
314.04388	580.0
314.10175	20.0
315.04965	860.0
329.07437	20.0
336.28259	10.0
374.73892	20.0
577.15961	40.0
622.70142	10.0
623.16266	1000.0
624.1651	40.0
627.58435	10.0

NAME:  NCGC00180525-02!5,7-dihydroxy-2-(4-hydroxy-3-methoxyphenyl)-3-[3,4,5-trihydroxy-6-[[(2R,3R,4R,5R,6S)-3,4,5-trihydroxy-6-methyloxan-2-yl]oxymethyl]oxan-2-yl]oxychromen-4-one
PRECURSORMZ:  669.16723749783
PRECURSORTYPE:  [M+FA-H]-
FORMULA:  C28H32O16
Ontology: Kingdom: Organic compounds;Superclass: Phenylpropanoids and polyketides;Class: Flavonoids;Subclass: Flavonoid glycosides
INCHIKEY:  UIDGLYUNOUKLBM-UHFFFAOYNA-N
SMILES:  COC1=C(O)C=CC(=C1)C1=C(OC2OC(COC3OC(C)C(O)C(O)C3O)C(O)C(O)C2O)C(=O)C2=C(O)C=C(O)C=C2O1
RETENTIONTIME:  
CCS:  -1
IONMODE:  Negative
INSTRUMENTTYPE:  
INSTRUMENT:  Maxis II HD Q-TOF Bruker
COLLISIONENERGY:  
Comment:  DB#=CCMSLIB00000846778; origin=GNPS
Num Peaks:  13
146.48882	40.0
154.54138	60.0
243.0329	90.0
286.05249	90.0
294.64182	30.0
299.01028	20.0
300.02997	130.0
301.03314	40.0
314.03757	360.0
315.04999	350.0
526.98029	50.0
623.16003	1000.0
645.85449	20.0

NAME:  NCGC00385683-01!2-[[4-[2,4-dihydroxy-3-[6-hydroxy-3-(3-methylbut-2-enyl)-2,4-bis[[3,4,5-trihydroxy-6-(hydroxymethyl)oxan-2-yl]oxy]phenyl]-5-(3-methylbut-2-enyl)-6-[3,4,5-trihydroxy-6-(hydroxymethyl)oxan-2-yl]oxyphenyl]-3-hydroxy-2-(4-hydroxyphenyl)-5-methoxy-3,4-dihydro-2H-chromen-7-yl]oxy]-6-(hydroxymethyl)oxane-3,4,5-triol
PRECURSORMZ:  1365.46655834383
PRECURSORTYPE:  [M+FA-H]-
FORMULA:  C62H80O31
Ontology: Kingdom: Organic compounds;Superclass: Phenylpropanoids and polyketides;Class: Flavonoids;Subclass: Flavonoid glycosides
INCHIKEY:  FTPZSVIUVXEHEJ-UHFFFAOYNA-N
SMILES:  COC1=C2C(C(O)C(OC2=CC(OC2OC(CO)C(O)C(O)C2O)=C1)C1=CC=C(O)C=C1)C1=C(O)C(=C(O)C(CC=C(C)C)=C1OC1OC(CO)C(O)C(O)C1O)C1=C(OC2OC(CO)C(O)C(O)C2O)C(CC=C(C)C)=C(OC2OC(CO)C(O)C(O)C2O)C=C1O
RETENTIONTIME:  
CCS:  -1
IONMODE:  Negative
INSTRUMENTTYPE:  
INSTRUMENT:  Maxis II HD Q-TOF Bruker
COLLISIONENERGY:  
Comment:  DB#=CCMSLIB00000846780; origin=GNPS
Num Peaks:  146
108.02244	30.0
139.03864	90.0
145.06487	50.0
151.00327	30.0
151.04507	60.0
164.0148	30.0
171.04251	30.0
175.07515	40.0
180.04077	30.0
194.09125	60.0
201.02335	50.0
205.09392	30.0
229.08958	20.0
231.0667	90.0
232.07397	60.0
269.97955	10.0
273.0459	50.0
278.21228	30.0
284.06186	30.0
284.09021	40.0
285.07919	80.0
287.68399	20.0
291.80249	70.0
296.11313	40.0
297.07666	50.0
299.05646	20.0
311.08319	50.0
316.07242	20.0
318.095	50.0
319.17377	20.0
322.09988	20.0
325.11795	60.0
345.10016	30.0
361.10275	10.0
362.11423	30.0
363.08795	20.0
391.11163	40.0
407.07413	20.0
411.15228	30.0
419.14041	50.0
424.1492	30.0
431.1412	40.0
433.18842	20.0
447.14383	30.0
449.16458	50.0
457.13116	20.0
458.14026	110.0
461.14639	40.0
476.13934	30.0
503.12549	60.0
503.15262	60.0
511.17377	30.0
518.12555	30.0
531.1272	40.0
531.21613	20.0
537.16797	30.0
538.85248	20.0
542.06268	20.0
543.14178	40.0
544.10571	60.0
545.1369	20.0
548.19922	20.0
549.20428	30.0
551.17419	30.0
557.14423	10.0
559.19946	220.0
560.20306	60.0
563.54028	30.0
564.10101	10.0
566.20148	50.0
579.16327	40.0
583.20728	60.0
584.19159	20.0
585.21741	30.0
586.18231	410.0
587.19073	370.0
587.24597	30.0
588.18939	40.0
611.23022	20.0
624.16949	60.0
638.18219	30.0
659.85419	30.0
665.19965	70.0
666.23962	10.0
673.22821	30.0
675.20953	20.0
679.24011	20.0
679.41431	10.0
680.21399	20.0
689.19086	20.0
689.23444	30.0
691.21838	50.0
693.05634	30.0
693.22925	1000.0
694.24304	270.0
695.25568	30.0
695.62781	40.0
696.99622	20.0
697.98315	30.0
709.27338	30.0
721.22955	30.0
747.24164	20.0
748.22223	120.0
749.25671	50.0
750.31177	20.0
788.258	10.0
801.24103	20.0
815.1759	20.0
815.25653	40.0
819.94177	30.0
828.28448	30.0
829.24951	20.0
830.28271	20.0
831.91858	20.0
841.3031	60.0
855.28278	380.0
856.22418	40.0
856.28503	90.0
857.29883	40.0
875.33282	20.0
910.15417	10.0
920.89447	20.0
945.30872	30.0
963.3103	40.0
977.30957	40.0
995.33698	200.0
996.3587	80.0
996.44464	40.0
997.34076	60.0
1018.35266	20.0
1021.35864	20.0
1125.40295	40.0
1126.29553	30.0
1131.14148	30.0
1139.38501	20.0
1155.48865	20.0
1156.70435	10.0
1157.39685	310.0
1158.08411	10.0
1158.31396	30.0
1158.39038	100.0
1158.4696	10.0
1159.05151	10.0
1159.37756	90.0
1319.42395	80.0
1320.38953	20.0

NAME:  NCGC00380630-01!3,5-dichloro-2-(2,4-dihydroxy-6-methoxycarbonylphenoxy)-6-methoxy-4-methylbenzoic acid
PRECURSORMZ:  414.99929634783
PRECURSORTYPE:  [M-H]-
FORMULA:  C17H14Cl2O8
Ontology: Kingdom: Organic compounds;Superclass: Benzenoids;Class: Benzene and substituted derivatives;Subclass: Diphenylethers
INCHIKEY:  IJSJXKCVRHBPSG-UHFFFAOYSA-N
SMILES:  COC(=O)C1=C(OC2=C(Cl)C(C)=C(Cl)C(OC)=C2C(O)=O)C(O)=CC(O)=C1
RETENTIONTIME:  
CCS:  -1
IONMODE:  Negative
INSTRUMENTTYPE:  
INSTRUMENT:  Maxis II HD Q-TOF Bruker
COLLISIONENERGY:  
Comment:  DB#=CCMSLIB00000846782; origin=GNPS
Num Peaks:  3
216.94501	1000.0
248.9736	210.0
1320.50403	60.0

NAME:  NCGC00380629-01!(3R)-4-[6-[(2R,4R,5S,6R)-4,5-dihydroxy-6-methyloxan-2-yl]-1,5-dihydroxy-9,10-dioxoanthracen-2-yl]-3-hydroxy-3-methylbutanoic acid
PRECURSORMZ:  485.14532058483
PRECURSORTYPE:  [M-H]-
FORMULA:  C25H26O10
Ontology: ;;;
INCHIKEY:  LKLNNJGYAYDANM-UHFFFAOYNA-N
SMILES:  CC1OC(CC(O)C1O)C1=C(O)C2=C(C=C1)C(=O)C1=C(C=CC(CC(C)(O)CC(O)=O)=C1O)C2=O
RETENTIONTIME:  
CCS:  231.3994717
IONMODE:  Negative
INSTRUMENTTYPE:  
INSTRUMENT:  Maxis II HD Q-TOF Bruker
COLLISIONENERGY:  
Comment:  DB#=CCMSLIB00000846784; origin=GNPS
Num Peaks:  10
186.3595	20.0
189.74046	10.0
249.00923	10.0
250.06682	20.0
277.04236	20.0
279.06769	300.0
280.37045	10.0
284.45367	20.0
383.06311	20.0
383.11511	1000.0

NAME:  NCGC00380635-01![(2R,3R,4S,5S,6R)-3-acetyloxy-2-(acetyloxymethyl)-5-hexanoyloxy-6-[(2S,3R)-2,3,4-trihydroxybutoxy]oxan-4-yl] dodecanoate
PRECURSORMZ:  647.36481541083
PRECURSORTYPE:  [M-H]-
FORMULA:  C32H56O13
Ontology: Kingdom: Organic compounds;Superclass: Lipids and lipid;Class: Saccharolipids;
INCHIKEY:  YTRXIFNFFGXRFV-UHFFFAOYNA-N
SMILES:  CCCCCCCCCCCC(=O)OC1C(OC(C)=O)C(COC(C)=O)OC(OCC(O)C(O)CO)C1OC(=O)CCCCC
RETENTIONTIME:  
CCS:  -1
IONMODE:  Negative
INSTRUMENTTYPE:  
INSTRUMENT:  Maxis II HD Q-TOF Bruker
COLLISIONENERGY:  
Comment:  DB#=CCMSLIB00000846786; origin=GNPS
Num Peaks:  11
113.01994	40.0
200.51253	140.0
290.10889	100.0
293.13248	40.0
307.50766	50.0
617.32001	40.0
645.73749	30.0
647.38794	1000.0
647.60297	10.0
648.39008	60.0
1546.30945	20.0

NAME:  NCGC00169410-02!7-[6-[[3,4-dihydroxy-6-methyl-5-[3,4,5-trihydroxy-6-(hydroxymethyl)oxan-2-yl]oxyoxan-2-yl]oxymethyl]-3,4,5-trihydroxyoxan-2-yl]oxy-5-hydroxy-3-(4-hydroxyphenyl)chromen-4-one
PRECURSORMZ:  739.20910261583
PRECURSORTYPE:  [M-H]-
FORMULA:  C33H40O19
Ontology: Kingdom: Organic compounds;Superclass: Phenylpropanoids and polyketides;Class: Isoflavonoids;Subclass: Isoflavonoid O
INCHIKEY:  VPBGBMLWGOFHSN-UHFFFAOYNA-N
SMILES:  CC1OC(OCC2OC(OC3=CC(O)=C4C(=O)C(=COC4=C3)C3=CC=C(O)C=C3)C(O)C(O)C2O)C(O)C(O)C1OC1OC(CO)C(O)C(O)C1O
RETENTIONTIME:  
CCS:  -1
IONMODE:  Negative
INSTRUMENTTYPE:  
INSTRUMENT:  Maxis II HD Q-TOF Bruker
COLLISIONENERGY:  
Comment:  DB#=CCMSLIB00000846788; origin=GNPS
Num Peaks:  30
141.04503	10.0
145.75519	30.0
151.00398	30.0
158.03934	30.0
163.00525	30.0
164.0071	30.0
169.0114	30.0
199.05161	40.0
200.05119	30.0
209.01328	20.0
227.0397	60.0
227.07201	20.0
227.63792	10.0
229.05045	50.0
255.03157	380.0
256.03836	120.0
257.84906	10.0
284.03348	1000.0
285.0397	410.0
286.03009	40.0
298.0491	20.0
326.04361	20.0
349.68384	20.0
371.13266	10.0
533.13159	20.0
575.18878	30.0
737.27496	10.0
739.21289	790.0
740.21698	110.0
740.70471	10.0

NAME:  NCGC00380415-01!5,7-dihydroxy-2-(4-hydroxyphenyl)-3-[3,5,7-trihydroxy-2-(4-hydroxyphenyl)-3,4-dihydro-2H-chromen-8-yl]-2,3-dihydrochromen-4-one
PRECURSORMZ:  543.12967052083
PRECURSORTYPE:  [M-H]-
FORMULA:  C30H24O10
Ontology: ;;;
INCHIKEY:  YHJDRJVMBSUEDI-UHFFFAOYNA-N
SMILES:  OC1CC2=C(OC1C1=CC=C(O)C=C1)C(C1C(OC3=CC(O)=CC(O)=C3C1=O)C1=CC=C(O)C=C1)=C(O)C=C2O
RETENTIONTIME:  
CCS:  -1
IONMODE:  Negative
INSTRUMENTTYPE:  
INSTRUMENT:  Maxis II HD Q-TOF Bruker
COLLISIONENERGY:  
Comment:  DB#=CCMSLIB00000846789; origin=GNPS
Num Peaks:  45
119.04891	30.0
122.03268	30.0
125.02478	180.0
150.91681	20.0
151.00372	670.0
169.01425	10.0
177.02161	40.0
189.01721	30.0
190.02782	20.0
201.0555	40.0
205.01663	30.0
205.10672	40.0
216.00171	60.0
240.05391	30.0
250.06807	30.0
255.07851	40.0
257.0401	50.0
268.03754	60.0
269.05377	30.0
281.04855	100.0
282.06155	30.0
283.05768	80.0
292.07468	30.0
305.12491	30.0
309.07098	10.0
311.0567	50.0
315.08197	20.0
320.10202	20.0
325.06387	10.0
335.05331	20.0
351.48865	20.0
367.80942	10.0
373.10931	20.0
377.10526	20.0
391.1261	20.0
405.0799	40.0
417.10162	1000.0
436.10654	20.0
437.08557	30.0
449.08578	60.0
475.09851	20.0
497.12738	30.0
499.17377	20.0
543.13629	160.0
592.77173	10.0

NAME:  NCGC00380415-01!5,7-dihydroxy-2-(4-hydroxyphenyl)-3-[3,5,7-trihydroxy-2-(4-hydroxyphenyl)-3,4-dihydro-2H-chromen-8-yl]-2,3-dihydrochromen-4-one
PRECURSORMZ:  589.13514952083
PRECURSORTYPE:  [M+FA-H]-
FORMULA:  C30H24O10
Ontology: Kingdom: Organic compounds;Superclass: Phenylpropanoids and polyketides;Class: Flavonoids;Subclass: Biflavonoids and polyflavonoids
INCHIKEY:  YHJDRJVMBSUEDI-UHFFFAOYNA-N
SMILES:  OC1CC2=C(OC1C1=CC=C(O)C=C1)C(C1C(OC3=CC(O)=CC(O)=C3C1=O)C1=CC=C(O)C=C1)=C(O)C=C2O
RETENTIONTIME:  
CCS:  -1
IONMODE:  Negative
INSTRUMENTTYPE:  
INSTRUMENT:  Maxis II HD Q-TOF Bruker
COLLISIONENERGY:  
Comment:  DB#=CCMSLIB00000846792; origin=GNPS
Num Peaks:  19
125.02372	130.0
151.00441	520.0
169.01294	180.0
190.01064	90.0
204.12518	70.0
218.01999	80.0
239.08177	50.0
254.06041	90.0
273.07578	80.0
281.04428	130.0
283.04926	90.0
309.09253	70.0
310.04984	70.0
365.10181	60.0
391.10587	90.0
417.09845	1000.0
499.1561	60.0
543.13135	360.0
589.15167	70.0

NAME:  NCGC00380486-01!7-[(2S,3R,4S,5S,6R)-4,5-dihydroxy-6-(hydroxymethyl)-3-[(2S,3R,4S,5S,6R)-3,4,5-trihydroxy-6-(hydroxymethyl)oxan-2-yl]oxyoxan-2-yl]oxy-9-hydroxy-6-(4-hydroxyphenyl)-[1,3]dioxolo[4,5-g]chromen-8-one
PRECURSORMZ:  637.14102305383
PRECURSORTYPE:  [M-H]-
FORMULA:  C28H30O17
Ontology: Kingdom: Organic compounds;Superclass: Phenylpropanoids and polyketides;Class: Flavonoids;Subclass: Flavonoid glycosides
INCHIKEY:  AQHBWLVCMSRMAR-UHFFFAOYNA-N
SMILES:  OCC1OC(OC2C(O)C(O)C(CO)OC2OC2=C(OC3=CC4=C(OCO4)C(O)=C3C2=O)C2=CC=C(O)C=C2)C(O)C(O)C1O
RETENTIONTIME:  
CCS:  -1
IONMODE:  Negative
INSTRUMENTTYPE:  
INSTRUMENT:  Maxis II HD Q-TOF Bruker
COLLISIONENERGY:  
Comment:  DB#=CCMSLIB00000846794; origin=GNPS
Num Peaks:  16
158.03247	200.0
178.99936	250.0
223.99129	220.0
227.0249	210.0
240.03807	290.0
283.03412	170.0
284.02768	250.0
285.0433	710.0
311.02689	170.0
312.02664	1000.0
313.03546	700.0
457.08405	160.0
501.14279	190.0
517.10797	400.0
637.13696	930.0
637.17926	450.0

NAME:  NCGC00384744-01!5-hydroxy-3-[4-hydroxy-2-[(2S,3R,4S,5S,6R)-3,4,5-trihydroxy-6-(hydroxymethyl)oxan-2-yl]oxyphenyl]-7-methoxychromen-4-one
PRECURSORMZ:  507.11441407583
PRECURSORTYPE:  [M+FA-H]-
FORMULA:  C22H22O11
Ontology: Kingdom: Organic compounds;Superclass: Phenylpropanoids and polyketides;Class: Isoflavonoids;Subclass: O
INCHIKEY:  GODZRCRSZUIPBM-UHFFFAOYNA-N
SMILES:  COC1=CC(O)=C2C(=O)C(=COC2=C1)C1=C(OC2OC(CO)C(O)C(O)C2O)C=C(O)C=C1
RETENTIONTIME:  
CCS:  -1
IONMODE:  Negative
INSTRUMENTTYPE:  
INSTRUMENT:  Maxis II HD Q-TOF Bruker
COLLISIONENERGY:  
Comment:  DB#=CCMSLIB00000846796; origin=GNPS
Num Peaks:  9
133.02844	20.0
156.98065	10.0
160.91951	30.0
165.01605	90.0
201.02046	10.0
271.06073	20.0
284.19714	10.0
299.05508	1000.0
461.11121	20.0

NAME:  NCGC00384791-01!7-[4,5-dihydroxy-6-(hydroxymethyl)-3-[(2S,3R,4R,5R,6S)-3,4,5-trihydroxy-6-methyloxan-2-yl]oxyoxan-2-yl]oxy-2-(3,4-dihydroxyphenyl)-5-hydroxychromen-4-one
PRECURSORMZ:  593.15119381383
PRECURSORTYPE:  [M-H]-
FORMULA:  C27H30O15
Ontology: ;;;
INCHIKEY:  SHPPXMGVUDNKLV-UHFFFAOYNA-N
SMILES:  CC1OC(OC2C(O)C(O)C(CO)OC2OC2=CC(O)=C3C(=O)C=C(OC3=C2)C2=CC(O)=C(O)C=C2)C(O)C(O)C1O
RETENTIONTIME:  
CCS:  224.7782905
IONMODE:  Negative
INSTRUMENTTYPE:  
INSTRUMENT:  Maxis II HD Q-TOF Bruker
COLLISIONENERGY:  
Comment:  DB#=CCMSLIB00000846797; origin=GNPS
Num Peaks:  14
152.43596	20.0
185.02737	20.0
227.03218	120.0
255.02707	170.0
257.06689	30.0
276.96716	30.0
283.67197	20.0
284.03006	750.0
285.04062	260.0
303.961	10.0
363.10364	20.0
447.12659	20.0
499.25262	20.0
593.14758	1000.0

NAME:  NCGC00347374-02![(2R,3S,4S,5R,6R)-3,4,5-trihydroxy-6-[(2S,3S,4R,5R)-4-hydroxy-3-[(E)-3-(4-hydroxy-3,5-dimethoxyphenyl)prop-2-enoyl]oxy-2,5-bis(hydroxymethyl)oxolan-2-yl]oxyoxan-2-yl]methyl (E)-3-(4-hydroxy-3,5-dimethoxyphenyl)prop-2-enoate
PRECURSORMZ:  753.22475267983
PRECURSORTYPE:  [M-H]-
FORMULA:  C34H42O19
Ontology: Kingdom: Organic compounds;Superclass: Phenylpropanoids and polyketides;Class: Cinnamic acids and derivatives;Subclass: Hydroxycinnamic acids and derivatives
INCHIKEY:  FHIJMQWMMZEFBL-UHFFFAOYNA-N
SMILES:  COC1=CC(C=CC(=O)OCC2OC(OC3(CO)OC(CO)C(O)C3OC(=O)C=CC3=CC(OC)=C(O)C(OC)=C3)C(O)C(O)C2O)=CC(OC)=C1O
RETENTIONTIME:  
CCS:  300.2949582
IONMODE:  Negative
INSTRUMENTTYPE:  
INSTRUMENT:  Maxis II HD Q-TOF Bruker
COLLISIONENERGY:  
Comment:  DB#=CCMSLIB00000846801; origin=GNPS
Num Peaks:  29
76.41012	20.0
97.33442	10.0
104.03005	30.0
137.02261	30.0
145.02911	40.0
149.02119	40.0
163.03711	20.0
165.01324	30.0
175.00299	140.0
179.07011	40.0
190.02545	350.0
191.03134	30.0
205.04942	1000.0
207.42555	10.0
223.05806	40.0
235.06143	20.0
277.07336	40.0
341.10962	20.0
352.07974	20.0
385.09494	30.0
455.13803	10.0
529.13672	10.0
530.1579	10.0
547.16107	120.0
548.15643	30.0
573.16632	10.0
738.23169	10.0
753.22412	70.0
754.19556	10.0

NAME:  NCGC00347374-02![(2R,3S,4S,5R,6R)-3,4,5-trihydroxy-6-[(2S,3S,4R,5R)-4-hydroxy-3-[(E)-3-(4-hydroxy-3,5-dimethoxyphenyl)prop-2-enoyl]oxy-2,5-bis(hydroxymethyl)oxolan-2-yl]oxyoxan-2-yl]methyl (E)-3-(4-hydroxy-3,5-dimethoxyphenyl)prop-2-enoate
PRECURSORMZ:  799.23023167983
PRECURSORTYPE:  [M+FA-H]-
FORMULA:  C34H42O19
Ontology: ;;;
INCHIKEY:  FHIJMQWMMZEFBL-UHFFFAOYNA-N
SMILES:  COC1=CC(C=CC(=O)OCC2OC(OC3(CO)OC(CO)C(O)C3OC(=O)C=CC3=CC(OC)=C(O)C(OC)=C3)C(O)C(O)C2O)=CC(OC)=C1O
RETENTIONTIME:  
CCS:  -1
IONMODE:  Negative
INSTRUMENTTYPE:  
INSTRUMENT:  Maxis II HD Q-TOF Bruker
COLLISIONENERGY:  
Comment:  DB#=CCMSLIB00000846804; origin=GNPS
Num Peaks:  15
135.02737	60.0
153.01656	80.0
164.04628	70.0
190.02925	330.0
205.04865	1000.0
206.05286	110.0
223.0519	50.0
265.07013	150.0
341.11728	50.0
420.01831	40.0
514.13672	70.0
529.15863	30.0
547.16833	100.0
753.24359	200.0
754.29211	30.0

NAME:  NCGC00347516-02!methyl 4-(4,6-dihydroxy-5-methoxy-2,5-dimethyl-3-oxocyclohexen-1-yl)oxy-2-hydroxy-3,6-dimethylbenzoate
PRECURSORMZ:  379.13984128083
PRECURSORTYPE:  [M-H]-
FORMULA:  C19H24O8
Ontology: Kingdom: Organic compounds;Superclass: Benzenoids;Class: Benzene and substituted derivatives;Subclass: Benzoic acids and derivatives
INCHIKEY:  BXZJZDQDHHZIIB-UHFFFAOYNA-N
SMILES:  COC(=O)C1=C(O)C(C)=C(OC2=C(C)C(=O)C(O)C(C)(OC)C2O)C=C1C
RETENTIONTIME:  
CCS:  -1
IONMODE:  Negative
INSTRUMENTTYPE:  
INSTRUMENT:  Maxis II HD Q-TOF Bruker
COLLISIONENERGY:  
Comment:  DB#=CCMSLIB00000846806; origin=GNPS
Num Peaks:  6
119.04576	190.0
163.04204	500.0
195.06548	530.0
303.12823	1000.0
379.14282	190.0
1065.65308	20.0

NAME:  NCGC00380471-01!5-hydroxy-6,8-dimethoxy-7-[(2S,3R,4S,5S,6R)-3,4,5-trihydroxy-6-(hydroxymethyl)oxan-2-yl]oxychromen-2-one
PRECURSORMZ:  445.09876401183
PRECURSORTYPE:  [M+FA-H]-
FORMULA:  C17H20O11
Ontology: Kingdom: Organic compounds;Superclass: Phenylpropanoids and polyketides;Class: Coumarins and derivatives;Subclass: Coumarin glycosides
INCHIKEY:  KDWWYRPEBULRGU-UHFFFAOYNA-N
SMILES:  COC1=C(OC2OC(CO)C(O)C(O)C2O)C(OC)=C2OC(=O)C=CC2=C1O
RETENTIONTIME:  
CCS:  -1
IONMODE:  Negative
INSTRUMENTTYPE:  
INSTRUMENT:  Maxis II HD Q-TOF Bruker
COLLISIONENERGY:  
Comment:  DB#=CCMSLIB00000846808; origin=GNPS
Num Peaks:  15
197.04559	40.0
205.97859	50.0
206.99638	30.0
217.00443	20.0
221.00883	660.0
236.03198	1000.0
237.0408	200.0
238.83336	30.0
249.05534	50.0
267.05212	100.0
277.11423	50.0
355.09744	40.0
384.0705	90.0
399.08752	280.0
403.63055	30.0

NAME:  NCGC00380585-01!(E)-3-[1-[(E)-but-2-en-2-yl]-9-hydroxy-10-(hydroxymethyl)-3-methoxy-4-methyl-6-oxobenzo[b][1,4]benzodioxepin-7-yl]but-2-enoic acid
PRECURSORMZ:  439.13984128083
PRECURSORTYPE:  [M-H]-
FORMULA:  C24H24O8
Ontology: Kingdom: Organic compounds;Superclass: Phenylpropanoids and polyketides;Class: Depsides and depsidones;
INCHIKEY:  NTOXIMPFEPXTTB-UHFFFAOYSA-N
SMILES:  COC1=C(C)C2=C(OC3=C(C(=CC(O)=C3CO)C(C)=CC(O)=O)C(=O)O2)C(=C1)C(C)=CC
RETENTIONTIME:  
CCS:  223.841603
IONMODE:  Negative
INSTRUMENTTYPE:  
INSTRUMENT:  Maxis II HD Q-TOF Bruker
COLLISIONENERGY:  
Comment:  DB#=CCMSLIB00000846810; origin=GNPS
Num Peaks:  32
147.00465	40.0
174.03195	60.0
175.03658	60.0
188.04796	40.0
189.09151	30.0
212.7262	20.0
215.11177	40.0
235.75612	70.0
279.14883	30.0
282.12155	50.0
294.08594	30.0
297.14725	50.0
305.12241	80.0
307.10574	30.0
309.11896	40.0
321.14581	30.0
323.13818	30.0
339.11777	50.0
350.06891	40.0
351.16235	30.0
365.13062	90.0
367.14078	50.0
377.12628	30.0
378.14587	30.0
380.12567	100.0
383.10849	190.0
395.14752	100.0
409.12915	40.0
439.14087	1000.0
439.3631	20.0
440.1423	30.0
442.55817	20.0

NAME:  NCGC00347626-02![6-acetyloxy-7-(chloromethyl)-7-hydroxy-1-(3-methylbutanoyloxy)-4a,5,6,7a-tetrahydro-1H-cyclopenta[c]pyran-4-yl]methyl 3-methylbutanoate
PRECURSORMZ:  495.1557969599
PRECURSORTYPE:  [M+Cl]-
FORMULA:  C22H33ClO8
Ontology: Kingdom: Organic compounds;Superclass: Lipids and lipid;Class: Prenol lipids;Subclass: Monoterpenoids
INCHIKEY:  QERAXRDNYJPTRN-UHFFFAOYNA-N
SMILES:  CC(C)CC(=O)OCC1=COC(OC(=O)CC(C)C)C2C1CC(OC(C)=O)C2(O)CCl
RETENTIONTIME:  
CCS:  -1
IONMODE:  Negative
INSTRUMENTTYPE:  
INSTRUMENT:  Maxis II HD Q-TOF Bruker
COLLISIONENERGY:  
Comment:  DB#=CCMSLIB00000846812; origin=GNPS
Num Peaks:  10
161.82646	130.0
175.02359	650.0
207.85916	50.0
263.01703	1000.0
289.03329	190.0
306.03613	510.0
321.05933	940.0
322.96964	220.0
494.39365	150.0
495.2077	220.0

NAME:  NCGC00169100-02!2-[2,6-bis(3-methylbut-2-enyl)-4-[(2S,3R,4S,5S,6R)-3,4,5-trihydroxy-6-(hydroxymethyl)oxan-2-yl]oxyphenyl]-2-hydroxyacetic acid
PRECURSORMZ:  511.21848522283
PRECURSORTYPE:  [M+FA-H]-
FORMULA:  C24H34O9
Ontology: Kingdom: Organic compounds;Superclass: Organic oxygen compounds;Class: Organooxygen compounds;Subclass: Carbohydrates and carbohydrate conjugates
INCHIKEY:  NKNHYXCDCIOHRT-UHFFFAOYNA-N
SMILES:  CC(C)=CCC1=CC(OC2OC(CO)C(O)C(O)C2O)=CC(CC=C(C)C)=C1C(O)C(O)=O
RETENTIONTIME:  
CCS:  -1
IONMODE:  Negative
INSTRUMENTTYPE:  
INSTRUMENT:  Maxis II HD Q-TOF Bruker
COLLISIONENERGY:  
Comment:  DB#=CCMSLIB00000846814; origin=GNPS
Num Peaks:  12
85.02719	70.0
101.02758	180.0
119.03187	70.0
120.57346	370.0
149.04532	140.0
259.17047	270.0
285.15085	580.0
345.17838	50.0
421.23581	80.0
465.21558	1000.0
468.29095	70.0
477.11111	30.0

NAME:  NCGC00347732-02!methyl 3-[3,4-dihydroxy-5-(3-methylbut-2-enyl)phenyl]-2-[[4-hydroxy-3-(3-methylbut-2-enyl)phenyl]methyl]-4-methoxy-5-oxofuran-2-carboxylate
PRECURSORMZ:  521.21809160283
PRECURSORTYPE:  [M-H]-
FORMULA:  C30H34O8
Ontology: Kingdom: Organic compounds;Superclass: Benzenoids;Class: Phenols;Subclass: Benzenediols
INCHIKEY:  LARSXHUKWMVHRB-UHFFFAOYNA-N
SMILES:  COC(=O)C1(CC2=CC(CC=C(C)C)=C(O)C=C2)OC(=O)C(OC)=C1C1=CC(O)=C(O)C(CC=C(C)C)=C1
RETENTIONTIME:  
CCS:  -1
IONMODE:  Negative
INSTRUMENTTYPE:  
INSTRUMENT:  Maxis II HD Q-TOF Bruker
COLLISIONENERGY:  
Comment:  DB#=CCMSLIB00000846816; origin=GNPS
Num Peaks:  32
126.88084	10.0
161.02818	20.0
175.63902	20.0
177.10109	20.0
192.07962	10.0
213.04704	10.0
215.10799	30.0
216.07785	30.0
217.08701	250.0
218.13921	20.0
218.21341	10.0
220.02345	20.0
243.62505	10.0
244.07132	30.0
246.01546	10.0
259.10553	30.0
272.06421	30.0
275.1106	20.0
289.07034	1000.0
289.15955	10.0
291.07703	20.0
315.09052	140.0
332.08972	860.0
346.30414	20.0
347.11557	960.0
375.19852	30.0
390.224	10.0
433.18564	20.0
434.19904	10.0
447.17862	230.0
521.2196	200.0
1086.78223	20.0

NAME:  NCGC00347732-02!methyl 3-[3,4-dihydroxy-5-(3-methylbut-2-enyl)phenyl]-2-[[4-hydroxy-3-(3-methylbut-2-enyl)phenyl]methyl]-4-methoxy-5-oxofuran-2-carboxylate
PRECURSORMZ:  567.22357060283
PRECURSORTYPE:  [M+FA-H]-
FORMULA:  C30H34O8
Ontology: Kingdom: Organic compounds;Superclass: Benzenoids;Class: Phenols;Subclass: Benzenediols
INCHIKEY:  LARSXHUKWMVHRB-UHFFFAOYNA-N
SMILES:  COC(=O)C1(CC2=CC(CC=C(C)C)=C(O)C=C2)OC(=O)C(OC)=C1C1=CC(O)=C(O)C(CC=C(C)C)=C1
RETENTIONTIME:  
CCS:  -1
IONMODE:  Negative
INSTRUMENTTYPE:  
INSTRUMENT:  Maxis II HD Q-TOF Bruker
COLLISIONENERGY:  
Comment:  DB#=CCMSLIB00000846818; origin=GNPS
Num Peaks:  17
215.1107	130.0
217.08954	120.0
252.5831	100.0
259.10013	460.0
261.89389	50.0
303.08563	60.0
331.08017	210.0
361.09616	60.0
421.21277	150.0
439.1275	90.0
479.21274	100.0
492.87408	20.0
493.18805	1000.0
552.20032	80.0
566.66339	50.0
567.22314	750.0
1490.21301	40.0

NAME:  NCGC00380459-01!6-hydroxy-3-[3-hydroxy-4-[3,4,5-trihydroxy-6-[[3,4,5-trihydroxy-6-(hydroxymethyl)oxan-2-yl]oxymethyl]oxan-2-yl]oxyphenyl]-5,7-dimethoxychromen-4-one
PRECURSORMZ:  699.17780218283
PRECURSORTYPE:  [M+FA-H]-
FORMULA:  C29H34O17
Ontology: Kingdom: Organic compounds;Superclass: Phenylpropanoids and polyketides;Class: Isoflavonoids;Subclass: Isoflavonoid O
INCHIKEY:  KHCREUNEQGORAM-UHFFFAOYNA-N
SMILES:  COC1=C(O)C(OC)=C2C(=O)C(=COC2=C1)C1=CC(O)=C(OC2OC(COC3OC(CO)C(O)C(O)C3O)C(O)C(O)C2O)C=C1
RETENTIONTIME:  
CCS:  -1
IONMODE:  Negative
INSTRUMENTTYPE:  
INSTRUMENT:  Maxis II HD Q-TOF Bruker
COLLISIONENERGY:  
Comment:  DB#=CCMSLIB00000846819; origin=GNPS
Num Peaks:  4
271.02554	10.0
299.02121	30.0
314.04349	220.0
329.06735	1000.0

NAME:  NCGC00385981-01!6-[5,7-dihydroxy-2-(4-hydroxy-3-methoxyphenyl)-4-oxochromen-3-yl]oxy-3,4,5-trihydroxyoxane-2-carboxylic acid
PRECURSORMZ:  491.08311425183
PRECURSORTYPE:  [M-H]-
FORMULA:  C22H20O13
Ontology: Kingdom: Organic compounds;Superclass: Phenylpropanoids and polyketides;Class: Flavonoids;Subclass: Flavonoid glycosides
INCHIKEY:  VVZWHOMBDMMRSC-UHFFFAOYNA-N
SMILES:  COC1=C(O)C=CC(=C1)C1=C(OC2OC(C(O)C(O)C2O)C(O)=O)C(=O)C2=C(O)C=C(O)C=C2O1
RETENTIONTIME:  
CCS:  222.8767118
IONMODE:  Negative
INSTRUMENTTYPE:  
INSTRUMENT:  Maxis II HD Q-TOF Bruker
COLLISIONENERGY:  
Comment:  DB#=CCMSLIB00000846822; origin=GNPS
Num Peaks:  8
101.02601	110.0
145.0244	150.0
259.0506	70.0
271.01453	60.0
271.04108	50.0
274.36676	60.0
300.04855	100.0
315.05432	1000.0

NAME:  NCGC00384632-01![(2R,3R,4S,5R,6R)-6-[2-(3,4-dihydroxyphenyl)ethoxy]-3,5-dihydroxy-4-[(2R,3R,4R,5R,6S)-3,4,5-trihydroxy-6-methyloxan-2-yl]oxyoxan-2-yl]methyl (E)-3-(3,4-dihydroxyphenyl)prop-2-enoate
PRECURSORMZ:  623.19814400683
PRECURSORTYPE:  [M-H]-
FORMULA:  C29H36O15
Ontology: Kingdom: Organic compounds;Superclass: Phenylpropanoids and polyketides;Class: Cinnamic acids and derivatives;Subclass: Hydroxycinnamic acids and derivatives
INCHIKEY:  FNMHEHXNBNCPCI-UHFFFAOYNA-N
SMILES:  CC1OC(OC2C(O)C(COC(=O)C=CC3=CC(O)=C(O)C=C3)OC(OCCC3=CC(O)=C(O)C=C3)C2O)C(O)C(O)C1O
RETENTIONTIME:  
CCS:  234.3144435
IONMODE:  Negative
INSTRUMENTTYPE:  
INSTRUMENT:  Maxis II HD Q-TOF Bruker
COLLISIONENERGY:  
Comment:  DB#=CCMSLIB00000846824; origin=GNPS
Num Peaks:  20
83.92119	10.0
89.02553	20.0
99.38198	20.0
101.92422	10.0
113.02393	30.0
123.04663	10.0
132.02045	10.0
133.03099	160.0
134.0381	10.0
135.04593	110.0
143.03622	10.0
153.05887	20.0
161.02547	720.0
179.03571	50.0
251.05608	20.0
305.08066	20.0
315.10693	20.0
461.16751	150.0
622.19409	10.0
623.20068	1000.0

NAME:  NCGC00385279-01!4-[(3S)-7-hydroxy-8-(3-methylbut-2-enyl)-3,4-dihydro-2H-chromen-3-yl]benzene-1,3-diol
PRECURSORMZ:  371.15001173583
PRECURSORTYPE:  [M+FA-H]-
FORMULA:  C20H22O4
Ontology: Kingdom: Organic compounds;Superclass: Phenylpropanoids and polyketides;Class: Isoflavonoids;Subclass: Isoflavans
INCHIKEY:  HJYNNFAPXVIBTD-UHFFFAOYNA-N
SMILES:  CC(C)=CCC1=C(O)C=CC2=C1OCC(C2)C1=C(O)C=C(O)C=C1
RETENTIONTIME:  
CCS:  -1
IONMODE:  Negative
INSTRUMENTTYPE:  
INSTRUMENT:  Maxis II HD Q-TOF Bruker
COLLISIONENERGY:  
Comment:  DB#=CCMSLIB00000846825; origin=GNPS
Num Peaks:  15
91.05298	70.0
104.81912	30.0
109.03426	90.0
135.04797	110.0
148.05168	50.0
201.15088	30.0
203.10658	340.0
215.11594	50.0
241.12398	30.0
256.07816	40.0
279.14154	40.0
307.12854	40.0
324.59656	10.0
325.14383	1000.0
326.15402	40.0

NAME:  NCGC00347642-02!
PRECURSORMZ:  363.16018280083
PRECURSORTYPE:  [M-H]-
FORMULA:  C23H24O4
Ontology: Kingdom: Organic compounds;Superclass: Benzenoids;Class: Benzene and substituted derivatives;Subclass: Benzophenones
INCHIKEY:  BQIVXBUAUNSLAJ-UHFFFAOYNA-N
SMILES:  CC1(C)C2CCC3(C)OC4=C(C1C23)C(O)=C(C(=O)C1=CC=CC=C1)C(O)=C4
RETENTIONTIME:  
CCS:  200.1368838
IONMODE:  Negative
INSTRUMENTTYPE:  
INSTRUMENT:  Maxis II HD Q-TOF Bruker
COLLISIONENERGY:  
Comment:  DB#=CCMSLIB00000846828; origin=GNPS
Num Peaks:  6
186.04155	100.0
267.06512	910.0
282.09109	330.0
363.1553	1000.0
367.38364	30.0
439.32907	50.0

NAME:  NCGC00180305-02!
PRECURSORMZ:  409.12927659583
PRECURSORTYPE:  [M-H]-
FORMULA:  C23H22O7
Ontology: Kingdom: Organic compounds;Superclass: Phenylpropanoids and polyketides;Class: Isoflavonoids;Subclass: Rotenoids
INCHIKEY:  JFVKWCYZKMUTLH-UHFFFAOYNA-N
SMILES:  COC1=C(OC)C=C2C(OCC3OC4=C(C=CC5=C4CC(O5)C(C)=C)C(=O)C23O)=C1
RETENTIONTIME:  
CCS:  202.0764959
IONMODE:  Negative
INSTRUMENTTYPE:  
INSTRUMENT:  Maxis II HD Q-TOF Bruker
COLLISIONENERGY:  
Comment:  DB#=CCMSLIB00000846830; origin=GNPS
Num Peaks:  14
131.08861	150.0
159.04768	70.0
175.08173	1000.0
192.98645	80.0
335.11951	110.0
350.12033	160.0
365.13788	40.0
379.10669	140.0
394.11224	90.0
409.13159	40.0
941.43115	130.0
1105.07349	100.0
1667.78027	50.0
1786.12891	20.0

NAME:  NCGC00180273-02!7-hydroxy-2-(4-hydroxyphenyl)-5-[(2S,3R,4S,5S,6R)-3,4,5-trihydroxy-6-(hydroxymethyl)oxan-2-yl]oxy-2,3-dihydrochromen-4-one
PRECURSORMZ:  433.11402045583
PRECURSORTYPE:  [M-H]-
FORMULA:  C21H22O10
Ontology: Kingdom: Organic compounds;Superclass: Phenylpropanoids and polyketides;Class: Flavonoids;Subclass: Flavonoid glycosides
INCHIKEY:  MFQIWHVVFBCURA-UHFFFAOYNA-N
SMILES:  OCC1OC(OC2=CC(O)=CC3=C2C(=O)CC(O3)C2=CC=C(O)C=C2)C(O)C(O)C1O
RETENTIONTIME:  
CCS:  225.643771
IONMODE:  Negative
INSTRUMENTTYPE:  
INSTRUMENT:  Maxis II HD Q-TOF Bruker
COLLISIONENERGY:  
Comment:  DB#=CCMSLIB00000846834; origin=GNPS
Num Peaks:  13
119.06213	30.0
151.005	220.0
164.00461	20.0
165.01981	40.0
169.01068	20.0
203.07652	40.0
227.07515	30.0
271.06433	1000.0
273.92322	20.0
274.12064	30.0
282.30612	20.0
313.06091	40.0
433.11285	200.0

NAME:  NCGC00169163-02!(2S,3S,4S,5R,6S)-3,4,5-trihydroxy-6-[5-hydroxy-2-(4-hydroxyphenyl)-6-methoxy-4-oxochromen-7-yl]oxyoxane-2-carboxylic acid
PRECURSORMZ:  475.08819963183
PRECURSORTYPE:  [M-H]-
FORMULA:  C22H20O12
Ontology: Kingdom: Organic compounds;Superclass: Phenylpropanoids and polyketides;Class: Flavonoids;Subclass: Flavonoid glycosides
INCHIKEY:  GVEZRDBRYNJUDQ-UHFFFAOYNA-N
SMILES:  COC1=C(OC2OC(C(O)C(O)C2O)C(O)=O)C=C2OC(=CC(=O)C2=C1O)C1=CC=C(O)C=C1
RETENTIONTIME:  
CCS:  231.7925165
IONMODE:  Negative
INSTRUMENTTYPE:  
INSTRUMENT:  Maxis II HD Q-TOF Bruker
COLLISIONENERGY:  
Comment:  DB#=CCMSLIB00000846836; origin=GNPS
Num Peaks:  6
111.01635	40.0
256.98593	90.0
284.0351	300.0
299.05844	1000.0
301.4498	20.0
572.52521	70.0

NAME:  NCGC00170014-03!(E)-N-(4-acetamidobutyl)-3-(4-hydroxy-3-methoxyphenyl)prop-2-enamide
PRECURSORMZ:  351.15615974383
PRECURSORTYPE:  [M+FA-H]-
FORMULA:  C16H22N2O4
Ontology: Kingdom: Organic compounds;Superclass: Benzenoids;Class: Phenols;Subclass: Methoxyphenols
INCHIKEY:  ZVMGKOAHBAIHLO-UHFFFAOYSA-N
SMILES:  COC1=C(O)C=CC(C=CC(O)=NCCCCN=C(C)O)=C1
RETENTIONTIME:  
CCS:  -1
IONMODE:  Negative
INSTRUMENTTYPE:  
INSTRUMENT:  Maxis II HD Q-TOF Bruker
COLLISIONENERGY:  
Comment:  DB#=CCMSLIB00000846838; origin=GNPS
Num Peaks:  14
107.77176	100.0
134.03369	270.0
149.06117	560.0
161.02151	60.0
218.09091	60.0
247.12662	90.0
278.10812	80.0
289.12598	90.0
290.13733	340.0
304.09723	50.0
305.07394	40.0
305.15289	1000.0
305.50522	120.0
306.15012	130.0

NAME:  NCGC00380423-01!2-(hydroxymethyl)-5-(2-oxopropyl)-7-[(2S,3R,4S,5S,6R)-3,4,5-trihydroxy-6-(hydroxymethyl)oxan-2-yl]oxychromen-4-one
PRECURSORMZ:  455.11949945583
PRECURSORTYPE:  [M+FA-H]-
FORMULA:  C19H22O10
Ontology: ;;;
INCHIKEY:  QIMCRYYCUHMHMQ-UHFFFAOYNA-N
SMILES:  CC(=O)CC1=CC(OC2OC(CO)C(O)C(O)C2O)=CC2=C1C(=O)C=C(CO)O2
RETENTIONTIME:  
CCS:  -1
IONMODE:  Negative
INSTRUMENTTYPE:  
INSTRUMENT:  Maxis II HD Q-TOF Bruker
COLLISIONENERGY:  
Comment:  DB#=CCMSLIB00000846840; origin=GNPS
Num Peaks:  13
189.01656	20.0
199.04433	10.0
205.04941	10.0
222.30486	20.0
247.06923	60.0
331.11978	20.0
404.21982	20.0
404.37741	20.0
408.23996	10.0
409.11258	1000.0
409.88358	20.0
412.67075	10.0
469.14322	20.0

NAME:  NCGC00380421-01![3-hydroxy-4-[(2S,3R,4S,5S,6R)-3,4,5-trihydroxy-6-(hydroxymethyl)oxan-2-yl]oxyphenyl]methyl 4-hydroxy-3,5-dimethoxybenzoate
PRECURSORMZ:  481.13514982483
PRECURSORTYPE:  [M-H]-
FORMULA:  C22H26O12
Ontology: Kingdom: Organic compounds;Superclass: Phenylpropanoids and polyketides;Class: Tannins;Subclass: Hydrolyzable tannins
INCHIKEY:  SFLVCICJLIKJKU-UHFFFAOYNA-N
SMILES:  COC1=CC(=CC(OC)=C1O)C(=O)OCC1=CC(O)=C(OC2OC(CO)C(O)C(O)C2O)C=C1
RETENTIONTIME:  
CCS:  -1
IONMODE:  Negative
INSTRUMENTTYPE:  
INSTRUMENT:  Maxis II HD Q-TOF Bruker
COLLISIONENERGY:  
Comment:  DB#=CCMSLIB00000846842; origin=GNPS
Num Peaks:  8
105.48083	20.0
121.02783	30.0
138.0334	10.0
153.05539	160.0
182.01588	10.0
196.96204	10.0
197.04605	1000.0
481.13461	20.0

NAME:  NCGC00380421-01![3-hydroxy-4-[(2S,3R,4S,5S,6R)-3,4,5-trihydroxy-6-(hydroxymethyl)oxan-2-yl]oxyphenyl]methyl 4-hydroxy-3,5-dimethoxybenzoate
PRECURSORMZ:  463.12458514483
PRECURSORTYPE:  [M-H2O-H]-
FORMULA:  C22H26O12
Ontology: Kingdom: Organic compounds;Superclass: Phenylpropanoids and polyketides;Class: Tannins;Subclass: Hydrolyzable tannins
INCHIKEY:  SFLVCICJLIKJKU-UHFFFAOYNA-N
SMILES:  COC1=CC(=CC(OC)=C1O)C(=O)OCC1=CC(O)=C(OC2OC(CO)C(O)C(O)C2O)C=C1
RETENTIONTIME:  
CCS:  -1
IONMODE:  Negative
INSTRUMENTTYPE:  
INSTRUMENT:  Maxis II HD Q-TOF Bruker
COLLISIONENERGY:  
Comment:  DB#=CCMSLIB00000846844; origin=GNPS
Num Peaks:  5
135.04213	110.0
178.07277	80.0
179.03514	1000.0
179.09413	10.0
463.1311	170.0

NAME:  NCGC00169778-02!5-hydroxy-2-(4-methoxyphenyl)-7-[(2S,3R,4S,5S,6R)-3,4,5-trihydroxy-6-[[(2R,3R,4R,5R,6S)-3,4,5-trihydroxy-6-methyloxan-2-yl]oxymethyl]oxan-2-yl]oxy-2,3-dihydrochromen-4-one
PRECURSORMZ:  593.18757932283
PRECURSORTYPE:  [M-H]-
FORMULA:  C28H34O14
Ontology: Kingdom: Organic compounds;Superclass: Phenylpropanoids and polyketides;Class: Flavonoids;Subclass: Flavonoid glycosides
INCHIKEY:  RMCRQBAILCLJGU-UHFFFAOYNA-N
SMILES:  COC1=CC=C(C=C1)C1CC(=O)C2=C(O)C=C(OC3OC(COC4OC(C)C(O)C(O)C4O)C(O)C(O)C3O)C=C2O1
RETENTIONTIME:  
CCS:  228.1225814
IONMODE:  Negative
INSTRUMENTTYPE:  
INSTRUMENT:  Maxis II HD Q-TOF Bruker
COLLISIONENERGY:  
Comment:  DB#=CCMSLIB00000846846; origin=GNPS
Num Peaks:  9
164.01399	90.0
169.00699	80.0
199.04068	70.0
269.05075	90.0
270.05347	110.0
285.07922	1000.0
309.06638	50.0
593.19122	370.0
597.32788	30.0

NAME:  NCGC00169778-02!5-hydroxy-2-(4-methoxyphenyl)-7-[(2S,3R,4S,5S,6R)-3,4,5-trihydroxy-6-[[(2R,3R,4R,5R,6S)-3,4,5-trihydroxy-6-methyloxan-2-yl]oxymethyl]oxan-2-yl]oxy-2,3-dihydrochromen-4-one
PRECURSORMZ:  639.19305832283
PRECURSORTYPE:  [M+FA-H]-
FORMULA:  C28H34O14
Ontology: Kingdom: Organic compounds;Superclass: Phenylpropanoids and polyketides;Class: Flavonoids;Subclass: Flavonoid glycosides
INCHIKEY:  RMCRQBAILCLJGU-UHFFFAOYNA-N
SMILES:  COC1=CC=C(C=C1)C1CC(=O)C2=C(O)C=C(OC3OC(COC4OC(C)C(O)C(O)C4O)C(O)C(O)C3O)C=C2O1
RETENTIONTIME:  
CCS:  -1
IONMODE:  Negative
INSTRUMENTTYPE:  
INSTRUMENT:  Maxis II HD Q-TOF Bruker
COLLISIONENERGY:  
Comment:  DB#=CCMSLIB00000846848; origin=GNPS
Num Peaks:  11
136.01953	10.0
151.0056	20.0
164.01004	20.0
196.00272	10.0
241.08266	20.0
243.06715	30.0
270.05173	20.0
285.0769	1000.0
309.08295	30.0
327.091	20.0
593.18921	230.0

NAME:  NCGC00168946-02!5-hydroxy-2-(4-methoxyphenyl)-3-[(2S,3R,4S,5S,6R)-3,4,5-trihydroxy-6-(hydroxymethyl)oxan-2-yl]oxy-7-[(2S,3R,4R,5R,6S)-3,4,5-trihydroxy-6-methyloxan-2-yl]oxychromen-4-one
PRECURSORMZ:  607.16684387783
PRECURSORTYPE:  [M-H]-
FORMULA:  C28H32O15
Ontology: Kingdom: Organic compounds;Superclass: Phenylpropanoids and polyketides;Class: Flavonoids;Subclass: Flavonoid glycosides
INCHIKEY:  OFKKUHQXUNAUKP-UHFFFAOYNA-N
SMILES:  COC1=CC=C(C=C1)C1=C(OC2OC(CO)C(O)C(O)C2O)C(=O)C2=C(O)C=C(OC3OC(C)C(O)C(O)C3O)C=C2O1
RETENTIONTIME:  
CCS:  -1
IONMODE:  Negative
INSTRUMENTTYPE:  
INSTRUMENT:  Maxis II HD Q-TOF Bruker
COLLISIONENERGY:  
Comment:  DB#=CCMSLIB00000846850; origin=GNPS
Num Peaks:  4
172.18266	10.0
173.06174	1000.0
241.08817	470.0
303.08643	50.0

NAME:  NCGC00385524-01!5,7-dihydroxy-2-[4-[(2S,3R,4S,5S,6R)-3,4,5-trihydroxy-6-(hydroxymethyl)oxan-2-yl]oxyphenyl]-3-[(2S,3R,4S,5S,6R)-3,4,5-trihydroxy-6-[[(2R,3R,4R,5R,6S)-3,4,5-trihydroxy-6-methyloxan-2-yl]oxymethyl]oxan-2-yl]oxychromen-4-one
PRECURSORMZ:  755.20401723583
PRECURSORTYPE:  [M-H]-
FORMULA:  C33H40O20
Ontology: Kingdom: Organic compounds;Superclass: Phenylpropanoids and polyketides;Class: Flavonoids;Subclass: Flavonoid glycosides
INCHIKEY:  FYJOVKRHRUYSLY-UHFFFAOYNA-N
SMILES:  CC1OC(OCC2OC(OC3=C(OC4=CC(O)=CC(O)=C4C3=O)C3=CC=C(OC4OC(CO)C(O)C(O)C4O)C=C3)C(O)C(O)C2O)C(O)C(O)C1O
RETENTIONTIME:  
CCS:  307.4490459
IONMODE:  Negative
INSTRUMENTTYPE:  
INSTRUMENT:  Maxis II HD Q-TOF Bruker
COLLISIONENERGY:  
Comment:  DB#=CCMSLIB00000846852; origin=GNPS
Num Peaks:  19
160.79782	20.0
181.01056	20.0
209.01649	30.0
283.0296	10.0
284.03445	150.0
284.79669	20.0
285.04346	470.0
285.39944	20.0
286.03839	50.0
327.07806	10.0
380.36362	10.0
447.09393	350.0
448.10413	60.0
590.99493	10.0
593.15131	1000.0
594.15131	80.0
754.086	20.0
755.2052	570.0
756.20612	110.0

NAME:  NCGC00385524-01!5,7-dihydroxy-2-[4-[(2S,3R,4S,5S,6R)-3,4,5-trihydroxy-6-(hydroxymethyl)oxan-2-yl]oxyphenyl]-3-[(2S,3R,4S,5S,6R)-3,4,5-trihydroxy-6-[[(2R,3R,4R,5R,6S)-3,4,5-trihydroxy-6-methyloxan-2-yl]oxymethyl]oxan-2-yl]oxychromen-4-one
PRECURSORMZ:  801.20949623583
PRECURSORTYPE:  [M+FA-H]-
FORMULA:  C33H40O20
Ontology: Kingdom: Organic compounds;Superclass: Phenylpropanoids and polyketides;Class: Flavonoids;Subclass: Flavonoid glycosides
INCHIKEY:  FYJOVKRHRUYSLY-UHFFFAOYNA-N
SMILES:  CC1OC(OCC2OC(OC3=C(OC4=CC(O)=CC(O)=C4C3=O)C3=CC=C(OC4OC(CO)C(O)C(O)C4O)C=C3)C(O)C(O)C2O)C(O)C(O)C1O
RETENTIONTIME:  
CCS:  -1
IONMODE:  Negative
INSTRUMENTTYPE:  
INSTRUMENT:  Maxis II HD Q-TOF Bruker
COLLISIONENERGY:  
Comment:  DB#=CCMSLIB00000846854; origin=GNPS
Num Peaks:  22
151.00256	50.0
159.04721	10.0
169.01337	20.0
213.05493	30.0
227.03236	40.0
241.049	20.0
255.03302	150.0
256.03937	10.0
257.03036	10.0
283.02438	250.0
284.03345	370.0
284.69162	10.0
285.04187	720.0
286.04416	20.0
291.39572	10.0
327.0546	30.0
446.09097	30.0
447.095	160.0
591.81201	10.0
593.15356	1000.0
594.1615	70.0
755.20526	160.0

NAME:  NCGC00347686-02!N-[3-[5,8-bis[3-[acetyl(hydroxy)amino]propyl]-14-(hydroxymethyl)-3,6,9,12,15,18-hexaoxo-1,4,7,10,13,16-hexazacyclooctadec-2-yl]propyl]-N-hydroxyacetamide
PRECURSORMZ:  716.32205615683
PRECURSORTYPE:  [M-H]-
FORMULA:  C28H47N9O13
Ontology: Kingdom: Organic compounds;Superclass: Organic acids and derivatives;Class: Carboxylic acids and derivatives;Subclass: Amino acids
INCHIKEY:  JXJRJDNSPWNZOK-UHFFFAOYNA-N
SMILES:  CC(=O)N(O)CCCC1N=C(O)CN=C(O)C(CO)N=C(O)CN=C(O)C(CCCN(O)C(C)=O)N=C(O)C(CCCN(O)C(C)=O)N=C1O
RETENTIONTIME:  
CCS:  -1
IONMODE:  Negative
INSTRUMENTTYPE:  
INSTRUMENT:  Maxis II HD Q-TOF Bruker
COLLISIONENERGY:  
Comment:  DB#=CCMSLIB00000846856; origin=GNPS
Num Peaks:  101
76.08609	30.0
84.00728	90.0
99.02229	100.0
113.03839	50.0
125.06528	30.0
128.09526	70.0
130.06056	230.0
133.04247	20.0
140.08305	110.0
142.02913	60.0
150.06027	90.0
154.05716	150.0
154.09627	80.0
156.03816	90.0
168.08522	60.0
169.06337	60.0
170.08675	60.0
175.07588	20.0
181.08772	90.0
182.09448	70.0
184.77344	70.0
184.91998	50.0
185.10431	250.0
197.13695	70.0
199.61909	20.0
206.09422	80.0
213.06721	90.0
221.10416	80.0
223.07944	200.0
225.09897	50.0
226.06104	110.0
238.12955	90.0
239.15523	140.0
240.09435	70.0
240.15025	140.0
242.13165	80.0
253.08934	50.0
254.12723	90.0
256.16806	100.0
273.13257	40.0
280.13724	70.0
284.1535	60.0
293.194	40.0
294.11237	60.0
296.13809	120.0
297.1705	80.0
298.14676	90.0
299.14297	120.0
311.14731	40.0
319.14658	70.0
325.11478	50.0
337.16785	50.0
339.11639	50.0
341.15851	30.0
345.15234	60.0
348.04315	70.0
354.18747	110.0
355.1832	100.0
372.10413	40.0
384.19116	40.0
392.20764	30.0
394.17477	80.0
399.19458	30.0
408.15161	40.0
409.23373	40.0
422.18207	40.0
427.24307	80.0
429.22369	50.0
437.15826	70.0
442.18484	70.0
452.2251	20.0
453.23477	40.0
462.23502	50.0
463.19989	40.0
469.21432	100.0
477.2262	80.0
493.24692	70.0
500.24075	60.0
506.24677	210.0
523.20734	70.0
540.28558	50.0
543.245	110.0
548.26886	50.0
566.25421	110.0
566.31329	70.0
584.29486	120.0
595.64532	40.0
595.88477	20.0
608.26593	60.0
626.29504	680.0
627.33942	70.0
638.2796	30.0
656.31012	80.0
674.26221	20.0
686.31915	660.0
697.3089	70.0
698.28217	30.0
698.31763	50.0
716.27081	60.0
716.32788	1000.0
717.30096	70.0

NAME:  NCGC00380521-01!5-[[(2R,3S,4S,5R,6S)-3,4-dihydroxy-6-[[5-hydroxy-2-(4-hydroxy-3-methoxyphenyl)-4-oxo-2,3-dihydrochromen-7-yl]oxy]-5-[(2S,3R,4R,5R,6S)-3,4,5-trihydroxy-6-methyloxan-2-yl]oxyoxan-2-yl]methoxy]-3-hydroxy-3-methyl-5-oxopentanoic acid
PRECURSORMZ:  753.22475267983
PRECURSORTYPE:  [M-H]-
FORMULA:  C34H42O19
Ontology: Kingdom: Organic compounds;Superclass: Phenylpropanoids and polyketides;Class: Flavonoids;Subclass: Flavonoid glycosides
INCHIKEY:  VUXVICJLLYFORC-UHFFFAOYNA-N
SMILES:  COC1=C(O)C=CC(=C1)C1CC(=O)C2=C(O)C=C(OC3OC(COC(=O)CC(C)(O)CC(O)=O)C(O)C(O)C3OC3OC(C)C(O)C(O)C3O)C=C2O1
RETENTIONTIME:  
CCS:  -1
IONMODE:  Negative
INSTRUMENTTYPE:  
INSTRUMENT:  Maxis II HD Q-TOF Bruker
COLLISIONENERGY:  
Comment:  DB#=CCMSLIB00000846858; origin=GNPS
Num Peaks:  42
125.02544	70.0
135.0437	10.0
149.0627	20.0
151.00519	50.0
164.0163	60.0
165.01601	20.0
174.02953	30.0
195.99857	50.0
199.03488	10.0
201.01862	10.0
202.05367	10.0
214.06003	10.0
215.03745	10.0
216.04454	10.0
217.04636	20.0
224.05408	20.0
228.076	10.0
241.04593	20.0
242.06546	30.0
243.03326	10.0
257.0798	40.0
268.03561	20.0
283.05905	30.0
285.03595	20.0
286.04877	70.0
301.07068	1000.0
302.07254	20.0
325.07098	30.0
343.08041	40.0
343.48718	10.0
447.14755	10.0
489.13037	20.0
591.16913	40.0
609.1828	660.0
610.18097	50.0
651.19434	490.0
652.19196	50.0
691.22717	150.0
692.23212	20.0
753.2262	260.0
754.23248	40.0
827.28961	10.0

NAME:  NCGC00179907-02!3-(2,5-dihydroxy-6-methyl-3-propan-2-ylphenyl)-2-methyl-5-propan-2-ylbenzene-1,4-diol
PRECURSORMZ:  375.18131186483
PRECURSORTYPE:  [M+FA-H]-
FORMULA:  C20H26O4
Ontology: ;;;
INCHIKEY:  QYNCIWOOLDANTG-UHFFFAOYSA-N
SMILES:  CC(C)C1=CC(O)=C(C)C(=C1O)C1=C(O)C(=CC(O)=C1C)C(C)C
RETENTIONTIME:  
CCS:  -1
IONMODE:  Negative
INSTRUMENTTYPE:  
INSTRUMENT:  Maxis II HD Q-TOF Bruker
COLLISIONENERGY:  
Comment:  DB#=CCMSLIB00000846860; origin=GNPS
Num Peaks:  8
184.29607	20.0
203.10651	30.0
220.78259	50.0
271.10565	40.0
286.11392	20.0
286.3338	10.0
299.13132	50.0
329.17459	1000.0

NAME:  NCGC00180529-03!(3S,6R,9S,12R,15S,18R)-4,10,16-trimethyl-3,6,9,12,15,18-hexa(propan-2-yl)-1,7,13-trioxa-4,10,16-triazacyclooctadecane-2,5,8,11,14,17-hexone
PRECURSORMZ:  684.40768297483
PRECURSORTYPE:  [M+FA-H]-
FORMULA:  C33H57N3O9
Ontology: Kingdom: Organic compounds;Superclass: Organic acids and derivatives;Class: Peptidomimetics;Subclass: Depsipeptides
INCHIKEY:  MIZMDSVSLSIMSC-UHFFFAOYNA-N
SMILES:  CC(C)C1OC(=O)C(C(C)C)N(C)C(=O)C(OC(=O)C(C(C)C)N(C)C(=O)C(OC(=O)C(C(C)C)N(C)C1=O)C(C)C)C(C)C
RETENTIONTIME:  
CCS:  -1
IONMODE:  Negative
INSTRUMENTTYPE:  
INSTRUMENT:  Maxis II HD Q-TOF Bruker
COLLISIONENERGY:  
Comment:  DB#=CCMSLIB00000846862; origin=GNPS
Num Peaks:  13
168.14149	80.0
170.08806	110.0
186.14055	110.0
212.12564	170.0
229.19502	50.0
230.13974	1000.0
231.37563	60.0
244.15604	300.0
334.99503	130.0
443.27802	100.0
457.31149	50.0
555.34259	60.0
826.88892	170.0

NAME:  NCGC00380699-01!
PRECURSORMZ:  729.40667991983
PRECURSORTYPE:  [M+FA-H]-
FORMULA:  C36H60O12
Ontology: Kingdom: Organic compounds;Superclass: Lipids and lipid;Class: Prenol lipids;Subclass: Terpene glycosides
INCHIKEY:  RCCBGOMNZWYBTJ-UHFFFAOYNA-N
SMILES:  CC(CC(O)C(O)C(C)(C)O)C1CCC2(C)C3CCC4C5(CC35CCC12C)C(O)CC(O)C4(C)C(=O)OC1OC(CO)C(O)C(O)C1O
RETENTIONTIME:  
CCS:  -1
IONMODE:  Negative
INSTRUMENTTYPE:  
INSTRUMENT:  Maxis II HD Q-TOF Bruker
COLLISIONENERGY:  
Comment:  DB#=CCMSLIB00000846864; origin=GNPS
Num Peaks:  12
113.02667	10.0
119.03201	10.0
161.04448	40.0
179.05254	20.0
327.23358	10.0
477.31961	20.0
503.33511	80.0
521.35126	1000.0
522.35767	60.0
563.36292	40.0
729.40613	90.0
730.39929	10.0

NAME:  NCGC00380723-01!(2S,3R,4S,5S,6R)-2-[4-[(3S,3aR,6S,6aR)-6-[3,5-dimethoxy-4-[(2S,3R,4S,5S,6R)-3,4,5-trihydroxy-6-(hydroxymethyl)oxan-2-yl]oxyphenyl]-1,3,3a,4,6,6a-hexahydrofuro[3,4-c]furan-3-yl]-2,6-dimethoxyphenoxy]-6-(hydroxymethyl)oxane-3,4,5-triol
PRECURSORMZ:  787.26661718883
PRECURSORTYPE:  [M+FA-H]-
FORMULA:  C34H46O18
Ontology: Kingdom: Organic compounds;Superclass: Lignans;Class: Lignan glycosides;
INCHIKEY:  FFDULTAFAQRACT-UHFFFAOYNA-N
SMILES:  COC1=CC(=CC(OC)=C1OC1OC(CO)C(O)C(O)C1O)C1OCC2C1COC2C1=CC(OC)=C(OC2OC(CO)C(O)C(O)C2O)C(OC)=C1
RETENTIONTIME:  
CCS:  -1
IONMODE:  Negative
INSTRUMENTTYPE:  
INSTRUMENT:  Maxis II HD Q-TOF Bruker
COLLISIONENERGY:  
Comment:  DB#=CCMSLIB00000846866; origin=GNPS
Num Peaks:  15
151.04144	10.0
152.01079	10.0
166.02733	60.0
167.07242	10.0
181.05156	370.0
205.09033	10.0
221.07755	10.0
331.25458	10.0
359.1546	20.0
387.11322	100.0
402.13315	80.0
416.50504	10.0
417.15775	1000.0
418.15823	50.0
579.20813	60.0

NAME:  NCGC00169170-02!(2R,3R,4R,5R,6S)-2-[[(2R,3S,4S,5R,6S)-6-[(2R,3R,4R,5S,6S)-2-[(2E,6E,10E)-14-[(2S,3R,4S,5S,6R)-4,5-dihydroxy-6-(hydroxymethyl)-3-[(2S,3R,4S,5S,6R)-3,4,5-trihydroxy-6-(hydroxymethyl)oxan-2-yl]oxyoxan-2-yl]oxy-2,6,10,14-tetramethylhexadeca-2,6,10,15-tetraenoxy]-3,5-dihydroxy-6-methyloxan-4-yl]oxy-3,4,5-trihydroxyoxan-2-yl]methoxy]-6-methyloxane-3,4,5-triol
PRECURSORMZ:  1083.52289175283
PRECURSORTYPE:  [M-H]-
FORMULA:  C50H84O25
Ontology: Kingdom: Organic compounds;Superclass: Lipids and lipid;Class: Prenol lipids;Subclass: Terpene glycosides
INCHIKEY:  NFBYZSYLZUMCFV-UHFFFAOYNA-N
SMILES:  CC1OC(OCC2OC(OC3C(O)C(C)OC(OCC(C)=CCCC(C)=CCCC(C)=CCCC(C)(OC4OC(CO)C(O)C(O)C4OC4OC(CO)C(O)C(O)C4O)C=C)C3O)C(O)C(O)C2O)C(O)C(O)C1O
RETENTIONTIME:  
CCS:  334.2953194
IONMODE:  Negative
INSTRUMENTTYPE:  
INSTRUMENT:  Maxis II HD Q-TOF Bruker
COLLISIONENERGY:  
Comment:  DB#=CCMSLIB00000846868; origin=GNPS
Num Peaks:  32
85.03024	100.0
95.01398	60.0
99.01088	90.0
101.02597	130.0
113.0322	60.0
131.03116	80.0
159.03458	110.0
161.04358	130.0
163.06483	180.0
205.07176	70.0
261.06036	70.0
393.11102	70.0
460.08798	90.0
467.28656	50.0
508.44028	30.0
611.36096	40.0
629.35474	60.0
629.40002	60.0
757.42731	100.0
774.41266	40.0
775.39734	110.0
919.43353	30.0
919.48279	100.0
920.44946	100.0
921.4726	110.0
922.40759	60.0
937.45837	120.0
938.43976	50.0
940.74628	30.0
1083.52795	1000.0
1084.52124	230.0
1085.53235	30.0

NAME:  NCGC00169170-02!(2R,3R,4R,5R,6S)-2-[[(2R,3S,4S,5R,6S)-6-[(2R,3R,4R,5S,6S)-2-[(2E,6E,10E)-14-[(2S,3R,4S,5S,6R)-4,5-dihydroxy-6-(hydroxymethyl)-3-[(2S,3R,4S,5S,6R)-3,4,5-trihydroxy-6-(hydroxymethyl)oxan-2-yl]oxyoxan-2-yl]oxy-2,6,10,14-tetramethylhexadeca-2,6,10,15-tetraenoxy]-3,5-dihydroxy-6-methyloxan-4-yl]oxy-3,4,5-trihydroxyoxan-2-yl]methoxy]-6-methyloxane-3,4,5-triol
PRECURSORMZ:  1129.52837075283
PRECURSORTYPE:  [M+FA-H]-
FORMULA:  C50H84O25
Ontology: Kingdom: Organic compounds;Superclass: Lipids and lipid;Class: Prenol lipids;Subclass: Terpene glycosides
INCHIKEY:  NFBYZSYLZUMCFV-UHFFFAOYNA-N
SMILES:  CC1OC(OCC2OC(OC3C(O)C(C)OC(OCC(C)=CCCC(C)=CCCC(C)=CCCC(C)(OC4OC(CO)C(O)C(O)C4OC4OC(CO)C(O)C(O)C4O)C=C)C3O)C(O)C(O)C2O)C(O)C(O)C1O
RETENTIONTIME:  
CCS:  -1
IONMODE:  Negative
INSTRUMENTTYPE:  
INSTRUMENT:  Maxis II HD Q-TOF Bruker
COLLISIONENERGY:  
Comment:  DB#=CCMSLIB00000846870; origin=GNPS
Num Peaks:  47
71.01608	30.0
73.02895	10.0
85.03004	50.0
89.02486	40.0
97.03194	30.0
99.00911	20.0
101.02647	100.0
111.00732	30.0
113.0256	140.0
115.04099	30.0
119.03625	60.0
124.01701	30.0
125.02547	70.0
129.0202	10.0
131.03703	30.0
141.02171	30.0
143.03548	80.0
145.05231	10.0
159.02925	20.0
161.04623	90.0
163.06129	40.0
164.06557	10.0
179.05859	30.0
205.07036	70.0
221.067	30.0
247.07957	10.0
261.06299	20.0
265.0972	20.0
467.30386	50.0
613.36218	20.0
614.38556	10.0
629.35809	70.0
757.40643	20.0
759.43054	10.0
775.41913	100.0
776.42023	30.0
791.4071	10.0
919.44006	10.0
920.47119	10.0
921.46997	80.0
921.54333	10.0
922.47748	30.0
937.47131	120.0
938.4519	20.0
1083.52881	1000.0
1084.53333	320.0
1085.52844	40.0

NAME:  NCGC00180782-02!5,7-dihydroxy-2-(4-hydroxyphenyl)-6-[3,4,5-trihydroxy-6-(hydroxymethyl)oxan-2-yl]chromen-4-one
PRECURSORMZ:  431.09837039183
PRECURSORTYPE:  [M-H]-
FORMULA:  C21H20O10
Ontology: ;;;
INCHIKEY:  MYXNWGACZJSMBT-UHFFFAOYNA-N
SMILES:  OCC1OC(C(O)C(O)C1O)C1=C(O)C2=C(OC(=CC2=O)C2=CC=C(O)C=C2)C=C1O
RETENTIONTIME:  
CCS:  201.5149845
IONMODE:  Negative
INSTRUMENTTYPE:  
INSTRUMENT:  Maxis II HD Q-TOF Bruker
COLLISIONENERGY:  
Comment:  DB#=CCMSLIB00000846872; origin=GNPS
Num Peaks:  10
153.06175	130.0
211.08432	90.0
225.03941	70.0
237.05	20.0
283.07782	30.0
295.06747	20.0
311.05917	1000.0
341.07327	570.0
431.0993	920.0
434.40067	40.0

NAME:  NCGC00347405-02!(4S,5Z,6S)-5-[2-[(E)-3-(4-hydroxyphenyl)prop-2-enoyl]oxyethylidene]-4-(2-methoxy-2-oxoethyl)-6-[(2S,3R,4S,5S,6R)-3,4,5-trihydroxy-6-(hydroxymethyl)oxan-2-yl]oxy-4H-pyran-3-carboxylic acid
PRECURSORMZ:  565.15627919383
PRECURSORTYPE:  [M-H]-
FORMULA:  C26H30O14
Ontology: ;;;
INCHIKEY:  MGEVYVDQMTWJNV-UHFFFAOYNA-N
SMILES:  COC(=O)CC1C(=CCOC(=O)C=CC2=CC=C(O)C=C2)C(OC2OC(CO)C(O)C(O)C2O)OC=C1C(O)=O
RETENTIONTIME:  
CCS:  225.9936584
IONMODE:  Negative
INSTRUMENTTYPE:  
INSTRUMENT:  Maxis II HD Q-TOF Bruker
COLLISIONENERGY:  
Comment:  DB#=CCMSLIB00000846874; origin=GNPS
Num Peaks:  23
80.67941	30.0
117.03408	170.0
119.05688	50.0
122.41153	120.0
127.04152	100.0
145.02608	220.0
149.06055	140.0
151.07143	60.0
163.04071	330.0
171.02939	120.0
177.05746	780.0
187.03551	130.0
189.05753	70.0
195.07011	270.0
221.04826	1000.0
237.08142	60.0
257.0878	30.0
267.07635	90.0
297.11176	80.0
401.07352	40.0
565.1676	160.0
791.92285	20.0
1782.27832	20.0

NAME:  NCGC00347405-02!(4S,5Z,6S)-5-[2-[(E)-3-(4-hydroxyphenyl)prop-2-enoyl]oxyethylidene]-4-(2-methoxy-2-oxoethyl)-6-[(2S,3R,4S,5S,6R)-3,4,5-trihydroxy-6-(hydroxymethyl)oxan-2-yl]oxy-4H-pyran-3-carboxylic acid
PRECURSORMZ:  611.16175819383
PRECURSORTYPE:  [M+FA-H]-
FORMULA:  C26H30O14
Ontology: ;;;
INCHIKEY:  MGEVYVDQMTWJNV-UHFFFAOYNA-N
SMILES:  COC(=O)CC1C(=CCOC(=O)C=CC2=CC=C(O)C=C2)C(OC2OC(CO)C(O)C(O)C2O)OC=C1C(O)=O
RETENTIONTIME:  
CCS:  -1
IONMODE:  Negative
INSTRUMENTTYPE:  
INSTRUMENT:  Maxis II HD Q-TOF Bruker
COLLISIONENERGY:  
Comment:  DB#=CCMSLIB00000846876; origin=GNPS
Num Peaks:  17
119.04932	70.0
125.06433	70.0
145.02859	210.0
151.07402	100.0
159.04601	60.0
161.06502	110.0
162.01596	80.0
163.04488	310.0
165.02151	170.0
177.05765	1000.0
179.05075	60.0
195.06415	180.0
221.04738	740.0
237.07272	60.0
239.05928	50.0
267.06195	60.0
565.16779	190.0

NAME:  NCGC00347557-02!4,4,10,13,14-pentamethyl-17-(1,5,6-trihydroxy-6-methylheptan-2-yl)-2,3,5,6,7,11,12,15,16,17-decahydro-1H-cyclopenta[a]phenanthrene-2,3,12-triol
PRECURSORMZ:  553.37459194183
PRECURSORTYPE:  [M+FA-H]-
FORMULA:  C30H52O6
Ontology: ;;;
INCHIKEY:  YRXIDKUVBPMNRA-UHFFFAOYNA-N
SMILES:  CC(C)(O)C(O)CCC(CO)C1CCC2(C)C3=C(CC(O)C12C)C1(C)CC(O)C(O)C(C)(C)C1CC3
RETENTIONTIME:  
CCS:  -1
IONMODE:  Negative
INSTRUMENTTYPE:  
INSTRUMENT:  Maxis II HD Q-TOF Bruker
COLLISIONENERGY:  
Comment:  DB#=CCMSLIB00000846879; origin=GNPS
Num Peaks:  12
184.10753	130.0
248.28355	90.0
287.20337	70.0
431.32123	60.0
485.76926	50.0
488.28281	80.0
489.35712	290.0
507.09686	40.0
507.2261	60.0
507.36588	1000.0
516.27209	40.0
553.36987	220.0

NAME:  NCGC00384722-01!5-hydroxy-2-(3-hydroxy-4-methoxyphenyl)-7-[(2S,3R,4S,5S,6R)-3,4,5-trihydroxy-6-[[(2R,3R,4R,5R,6S)-3,4,5-trihydroxy-6-methyloxan-2-yl]oxymethyl]oxan-2-yl]oxy-2,3-dihydrochromen-4-one
PRECURSORMZ:  609.18249394283
PRECURSORTYPE:  [M-H]-
FORMULA:  C28H34O15
Ontology: ;;;
INCHIKEY:  QUQPHWDTPGMPEX-UHFFFAOYNA-N
SMILES:  COC1=C(O)C=C(C=C1)C1CC(=O)C2=C(O)C=C(OC3OC(COC4OC(C)C(O)C(O)C4O)C(O)C(O)C3O)C=C2O1
RETENTIONTIME:  
CCS:  228.0515203
IONMODE:  Negative
INSTRUMENTTYPE:  
INSTRUMENT:  Maxis II HD Q-TOF Bruker
COLLISIONENERGY:  
Comment:  DB#=CCMSLIB00000846881; origin=GNPS
Num Peaks:  17
87.00655	40.0
134.03789	20.0
147.54948	30.0
151.00153	30.0
164.00957	60.0
177.00873	30.0
196.00243	30.0
257.08151	10.0
258.05832	20.0
299.03259	10.0
300.08911	10.0
300.77701	10.0
300.95865	10.0
301.07007	1000.0
304.30753	20.0
343.08121	10.0
609.18512	110.0

NAME:  NCGC00384722-01!5-hydroxy-2-(3-hydroxy-4-methoxyphenyl)-7-[(2S,3R,4S,5S,6R)-3,4,5-trihydroxy-6-[[(2R,3R,4R,5R,6S)-3,4,5-trihydroxy-6-methyloxan-2-yl]oxymethyl]oxan-2-yl]oxy-2,3-dihydrochromen-4-one
PRECURSORMZ:  655.18797294283
PRECURSORTYPE:  [M+FA-H]-
FORMULA:  C28H34O15
Ontology: ;;;
INCHIKEY:  QUQPHWDTPGMPEX-UHFFFAOYNA-N
SMILES:  COC1=C(O)C=C(C=C1)C1CC(=O)C2=C(O)C=C(OC3OC(COC4OC(C)C(O)C(O)C4O)C(O)C(O)C3O)C=C2O1
RETENTIONTIME:  
CCS:  -1
IONMODE:  Negative
INSTRUMENTTYPE:  
INSTRUMENT:  Maxis II HD Q-TOF Bruker
COLLISIONENERGY:  
Comment:  DB#=CCMSLIB00000846883; origin=GNPS
Num Peaks:  16
107.01456	10.0
125.02519	20.0
147.84756	10.0
151.0007	20.0
164.00975	10.0
233.10213	10.0
240.05959	10.0
242.0499	50.0
259.05771	20.0
286.04755	40.0
301.0704	1000.0
310.05563	10.0
607.88721	10.0
609.17938	210.0
610.18921	20.0
893.91571	10.0

NAME:  NCGC00384723-01!3-[15,21-bis(2-amino-2-oxoethyl)-3-(1-hydroxyethyl)-6,12-bis(hydroxymethyl)-18-[(4-hydroxyphenyl)methyl]-25-(10-methylundecyl)-2,5,8,11,14,17,20,23-octaoxo-1,4,7,10,13,16,19,22-octazacyclopentacos-9-yl]propanoic acid
PRECURSORMZ:  1033.52114989083
PRECURSORTYPE:  [M-H]-
FORMULA:  C47H74N10O16
Ontology: ;;;
INCHIKEY:  GVLISDGZEVBRHD-UHFFFAOYNA-N
SMILES:  CC(C)CCCCCCCCCC1CC(O)=NC(CC(O)=N)C(O)=NC(CC2=CC=C(O)C=C2)C(O)=NC(CC(O)=N)C(O)=NC(CO)C(O)=NC(CCC(O)=O)C(O)=NC(CO)C(O)=NC(C(C)O)C(O)=N1
RETENTIONTIME:  
CCS:  -1
IONMODE:  Negative
INSTRUMENTTYPE:  
INSTRUMENT:  Maxis II HD Q-TOF Bruker
COLLISIONENERGY:  
Comment:  DB#=CCMSLIB00000846889; origin=GNPS
Num Peaks:  108
96.01058	40.0
98.02403	10.0
99.0204	60.0
109.03795	40.0
110.02492	40.0
111.01845	30.0
113.03346	30.0
124.04006	40.0
125.03693	40.0
127.04942	70.0
128.03625	60.0
130.06233	80.0
140.04497	20.0
141.06413	10.0
142.05713	20.0
152.04468	90.0
153.02985	130.0
155.04193	10.0
162.05255	40.0
163.05031	30.0
166.06134	70.0
167.04636	100.0
168.03694	20.0
169.07222	20.0
170.05443	140.0
171.03702	20.0
178.05843	20.0
179.0807	20.0
180.06226	20.0
181.06837	20.0
183.03932	10.0
184.0712	100.0
185.05734	10.0
187.08492	30.0
192.04463	10.0
196.07047	40.0
202.33351	20.0
210.04338	10.0
210.08568	10.0
214.07974	20.0
215.08362	20.0
215.11234	10.0
216.06487	20.0
223.0831	130.0
224.06224	20.0
224.08682	10.0
227.07826	20.0
237.09978	20.0
241.09286	420.0
249.10307	10.0
253.10048	10.0
258.08505	40.0
259.07419	20.0
267.08014	10.0
267.10733	10.0
271.09827	10.0
276.09692	190.0
280.09988	10.0
281.08246	10.0
284.10352	20.0
293.11734	30.0
296.09436	10.0
298.1156	110.0
350.14322	10.0
373.13403	10.0
381.28406	10.0
386.14664	20.0
395.13541	10.0
395.27179	10.0
408.27521	40.0
409.27594	20.0
421.27905	20.0
423.28577	20.0
430.13983	10.0
466.29865	30.0
480.31815	90.0
481.32712	10.0
492.31799	10.0
506.29529	10.0
515.32288	60.0
516.3125	10.0
535.28448	10.0
537.34863	20.0
743.41199	20.0
757.43781	10.0
758.41815	10.0
911.46356	10.0
929.47235	20.0
930.47931	10.0
941.48175	20.0
942.47021	20.0
953.47327	10.0
959.48883	50.0
960.47601	10.0
960.52106	10.0
973.50769	10.0
985.49683	50.0
986.521	20.0
989.49731	90.0
990.50354	30.0
1003.51025	140.0
1004.5141	50.0
1015.49902	30.0
1016.50818	30.0
1033.52075	1000.0
1034.52124	320.0
1035.51843	40.0
1735.48682	20.0

NAME:  NCGC00169656-02!2-(2,4-dihydroxyphenyl)-5,7-dihydroxy-3,8-bis(3-methylbut-2-enyl)chromen-4-one
PRECURSORMZ:  421.16566210483
PRECURSORTYPE:  [M-H]-
FORMULA:  C25H26O6
Ontology: ;;;
INCHIKEY:  UWQYBLOHTQWSQD-UHFFFAOYSA-N
SMILES:  CC(C)=CCC1=C2OC(=C(CC=C(C)C)C(=O)C2=C(O)C=C1O)C1=C(O)C=C(O)C=C1
RETENTIONTIME:  
CCS:  222.6846507
IONMODE:  Negative
INSTRUMENTTYPE:  
INSTRUMENT:  Maxis II HD Q-TOF Bruker
COLLISIONENERGY:  
Comment:  DB#=CCMSLIB00000846891; origin=GNPS
Num Peaks:  25
109.03422	60.0
149.09946	80.0
150.02881	70.0
178.06357	40.0
193.08754	130.0
219.06712	130.0
227.07292	50.0
230.05942	40.0
231.61794	90.0
241.08986	60.0
269.04269	20.0
269.08365	60.0
283.02631	40.0
297.04034	120.0
298.13727	50.0
299.13089	450.0
311.14362	100.0
352.10104	50.0
384.09412	50.0
420.84082	80.0
421.16931	1000.0
421.41162	20.0
422.1687	50.0
678.58594	20.0
1126.64905	10.0

NAME:  NCGC00179772-02!7-[(2S,3R,4R,5R,6S)-3,4,5-trihydroxy-6-methyloxan-2-yl]oxy-3-[4-[(2S,3R,4R,5R,6S)-3,4,5-trihydroxy-6-methyloxan-2-yl]oxyphenyl]chromen-4-one
PRECURSORMZ:  591.17192895383
PRECURSORTYPE:  [M+FA-H]-
FORMULA:  C27H30O12
Ontology: ;;;
INCHIKEY:  RIXHOIPNPVCEHZ-UHFFFAOYNA-N
SMILES:  CC1OC(OC2=CC=C(C=C2)C2=COC3=C(C=CC(OC4OC(C)C(O)C(O)C4O)=C3)C2=O)C(O)C(O)C1O
RETENTIONTIME:  
CCS:  -1
IONMODE:  Negative
INSTRUMENTTYPE:  
INSTRUMENT:  Maxis II HD Q-TOF Bruker
COLLISIONENERGY:  
Comment:  DB#=CCMSLIB00000846893; origin=GNPS
Num Peaks:  6
252.04343	130.0
253.052	80.0
295.06204	20.0
398.95145	20.0
399.108	1000.0
400.11945	50.0

NAME:  NCGC00385380-01!3-[3,4-dihydroxy-6-(hydroxymethyl)-5-[3,4,5-trihydroxy-6-(hydroxymethyl)oxan-2-yl]oxyoxan-2-yl]oxy-2-(3,4-dihydroxyphenyl)-5,7-dihydroxychromen-4-one
PRECURSORMZ:  625.14102305383
PRECURSORTYPE:  [M-H]-
FORMULA:  C27H30O17
Ontology: ;;;
INCHIKEY:  UTECWQIXBMWRRR-UHFFFAOYNA-N
SMILES:  OCC1OC(OC2C(O)C(O)C(OC3=C(OC4=CC(O)=CC(O)=C4C3=O)C3=CC(O)=C(O)C=C3)OC2CO)C(O)C(O)C1O
RETENTIONTIME:  
CCS:  241.2058397
IONMODE:  Negative
INSTRUMENTTYPE:  
INSTRUMENT:  Maxis II HD Q-TOF Bruker
COLLISIONENERGY:  
Comment:  DB#=CCMSLIB00000846895; origin=GNPS
Num Peaks:  14
148.99004	10.0
175.0428	10.0
177.54338	30.0
178.99832	30.0
243.02802	10.0
255.03152	40.0
268.03925	10.0
271.02756	150.0
273.04675	10.0
299.02579	30.0
300.02744	1000.0
301.03635	180.0
332.64798	20.0
625.1424	750.0

NAME:  NCGC00381212-01![6-[2-(3,4-dihydroxyphenyl)-5,7-dihydroxy-4-oxochromen-3-yl]oxy-4,5-dihydroxy-2-[(3,4,5-trihydroxy-6-methyloxan-2-yl)oxymethyl]oxan-3-yl] (E)-3-(4-hydroxyphenyl)prop-2-enoate
PRECURSORMZ:  755.18288786683
PRECURSORTYPE:  [M-H]-
FORMULA:  C36H36O18
Ontology: Kingdom: Organic compounds;Superclass: Phenylpropanoids and polyketides;Class: Flavonoids;Subclass: Flavonoid glycosides
INCHIKEY:  HLWFQXZBFQLASS-UHFFFAOYNA-N
SMILES:  CC1OC(OCC2OC(OC3=C(OC4=CC(O)=CC(O)=C4C3=O)C3=CC(O)=C(O)C=C3)C(O)C(O)C2OC(=O)C=CC2=CC=C(O)C=C2)C(O)C(O)C1O
RETENTIONTIME:  
CCS:  264.9987698
IONMODE:  Negative
INSTRUMENTTYPE:  
INSTRUMENT:  Maxis II HD Q-TOF Bruker
COLLISIONENERGY:  
Comment:  DB#=CCMSLIB00000846899; origin=GNPS
Num Peaks:  18
99.56883	10.0
151.00156	60.0
178.99828	70.0
209.00873	10.0
216.04602	20.0
227.04027	20.0
243.03236	50.0
254.01582	20.0
255.03192	90.0
271.02454	200.0
272.02487	30.0
299.02325	50.0
300.02844	1000.0
301.03452	130.0
609.14679	540.0
610.14886	20.0
755.18201	520.0
756.19226	90.0

NAME:  NCGC00381213-01![(2R,3S,4S,5R,6R)-3,4-dihydroxy-6-[(2S,3S,4S,5R)-3-hydroxy-2,5-bis(hydroxymethyl)-4-[(E)-3-(4-hydroxyphenyl)prop-2-enoyl]oxyoxolan-2-yl]oxy-5-[(E)-3-(4-hydroxyphenyl)prop-2-enoyl]oxyoxan-2-yl]methyl (E)-3-(4-hydroxyphenyl)prop-2-enoate
PRECURSORMZ:  779.21927337583
PRECURSORTYPE:  [M-H]-
FORMULA:  C39H40O17
Ontology: Kingdom: Organic compounds;Superclass: Phenylpropanoids and polyketides;Class: Cinnamic acids and derivatives;Subclass: Hydroxycinnamic acids and derivatives
INCHIKEY:  SMVZSPTUXANNGQ-UHFFFAOYNA-N
SMILES:  OCC1OC(CO)(OC2OC(COC(=O)C=CC3=CC=C(O)C=C3)C(O)C(O)C2OC(=O)C=CC2=CC=C(O)C=C2)C(O)C1OC(=O)C=CC1=CC=C(O)C=C1
RETENTIONTIME:  
CCS:  -1
IONMODE:  Negative
INSTRUMENTTYPE:  
INSTRUMENT:  Maxis II HD Q-TOF Bruker
COLLISIONENERGY:  
Comment:  DB#=CCMSLIB00000846901; origin=GNPS
Num Peaks:  25
94.01224	10.0
117.03451	50.0
119.04929	60.0
134.98991	10.0
145.02875	1000.0
146.03258	20.0
161.06044	20.0
162.04033	10.0
163.03929	270.0
187.0403	30.0
203.07486	20.0
205.04625	20.0
217.04268	10.0
247.06339	10.0
265.07257	20.0
289.06833	10.0
307.0809	70.0
451.13	60.0
453.11102	10.0
469.13855	200.0
471.10452	10.0
615.17181	150.0
633.17847	140.0
779.22333	110.0
780.21301	30.0

NAME:  NCGC00381213-01![(2R,3S,4S,5R,6R)-3,4-dihydroxy-6-[(2S,3S,4S,5R)-3-hydroxy-2,5-bis(hydroxymethyl)-4-[(E)-3-(4-hydroxyphenyl)prop-2-enoyl]oxyoxolan-2-yl]oxy-5-[(E)-3-(4-hydroxyphenyl)prop-2-enoyl]oxyoxan-2-yl]methyl (E)-3-(4-hydroxyphenyl)prop-2-enoate
PRECURSORMZ:  825.22475237583
PRECURSORTYPE:  [M+FA-H]-
FORMULA:  C39H40O17
Ontology: Kingdom: Organic compounds;Superclass: Phenylpropanoids and polyketides;Class: Cinnamic acids and derivatives;Subclass: Hydroxycinnamic acids and derivatives
INCHIKEY:  SMVZSPTUXANNGQ-UHFFFAOYNA-N
SMILES:  OCC1OC(CO)(OC2OC(COC(=O)C=CC3=CC=C(O)C=C3)C(O)C(O)C2OC(=O)C=CC2=CC=C(O)C=C2)C(O)C1OC(=O)C=CC1=CC=C(O)C=C1
RETENTIONTIME:  
CCS:  -1
IONMODE:  Negative
INSTRUMENTTYPE:  
INSTRUMENT:  Maxis II HD Q-TOF Bruker
COLLISIONENERGY:  
Comment:  DB#=CCMSLIB00000846903; origin=GNPS
Num Peaks:  33
99.43739	10.0
99.48849	10.0
117.03522	160.0
119.04982	110.0
144.45644	10.0
145.02835	1000.0
161.06534	20.0
163.04042	220.0
165.05656	20.0
187.04254	30.0
205.05135	30.0
227.06984	20.0
234.89259	10.0
235.06451	10.0
265.07196	30.0
289.0777	20.0
307.08868	50.0
451.11905	20.0
451.15121	30.0
453.11932	10.0
469.13708	190.0
470.15369	20.0
471.13873	30.0
487.1694	10.0
615.16681	120.0
616.16266	10.0
633.18298	180.0
633.28723	10.0
634.20862	20.0
735.00385	10.0
779.22363	340.0
780.21448	30.0
780.27557	20.0

NAME:  NCGC00180698-03!(2S)-2-[(1S)-1-carboxyundecyl]-5-oxooxolane-2-carboxylic acid
PRECURSORMZ:  327.18131216983
PRECURSORTYPE:  [M-H]-
FORMULA:  C17H28O6
Ontology: Kingdom: Organic compounds;Superclass: Organic acids and derivatives;Class: Carboxylic acids and derivatives;Subclass: Tricarboxylic acids and derivatives
INCHIKEY:  TUXHHVJPGQUPCF-UHFFFAOYNA-N
SMILES:  CCCCCCCCCCC(C(O)=O)C1(CCC(=O)O1)C(O)=O
RETENTIONTIME:  
CCS:  199.6558083
IONMODE:  Negative
INSTRUMENTTYPE:  
INSTRUMENT:  Maxis II HD Q-TOF Bruker
COLLISIONENERGY:  
Comment:  DB#=CCMSLIB00000846904; origin=GNPS
Num Peaks:  7
107.68449	120.0
239.20131	1000.0
255.19644	90.0
265.18289	380.0
283.18933	940.0
327.1792	600.0
1254.63306	350.0

NAME:  NCGC00381222-01!1,3,5-trihydroxy-4-[(E)-3-(3-hydroxy-4-methoxyphenyl)prop-2-enoyl]oxycyclohexane-1-carboxylic acid
PRECURSORMZ:  367.10345577183
PRECURSORTYPE:  [M-H]-
FORMULA:  C17H20O9
Ontology: ;;;
INCHIKEY:  HPBJJSKSRVQRQK-UHFFFAOYNA-N
SMILES:  COC1=C(O)C=C(C=CC(=O)OC2C(O)CC(O)(CC2O)C(O)=O)C=C1
RETENTIONTIME:  
CCS:  -1
IONMODE:  Negative
INSTRUMENTTYPE:  
INSTRUMENT:  Maxis II HD Q-TOF Bruker
COLLISIONENERGY:  
Comment:  DB#=CCMSLIB00000846907; origin=GNPS
Num Peaks:  8
93.03498	60.0
127.03864	60.0
133.11685	50.0
134.03503	130.0
137.01794	90.0
149.06221	60.0
173.0471	1000.0
193.05247	180.0

NAME:  NCGC00384725-01![(2S,3R,4S,5R,6R)-3,5-dihydroxy-2-(6-methoxy-2-oxochromen-7-yl)oxy-6-[[(2R,3R,4R,5R,6S)-3,4,5-trihydroxy-6-methyloxan-2-yl]oxymethyl]oxan-4-yl] acetate
PRECURSORMZ:  587.16175819383
PRECURSORTYPE:  [M+FA-H]-
FORMULA:  C24H30O14
Ontology: Kingdom: Organic compounds;Superclass: Phenylpropanoids and polyketides;Class: Coumarins and derivatives;Subclass: Coumarin glycosides
INCHIKEY:  OCZMYDFOSNDPTJ-UHFFFAOYNA-N
SMILES:  COC1=C(OC2OC(COC3OC(C)C(O)C(O)C3O)C(O)C(OC(C)=O)C2O)C=C2OC(=O)C=CC2=C1
RETENTIONTIME:  
CCS:  -1
IONMODE:  Negative
INSTRUMENTTYPE:  
INSTRUMENT:  Maxis II HD Q-TOF Bruker
COLLISIONENERGY:  
Comment:  DB#=CCMSLIB00000846908; origin=GNPS
Num Peaks:  6
144.21924	20.0
148.01756	30.0
163.06819	20.0
176.01125	430.0
191.03413	1000.0
201.01633	10.0

NAME:  NCGC00180706-02!(2R,3R,4S,5S,6R)-2-[[6-hydroxy-4-(4-hydroxy-3,5-dimethoxyphenyl)-3-(hydroxymethyl)-5,7-dimethoxy-1,2,3,4-tetrahydronaphthalen-2-yl]methoxy]-6-(hydroxymethyl)oxane-3,4,5-triol
PRECURSORMZ:  627.22944383183
PRECURSORTYPE:  [M+FA-H]-
FORMULA:  C28H38O13
Ontology: Kingdom: Organic compounds;Superclass: Lignans;Class: Lignan glycosides;
INCHIKEY:  PACBNJFGEWTGCE-UHFFFAOYNA-N
SMILES:  COC1=CC(=CC(OC)=C1O)C1C(CO)C(COC2OC(CO)C(O)C(O)C2O)CC2=CC(OC)=C(O)C(OC)=C12
RETENTIONTIME:  
CCS:  -1
IONMODE:  Negative
INSTRUMENTTYPE:  
INSTRUMENT:  Maxis II HD Q-TOF Bruker
COLLISIONENERGY:  
Comment:  DB#=CCMSLIB00000846911; origin=GNPS
Num Peaks:  35
115.0386	40.0
119.03337	90.0
138.02547	60.0
149.04385	40.0
152.66182	30.0
152.90462	20.0
153.05397	60.0
187.0396	20.0
193.06694	30.0
194.81235	20.0
203.06775	20.0
206.06248	20.0
233.08208	50.0
277.05862	20.0
306.04785	30.0
328.09018	30.0
341.09561	20.0
355.12527	20.0
357.09167	20.0
358.10474	20.0
359.112	100.0
371.11621	50.0
373.12579	30.0
386.12497	40.0
401.12637	40.0
402.12256	30.0
404.15271	100.0
405.1796	20.0
419.16943	270.0
535.20831	20.0
551.17743	40.0
566.19373	50.0
581.2207	1000.0
581.34351	20.0
585.20459	30.0

NAME:  NCGC00384714-01!(2S,3R,4R,5R,6S)-2-[(2S,3R,4S,5S,6R)-4,5-dihydroxy-2-[4-[3-(4-hydroxy-3,5-dimethoxyphenyl)-1,3,3a,4,6,6a-hexahydrofuro[3,4-c]furan-6-yl]-2,6-dimethoxyphenoxy]-6-(hydroxymethyl)oxan-3-yl]oxy-6-methyloxane-3,4,5-triol
PRECURSORMZ:  771.27170256883
PRECURSORTYPE:  [M+FA-H]-
FORMULA:  C34H46O17
Ontology: ;;;
INCHIKEY:  IZSBMDHDBLUZOI-UHFFFAOYNA-N
SMILES:  COC1=CC(=CC(OC)=C1O)C1OCC2C1COC2C1=CC(OC)=C(OC2OC(CO)C(O)C(O)C2OC2OC(C)C(O)C(O)C2O)C(OC)=C1
RETENTIONTIME:  
CCS:  -1
IONMODE:  Negative
INSTRUMENTTYPE:  
INSTRUMENT:  Maxis II HD Q-TOF Bruker
COLLISIONENERGY:  
Comment:  DB#=CCMSLIB00000846913; origin=GNPS
Num Peaks:  53
113.01968	20.0
115.03875	20.0
125.02456	20.0
137.02426	60.0
139.04401	10.0
145.06075	20.0
151.01103	50.0
152.0441	20.0
153.01833	10.0
153.41551	10.0
158.03421	10.0
164.40947	10.0
166.02538	230.0
167.0341	30.0
168.98662	10.0
177.017	20.0
179.03285	20.0
181.04883	750.0
184.04524	10.0
189.10941	20.0
191.07993	10.0
192.04869	20.0
202.05794	20.0
205.06464	60.0
206.05286	20.0
209.04008	20.0
221.07806	50.0
224.06709	10.0
225.07837	10.0
295.06006	10.0
307.10233	10.0
339.09064	20.0
341.10056	10.0
356.12738	20.0
357.09088	20.0
387.11163	150.0
387.1423	140.0
398.13037	10.0
399.1434	20.0
400.1488	10.0
402.1319	130.0
416.10635	20.0
417.15414	1000.0
418.15442	60.0
420.91922	10.0
559.02185	10.0
680.20178	10.0
695.25696	50.0
696.23993	10.0
707.25006	100.0
708.27588	30.0
725.2691	380.0
726.2688	80.0

NAME:  NCGC00381322-01!3',4,5',6,8'-pentahydroxy-2',8'-bis(4-hydroxyphenyl)spiro[1-benzofuran-2,9'-3,4-dihydro-2H-furo[2,3-h]chromene]-3-one
PRECURSORMZ:  557.10893507583
PRECURSORTYPE:  [M-H]-
FORMULA:  C30H22O11
Ontology: Kingdom: Organic compounds;Superclass: Phenylpropanoids and polyketides;;
INCHIKEY:  PAUVEHXCLNBAPG-UHFFFAOYNA-N
SMILES:  OC1CC2=C(OC1C1=CC=C(O)C=C1)C1=C(OC(O)(C3=CC=C(O)C=C3)C11OC3=CC(O)=CC(O)=C3C1=O)C=C2O
RETENTIONTIME:  
CCS:  -1
IONMODE:  Negative
INSTRUMENTTYPE:  
INSTRUMENT:  Maxis II HD Q-TOF Bruker
COLLISIONENERGY:  
Comment:  DB#=CCMSLIB00000846915; origin=GNPS
Num Peaks:  53
79.54464	60.0
81.15884	40.0
100.74279	30.0
107.01509	60.0
121.03841	50.0
123.04186	70.0
143.99625	80.0
149.40717	60.0
151.00226	1000.0
153.01443	50.0
161.02071	70.0
165.01244	40.0
169.01952	50.0
226.5945	50.0
227.03186	120.0
240.04076	50.0
253.04744	50.0
255.02972	230.0
257.0408	120.0
259.37555	30.0
279.06613	30.0
281.0495	60.0
282.05908	30.0
283.026	100.0
284.03088	90.0
299.05753	110.0
318.05048	70.0
319.05807	60.0
333.03369	40.0
341.05237	40.0
346.05792	80.0
363.08191	50.0
377.06036	60.0
388.05579	40.0
390.88638	20.0
403.13004	40.0
404.09509	70.0
405.05331	100.0
405.10516	570.0
411.08594	50.0
430.46371	30.0
432.0528	50.0
437.0896	60.0
475.88611	40.0
495.12296	30.0
511.12689	50.0
538.19781	40.0
539.10406	310.0
539.56354	10.0
557.1059	460.0
605.27203	30.0
1107.48376	130.0
1507.99634	50.0

NAME:  NCGC00381322-01!3',4,5',6,8'-pentahydroxy-2',8'-bis(4-hydroxyphenyl)spiro[1-benzofuran-2,9'-3,4-dihydro-2H-furo[2,3-h]chromene]-3-one
PRECURSORMZ:  603.11441407583
PRECURSORTYPE:  [M+FA-H]-
FORMULA:  C30H22O11
Ontology: Kingdom: Organic compounds;Superclass: Phenylpropanoids and polyketides;;
INCHIKEY:  PAUVEHXCLNBAPG-UHFFFAOYNA-N
SMILES:  OC1CC2=C(OC1C1=CC=C(O)C=C1)C1=C(OC(O)(C3=CC=C(O)C=C3)C11OC3=CC(O)=CC(O)=C3C1=O)C=C2O
RETENTIONTIME:  
CCS:  -1
IONMODE:  Negative
INSTRUMENTTYPE:  
INSTRUMENT:  Maxis II HD Q-TOF Bruker
COLLISIONENERGY:  
Comment:  DB#=CCMSLIB00000846917; origin=GNPS
Num Peaks:  19
125.02625	160.0
137.02542	60.0
149.02655	50.0
163.00021	30.0
177.02904	70.0
179.03224	50.0
205.01224	70.0
215.03117	80.0
257.06354	30.0
273.07272	70.0
310.62134	20.0
311.05701	620.0
323.07858	40.0
325.91315	50.0
332.27109	10.0
437.09164	1000.0
440.83093	20.0
459.08472	50.0
557.10919	60.0

NAME:  NCGC00381318-01![3-methyl-1-[3-methyl-1-[3-methyl-1-oxo-1-(2,3,4,5,6-pentahydroxyhexoxy)pentan-2-yl]oxy-1-oxopentan-2-yl]oxy-1-oxopentan-2-yl] 2-hydroxy-3-methylpentanoate
PRECURSORMZ:  683.34955896683
PRECURSORTYPE:  [M+FA-H]-
FORMULA:  C30H54O14
Ontology: Kingdom: Organic compounds;Superclass: Organic acids and derivatives;Class: Peptidomimetics;Subclass: Depsipeptides
INCHIKEY:  XHFZCGJKWBSHAG-UHFFFAOYNA-N
SMILES:  CCC(C)C(O)C(=O)OC(C(C)CC)C(=O)OC(C(C)CC)C(=O)OC(C(C)CC)C(=O)OCC(O)C(O)C(O)C(O)CO
RETENTIONTIME:  
CCS:  -1
IONMODE:  Negative
INSTRUMENTTYPE:  
INSTRUMENT:  Maxis II HD Q-TOF Bruker
COLLISIONENERGY:  
Comment:  DB#=CCMSLIB00000846919; origin=GNPS
Num Peaks:  5
131.07118	1000.0
181.07162	240.0
245.14046	590.0
359.20856	290.0
473.27777	90.0

NAME:  NCGC00381321-01!3',4,5',6-tetrahydroxy-2',8'-bis(4-hydroxyphenyl)-5-[3,4,5-trihydroxy-6-(hydroxymethyl)oxan-2-yl]spiro[1-benzofuran-2,9'-2,3,4,8-tetrahydrofuro[2,3-h]chromene]-3-one
PRECURSORMZ:  703.16684387783
PRECURSORTYPE:  [M-H]-
FORMULA:  C36H32O15
Ontology: Kingdom: Organic compounds;Superclass: Phenylpropanoids and polyketides;;
INCHIKEY:  MYIUHDZRMLFLNJ-UHFFFAOYNA-N
SMILES:  OCC1OC(C(O)C(O)C1O)C1=C(O)C2=C(OC3(C(OC4=C3C3=C(CC(O)C(O3)C3=CC=C(O)C=C3)C(O)=C4)C3=CC=C(O)C=C3)C2=O)C=C1O
RETENTIONTIME:  
CCS:  -1
IONMODE:  Negative
INSTRUMENTTYPE:  
INSTRUMENT:  Maxis II HD Q-TOF Bruker
COLLISIONENERGY:  
Comment:  DB#=CCMSLIB00000846921; origin=GNPS
Num Peaks:  99
104.70912	20.0
105.03799	30.0
109.03018	20.0
125.0227	60.0
151.00145	30.0
161.02589	50.0
163.00673	30.0
164.01172	50.0
165.01723	20.0
179.02808	40.0
181.01457	70.0
185.07034	30.0
193.0143	220.0
199.03403	30.0
203.03172	30.0
223.02765	90.0
239.04187	30.0
240.03961	20.0
241.04483	30.0
249.2085	30.0
253.05049	140.0
255.05609	40.0
261.04813	50.0
267.06128	60.0
269.07568	30.0
269.97891	10.0
273.04868	30.0
277.07108	40.0
279.06604	80.0
281.04541	50.0
282.05518	40.0
283.05283	20.0
293.04474	70.0
293.08246	30.0
295.05811	70.0
297.0795	30.0
306.05313	80.0
308.0264	90.0
309.04147	30.0
311.0463	70.0
311.91418	30.0
316.07285	60.0
318.08713	30.0
321.07938	80.0
321.15536	40.0
322.04477	40.0
323.05502	110.0
330.04202	30.0
335.04871	30.0
340.07465	20.0
346.04266	30.0
348.05948	30.0
349.06094	40.0
350.04544	40.0
352.0752	30.0
361.06882	20.0
362.09741	20.0
363.11472	20.0
365.05597	30.0
365.20993	10.0
384.04486	40.0
385.07019	40.0
386.07803	80.0
389.10187	170.0
405.10278	40.0
431.11075	450.0
443.07642	30.0
447.08173	20.0
457.09119	150.0
461.08621	30.0
477.07724	50.0
489.06134	40.0
489.09064	40.0
493.13171	30.0
494.34323	50.0
495.15262	40.0
495.996	10.0
496.79126	10.0
497.12225	60.0
511.13647	60.0
519.00787	40.0
519.09222	100.0
521.11603	40.0
527.1377	30.0
539.13977	70.0
541.10822	60.0
551.12384	30.0
566.1106	30.0
583.12329	1000.0
584.12024	110.0
591.10931	30.0
593.04309	20.0
613.13947	520.0
625.13159	40.0
685.16937	50.0
702.1839	30.0
703.07776	50.0
703.16913	600.0
704.17615	30.0

NAME:  NCGC00380792-01![(5aS,6S)-2-methyl-1,3,4-trioxo-5a,6-dihydrooxepino[1,2]pyrrolo[4,5-c]pyrazin-6-yl] 3-(5-formyl-2-hydroxyphenoxy)-4-methoxybenzoate
PRECURSORMZ:  531.10451839983
PRECURSORTYPE:  [M-H]-
FORMULA:  C27H20N2O10
Ontology: Kingdom: Organic compounds;Superclass: Benzenoids;Class: Benzene and substituted derivatives;Subclass: Diphenylethers
INCHIKEY:  APGIPIWYVRPJKL-UHFFFAOYNA-N
SMILES:  COC1=C(OC2=C(O)C=CC(C=O)=C2)C=C(C=C1)C(=O)OC1C=COC=C2C=C3N(C12)C(=O)C(=O)N(C)C3=O
RETENTIONTIME:  
CCS:  247.9217128
IONMODE:  Negative
INSTRUMENTTYPE:  
INSTRUMENT:  Maxis II HD Q-TOF Bruker
COLLISIONENERGY:  
Comment:  DB#=CCMSLIB00000846923; origin=GNPS
Num Peaks:  19
73.88315	10.0
136.01532	130.0
137.02388	950.0
141.03218	20.0
157.03658	10.0
211.04187	120.0
229.05011	30.0
233.0544	20.0
243.0602	50.0
255.03189	90.0
259.02551	40.0
261.05182	30.0
287.05594	1000.0
291.29175	20.0
305.0676	40.0
386.07751	30.0
387.0766	30.0
644.7608	30.0
1540.48291	20.0

NAME:  NCGC00385820-01!5,7-dihydroxy-2-[3-hydroxy-4-[(2S,3R,4S,5S,6R)-3,4,5-trihydroxy-6-(hydroxymethyl)oxan-2-yl]oxyphenyl]chromen-4-one
PRECURSORMZ:  447.09328501183
PRECURSORTYPE:  [M-H]-
FORMULA:  C21H20O11
Ontology: Kingdom: Organic compounds;Superclass: Phenylpropanoids and polyketides;Class: Flavonoids;Subclass: Flavonoid glycosides
INCHIKEY:  UHNXUSWGOJMEFO-UHFFFAOYNA-N
SMILES:  OCC1OC(OC2=C(O)C=C(C=C2)C2=CC(=O)C3=C(O)C=C(O)C=C3O2)C(O)C(O)C1O
RETENTIONTIME:  
CCS:  230.1683295
IONMODE:  Negative
INSTRUMENTTYPE:  
INSTRUMENT:  Maxis II HD Q-TOF Bruker
COLLISIONENERGY:  
Comment:  DB#=CCMSLIB00000846924; origin=GNPS
Num Peaks:  5
141.47585	40.0
284.0116	50.0
285.04266	1000.0
327.05298	40.0
447.10016	290.0

NAME:  NCGC00385836-01!3-[[(2R,3S,4S,5R,6S)-6-[2-(3,4-dihydroxyphenyl)-5,7-dihydroxy-4-oxochromen-3-yl]oxy-3,4,5-trihydroxyoxan-2-yl]methoxy]-3-oxopropanoic acid
PRECURSORMZ:  549.08859355583
PRECURSORTYPE:  [M-H]-
FORMULA:  C24H22O15
Ontology: Kingdom: Organic compounds;Superclass: Phenylpropanoids and polyketides;Class: Flavonoids;Subclass: Flavonoid glycosides
INCHIKEY:  NBQPHANHNTWDML-UHFFFAOYNA-N
SMILES:  OC1C(O)C(COC(=O)CC(O)=O)OC(OC2=C(OC3=CC(O)=CC(O)=C3C2=O)C2=CC(O)=C(O)C=C2)C1O
RETENTIONTIME:  
CCS:  216.8049517
IONMODE:  Negative
INSTRUMENTTYPE:  
INSTRUMENT:  Maxis II HD Q-TOF Bruker
COLLISIONENERGY:  
Comment:  DB#=CCMSLIB00000846927; origin=GNPS
Num Peaks:  19
129.07465	10.0
142.22244	20.0
153.38681	10.0
164.54436	10.0
178.99774	40.0
227.03482	20.0
243.02969	30.0
245.04524	30.0
255.02875	100.0
271.02383	60.0
273.03983	10.0
300.02737	1000.0
301.03183	250.0
313.03967	20.0
355.04474	10.0
463.07153	10.0
503.82083	10.0
505.10007	480.0
508.13419	10.0

NAME:  NCGC00169259-02![1-(3,5-dihydroxyphenyl)-12-hydroxytridecan-2-yl] acetate
PRECURSORMZ:  411.23882674283
PRECURSORTYPE:  [M+FA-H]-
FORMULA:  C21H34O5
Ontology: Kingdom: Organic compounds;Superclass: Lipids and lipid;Class: Fatty Acyls;Subclass: Fatty alcohols
INCHIKEY:  XPDBYTRMUWQPTF-UHFFFAOYNA-N
SMILES:  CC(O)CCCCCCCCCC(CC1=CC(O)=CC(O)=C1)OC(C)=O
RETENTIONTIME:  
CCS:  -1
IONMODE:  Negative
INSTRUMENTTYPE:  
INSTRUMENT:  Maxis II HD Q-TOF Bruker
COLLISIONENERGY:  
Comment:  DB#=CCMSLIB00000846929; origin=GNPS
Num Peaks:  18
123.04497	40.0
148.0509	40.0
165.05458	40.0
185.18199	10.0
195.05881	40.0
218.0591	20.0
277.22037	30.0
302.78043	30.0
305.21353	510.0
323.233	60.0
332.19452	20.0
349.20367	30.0
350.21167	80.0
353.01123	30.0
365.23541	1000.0
366.24435	20.0
366.62973	10.0
1173.92297	20.0

NAME:  NCGC00385384-01![(6R)-6-hydroxy-2-methyl-5-oxo-6-[(2S,3S,9R,13R,14S,16R)-2,3,16-trihydroxy-4,4,9,13,14-pentamethyl-11-oxo-1,2,3,7,8,10,12,15,16,17-decahydrocyclopenta[a]phenanthren-17-yl]heptan-2-yl] acetate
PRECURSORMZ:  607.34877111783
PRECURSORTYPE:  [M+FA-H]-
FORMULA:  C32H50O8
Ontology: Kingdom: Organic compounds;Superclass: Lipids and lipid;Class: Steroids and steroid derivatives;Subclass: Cucurbitacins
INCHIKEY:  LKYNAQSYQLFTCM-UHFFFAOYNA-N
SMILES:  CC(=O)OC(C)(C)CCC(=O)C(C)(O)C1C(O)CC2(C)C3CC=C4C(CC(O)C(O)C4(C)C)C3(C)C(=O)CC12C
RETENTIONTIME:  
CCS:  -1
IONMODE:  Negative
INSTRUMENTTYPE:  
INSTRUMENT:  Maxis II HD Q-TOF Bruker
COLLISIONENERGY:  
Comment:  DB#=CCMSLIB00000846930; origin=GNPS
Num Peaks:  21
107.04843	80.0
173.11537	120.0
303.1955	90.0
304.19254	40.0
343.23044	200.0
359.2308	150.0
369.2175	70.0
385.23172	70.0
387.25797	160.0
414.25488	150.0
414.40125	20.0
441.31381	80.0
459.30811	50.0
483.31085	1000.0
501.32593	610.0
501.44653	90.0
510.78687	70.0
543.33588	90.0
561.35181	570.0
561.42145	50.0
562.34961	30.0

NAME:  NCGC00180412-02![5-hydroxy-6-[2-(4-hydroxy-3-methoxyphenyl)ethoxy]-2-(hydroxymethyl)-4-(3,4,5-trihydroxy-6-methyloxan-2-yl)oxyoxan-3-yl] (E)-3-(4-hydroxy-3-methoxyphenyl)prop-2-enoate
PRECURSORMZ:  651.22944413583
PRECURSORTYPE:  [M-H]-
FORMULA:  C31H40O15
Ontology: Kingdom: Organic compounds;Superclass: Phenylpropanoids and polyketides;Class: Cinnamic acids and derivatives;Subclass: Hydroxycinnamic acids and derivatives
INCHIKEY:  RLGRBYHBNWLGER-UHFFFAOYNA-N
SMILES:  COC1=C(O)C=CC(CCOC2OC(CO)C(OC(=O)C=CC3=CC(OC)=C(O)C=C3)C(OC3OC(C)C(O)C(O)C3O)C2O)=C1
RETENTIONTIME:  
CCS:  243.3387388
IONMODE:  Negative
INSTRUMENTTYPE:  
INSTRUMENT:  Maxis II HD Q-TOF Bruker
COLLISIONENERGY:  
Comment:  DB#=CCMSLIB00000846933; origin=GNPS
Num Peaks:  13
113.02142	40.0
132.01643	50.0
134.0388	100.0
143.03621	60.0
160.0112	70.0
174.58061	20.0
174.82199	10.0
175.03958	1000.0
193.04439	30.0
475.18585	80.0
587.23346	30.0
651.23694	280.0
652.23926	30.0

NAME:  NCGC00180412-02![5-hydroxy-6-[2-(4-hydroxy-3-methoxyphenyl)ethoxy]-2-(hydroxymethyl)-4-(3,4,5-trihydroxy-6-methyloxan-2-yl)oxyoxan-3-yl] (E)-3-(4-hydroxy-3-methoxyphenyl)prop-2-enoate
PRECURSORMZ:  697.23492313583
PRECURSORTYPE:  [M+FA-H]-
FORMULA:  C31H40O15
Ontology: ;;;
INCHIKEY:  RLGRBYHBNWLGER-UHFFFAOYNA-N
SMILES:  COC1=C(O)C=CC(CCOC2OC(CO)C(OC(=O)C=CC3=CC(OC)=C(O)C=C3)C(OC3OC(C)C(O)C(O)C3O)C2O)=C1
RETENTIONTIME:  
CCS:  -1
IONMODE:  Negative
INSTRUMENTTYPE:  
INSTRUMENT:  Maxis II HD Q-TOF Bruker
COLLISIONENERGY:  
Comment:  DB#=CCMSLIB00000846935; origin=GNPS
Num Peaks:  18
85.03384	20.0
101.02773	10.0
113.02478	50.0
132.02496	20.0
134.03847	40.0
137.02367	10.0
149.05554	10.0
160.01535	220.0
167.07034	30.0
175.03972	1000.0
176.04497	10.0
193.05089	150.0
242.05098	10.0
329.13608	10.0
339.11255	10.0
475.1777	70.0
651.23096	540.0
654.78241	10.0

NAME:  NCGC00169972-02!3,6-dihydroxy-8-methoxy-3-methyl-2,4-dihydrobenzo[a]anthracene-1,7,12-trione
PRECURSORMZ:  351.08741178283
PRECURSORTYPE:  [M-H]-
FORMULA:  C20H16O6
Ontology: Kingdom: Organic compounds;Superclass: Phenylpropanoids and polyketides;Class: Angucyclines;
INCHIKEY:  LQIPGPPZCXJWKY-UHFFFAOYNA-N
SMILES:  COC1=CC=CC2=C1C(=O)C1=C(O)C=C3CC(C)(O)CC(=O)C3=C1C2=O
RETENTIONTIME:  
CCS:  193.6319013
IONMODE:  Negative
INSTRUMENTTYPE:  
INSTRUMENT:  Maxis II HD Q-TOF Bruker
COLLISIONENERGY:  
Comment:  DB#=CCMSLIB00000846937; origin=GNPS
Num Peaks:  12
193.66864	60.0
249.05785	40.0
252.0459	40.0
262.06439	80.0
267.061	30.0
277.05798	80.0
290.07401	50.0
292.08734	80.0
307.06006	60.0
309.09085	110.0
323.0802	70.0
351.09052	1000.0

NAME:  NCGC00386079-01!
PRECURSORMZ:  471.12967021583
PRECURSORTYPE:  [M+FA-H]-
FORMULA:  C23H22O8
Ontology: Kingdom: Organic compounds;Superclass: Organoheterocyclic compounds;Class: Benzopyrans;
INCHIKEY:  ICLRNDIRYAEKCT-UHFFFAOYNA-N
SMILES:  COC1=C2C(=O)C3=C(O)C=CC(CCC(C)(C)O)=C3OC2=CC2=C1C1(O)C=COC1O2
RETENTIONTIME:  
CCS:  -1
IONMODE:  Negative
INSTRUMENTTYPE:  
INSTRUMENT:  Maxis II HD Q-TOF Bruker
COLLISIONENERGY:  
Comment:  DB#=CCMSLIB00000846938; origin=GNPS
Num Peaks:  5
279.19043	70.0
354.11038	50.0
379.1124	40.0
381.11023	100.0
425.1264	1000.0

NAME:  NCGC00386097-01!
PRECURSORMZ:  459.07215564283
PRECURSORTYPE:  [M-H]-
FORMULA:  C25H16O9
Ontology: Kingdom: Organic compounds;Superclass: Benzenoids;Class: Dibenzocycloheptenes;
INCHIKEY:  GAFJDGLSFUKNRZ-UHFFFAOYNA-N
SMILES:  CC1=CC(O)=C2C(=O)OC3=C2C1=C1C2C(O)C4(COC(=O)C5=C(O)C=C(C)C(C2=O)=C45)C1=C3O
RETENTIONTIME:  
CCS:  -1
IONMODE:  Negative
INSTRUMENTTYPE:  
INSTRUMENT:  Maxis II HD Q-TOF Bruker
COLLISIONENERGY:  
Comment:  DB#=CCMSLIB00000846941; origin=GNPS
Num Peaks:  19
135.7785	30.0
187.04373	40.0
212.15665	20.0
216.04674	30.0
280.0336	30.0
287.112	20.0
303.10638	30.0
342.0795	20.0
356.07736	20.0
356.55658	20.0
357.0687	20.0
358.08374	40.0
371.05411	20.0
387.0864	80.0
398.09262	20.0
413.04428	20.0
415.0788	40.0
441.06754	10.0
459.07202	1000.0

NAME:  NCGC00386062-01!(3S,6R,12S)-6-benzyl-3-butan-2-yl-9-(6,7-dihydroxyoctyl)-1,4,7,10-tetrazabicyclo[10.4.0]hexadecane-2,5,8,11-tetrone
PRECURSORMZ:  617.35558782983
PRECURSORTYPE:  [M+FA-H]-
FORMULA:  C31H48N4O6
Ontology: Kingdom: Organic compounds;Superclass: Organic acids and derivatives;Class: Carboxylic acids and derivatives;Subclass: Amino acids
INCHIKEY:  DXSMIOSVACQXTE-UHFFFAOYNA-N
SMILES:  CCC(C)C1N=C(O)C(CC2=CC=CC=C2)N=C(O)C(CCCCCC(O)C(C)O)N=C(O)C2CCCCN2C1=O
RETENTIONTIME:  
CCS:  -1
IONMODE:  Negative
INSTRUMENTTYPE:  
INSTRUMENT:  Maxis II HD Q-TOF Bruker
COLLISIONENERGY:  
Comment:  DB#=CCMSLIB00000846942; origin=GNPS
Num Peaks:  10
137.07053	10.0
201.1167	10.0
242.11743	20.0
243.13495	70.0
297.24115	20.0
310.21368	20.0
328.22336	60.0
571.3512	1000.0
572.33765	20.0
572.38165	20.0

NAME:  NCGC00347366-03!2,4,6-trihydroxy-5-[1-(4-hydroxy-1,1,4,7-tetramethyl-1a,2,3,4a,5,6,7a,7b-octahydrocyclopropa[h]azulen-7-yl)-3-methylbutyl]benzene-1,3-dicarbaldehyde
PRECURSORMZ:  471.27521255583
PRECURSORTYPE:  [M-H]-
FORMULA:  C28H40O6
Ontology: Kingdom: Organic compounds;Superclass: Lipids and lipid;Class: Prenol lipids;Subclass: Sesquiterpenoids
INCHIKEY:  IBLPTYJTKWQCDX-UHFFFAOYNA-N
SMILES:  CC(C)CC(C1=C(O)C(C=O)=C(O)C(C=O)=C1O)C1(C)CCC2C1C1C(CCC2(C)O)C1(C)C
RETENTIONTIME:  
CCS:  215.864398
IONMODE:  Negative
INSTRUMENTTYPE:  
INSTRUMENT:  Maxis II HD Q-TOF Bruker
COLLISIONENERGY:  
Comment:  DB#=CCMSLIB00000846945; origin=GNPS
Num Peaks:  16
192.40453	20.0
205.0088	30.0
205.06354	10.0
207.03104	150.0
250.07671	10.0
261.07196	10.0
291.12759	10.0
355.15991	10.0
397.20959	10.0
397.23697	10.0
469.27856	20.0
470.25253	10.0
470.75137	10.0
471.27612	1000.0
471.34027	20.0
713.83118	10.0

NAME:  NCGC00347366-03!2,4,6-trihydroxy-5-[1-(4-hydroxy-1,1,4,7-tetramethyl-1a,2,3,4a,5,6,7a,7b-octahydrocyclopropa[h]azulen-7-yl)-3-methylbutyl]benzene-1,3-dicarbaldehyde
PRECURSORMZ:  453.26464787583
PRECURSORTYPE:  [M-H2O-H]-
FORMULA:  C28H40O6
Ontology: Kingdom: Organic compounds;Superclass: Lipids and lipid;Class: Prenol lipids;Subclass: Sesquiterpenoids
INCHIKEY:  IBLPTYJTKWQCDX-UHFFFAOYNA-N
SMILES:  CC(C)CC(C1=C(O)C(C=O)=C(O)C(C=O)=C1O)C1(C)CCC2C1C1C(CCC2(C)O)C1(C)C
RETENTIONTIME:  
CCS:  -1
IONMODE:  Negative
INSTRUMENTTYPE:  
INSTRUMENT:  Maxis II HD Q-TOF Bruker
COLLISIONENERGY:  
Comment:  DB#=CCMSLIB00000846947; origin=GNPS
Num Peaks:  19
165.02042	30.0
166.24956	20.0
205.01312	30.0
207.0331	180.0
213.98209	30.0
217.01573	20.0
217.13315	20.0
217.50287	20.0
219.02603	10.0
220.35333	20.0
250.08455	10.0
451.25827	60.0
452.74524	30.0
453.26553	1000.0
453.46594	10.0
454.08206	20.0
454.26587	10.0
457.2034	10.0
1865.79651	10.0

NAME:  NCGC00169327-02!3-(6-methoxy-1,3-benzodioxol-5-yl)-7-[(2S,3R,4S,5S,6R)-3,4,5-trihydroxy-6-(hydroxymethyl)oxan-2-yl]oxychromen-4-one
PRECURSORMZ:  519.11441407583
PRECURSORTYPE:  [M+FA-H]-
FORMULA:  C23H22O11
Ontology: ;;;
INCHIKEY:  GIWDXQUHEWOAQO-UHFFFAOYNA-N
SMILES:  COC1=CC2=C(OCO2)C=C1C1=COC2=C(C=CC(OC3OC(CO)C(O)C(O)C3O)=C2)C1=O
RETENTIONTIME:  
CCS:  -1
IONMODE:  Negative
INSTRUMENTTYPE:  
INSTRUMENT:  Maxis II HD Q-TOF Bruker
COLLISIONENERGY:  
Comment:  DB#=CCMSLIB00000846952; origin=GNPS
Num Peaks:  9
151.86684	10.0
224.04604	70.0
266.02127	30.0
267.03253	120.0
296.00186	10.0
296.03766	50.0
311.05661	1000.0
311.09985	20.0
312.06396	20.0

NAME:  NCGC00384759-01!5,7-dihydroxy-2-[4-hydroxy-3-[(2S,3R,4S,5S,6R)-3,4,5-trihydroxy-6-(hydroxymethyl)oxan-2-yl]oxyphenyl]-3-methoxychromen-4-one
PRECURSORMZ:  477.10384969583
PRECURSORTYPE:  [M-H]-
FORMULA:  C22H22O12
Ontology: Kingdom: Organic compounds;Superclass: Phenylpropanoids and polyketides;Class: Flavonoids;Subclass: Flavonoid glycosides
INCHIKEY:  VUGZODBTVLLVFQ-UHFFFAOYNA-N
SMILES:  COC1=C(OC2=CC(O)=CC(O)=C2C1=O)C1=CC(OC2OC(CO)C(O)C(O)C2O)=C(O)C=C1
RETENTIONTIME:  
CCS:  -1
IONMODE:  Negative
INSTRUMENTTYPE:  
INSTRUMENT:  Maxis II HD Q-TOF Bruker
COLLISIONENERGY:  
Comment:  DB#=CCMSLIB00000846955; origin=GNPS
Num Peaks:  6
255.03853	30.0
299.02994	30.0
300.03192	380.0
302.62332	20.0
315.05359	1000.0
477.11002	400.0

NAME:  NCGC00384759-01!5,7-dihydroxy-2-[4-hydroxy-3-[(2S,3R,4S,5S,6R)-3,4,5-trihydroxy-6-(hydroxymethyl)oxan-2-yl]oxyphenyl]-3-methoxychromen-4-one
PRECURSORMZ:  523.10932869583
PRECURSORTYPE:  [M+FA-H]-
FORMULA:  C22H22O12
Ontology: Kingdom: Organic compounds;Superclass: Phenylpropanoids and polyketides;Class: Flavonoids;Subclass: Flavonoid glycosides
INCHIKEY:  VUGZODBTVLLVFQ-UHFFFAOYNA-N
SMILES:  COC1=C(OC2=CC(O)=CC(O)=C2C1=O)C1=CC(OC2OC(CO)C(O)C(O)C2O)=C(O)C=C1
RETENTIONTIME:  
CCS:  -1
IONMODE:  Negative
INSTRUMENTTYPE:  
INSTRUMENT:  Maxis II HD Q-TOF Bruker
COLLISIONENERGY:  
Comment:  DB#=CCMSLIB00000846957; origin=GNPS
Num Peaks:  7
271.02396	30.0
300.03296	180.0
315.05188	1000.0
316.0426	40.0
477.10791	740.0
478.10141	40.0
530.90741	40.0

NAME:  NCGC00385100-01![(2R,3S,4S,5R,6S)-3,4,5-trihydroxy-6-(5-hydroxy-2-methyl-4-oxochromen-7-yl)oxyoxan-2-yl]methyl (4R)-4-(2-hydroxypropan-2-yl)cyclohexene-1-carboxylate
PRECURSORMZ:  565.19266439783
PRECURSORTYPE:  [M+FA-H]-
FORMULA:  C26H32O11
Ontology: ;;;
INCHIKEY:  OUBDJJFZUQGQLU-UHFFFAOYNA-N
SMILES:  CC1=CC(=O)C2=C(O)C=C(OC3OC(COC(=O)C4=CCC(CC4)C(C)(C)O)C(O)C(O)C3O)C=C2O1
RETENTIONTIME:  
CCS:  -1
IONMODE:  Negative
INSTRUMENTTYPE:  
INSTRUMENT:  Maxis II HD Q-TOF Bruker
COLLISIONENERGY:  
Comment:  DB#=CCMSLIB00000846959; origin=GNPS
Num Peaks:  6
98.5529	10.0
191.03563	1000.0
257.04413	10.0
519.18317	30.0
1302.8269	10.0
1379.57239	10.0

NAME:  NCGC00384841-01!2-[3-[4-[1,3-dihydroxy-1-(4-hydroxy-3-methoxyphenyl)propan-2-yl]oxy-3-methoxyphenyl]propoxy]-6-(hydroxymethyl)oxane-3,4,5-triol
PRECURSORMZ:  539.21340014683
PRECURSORTYPE:  [M-H]-
FORMULA:  C26H36O12
Ontology: Kingdom: Organic compounds;Superclass: Lignans;Class: Lignan glycosides;
INCHIKEY:  NFUHNVZGHNEYRG-UHFFFAOYNA-N
SMILES:  COC1=C(O)C=CC(=C1)C(O)C(CO)OC1=C(OC)C=C(CCCOC2OC(CO)C(O)C(O)C2O)C=C1
RETENTIONTIME:  
CCS:  243.0641102
IONMODE:  Negative
INSTRUMENTTYPE:  
INSTRUMENT:  Maxis II HD Q-TOF Bruker
COLLISIONENERGY:  
Comment:  DB#=CCMSLIB00000846961; origin=GNPS
Num Peaks:  15
111.01367	150.0
149.02519	160.0
150.0331	100.0
161.04808	160.0
165.05849	520.0
175.37392	30.0
183.02798	130.0
195.06638	370.0
229.59575	60.0
236.48161	150.0
343.1434	230.0
491.13235	110.0
491.19131	1000.0
539.16046	80.0
539.22021	80.0

NAME:  NCGC00384841-01!2-[3-[4-[1,3-dihydroxy-1-(4-hydroxy-3-methoxyphenyl)propan-2-yl]oxy-3-methoxyphenyl]propoxy]-6-(hydroxymethyl)oxane-3,4,5-triol
PRECURSORMZ:  585.21887914683
PRECURSORTYPE:  [M+FA-H]-
FORMULA:  C26H36O12
Ontology: Kingdom: Organic compounds;Superclass: Lignans;Class: Lignan glycosides;
INCHIKEY:  NFUHNVZGHNEYRG-UHFFFAOYNA-N
SMILES:  COC1=C(O)C=CC(=C1)C(O)C(CO)OC1=C(OC)C=C(CCCOC2OC(CO)C(O)C(O)C2O)C=C1
RETENTIONTIME:  
CCS:  -1
IONMODE:  Negative
INSTRUMENTTYPE:  
INSTRUMENT:  Maxis II HD Q-TOF Bruker
COLLISIONENERGY:  
Comment:  DB#=CCMSLIB00000846963; origin=GNPS
Num Peaks:  17
97.76472	30.0
150.03586	140.0
162.03201	50.0
164.65623	40.0
164.79633	30.0
164.842	40.0
164.98367	40.0
165.0563	770.0
195.06844	360.0
314.1243	70.0
329.1293	70.0
343.13968	190.0
359.07852	60.0
491.19412	1000.0
538.03589	50.0
539.21936	340.0
541.48218	30.0

NAME:  NCGC00385164-01!5-[3,4,5-trihydroxy-6-(hydroxymethyl)oxan-2-yl]oxy-9-(3,4,5-trimethoxyphenyl)-5a,6,8a,9-tetrahydro-5H-[2]benzofuro[6,5-f][1,3]benzodioxol-8-one
PRECURSORMZ:  621.18249363783
PRECURSORTYPE:  [M+FA-H]-
FORMULA:  C28H32O13
Ontology: ;;;
INCHIKEY:  NXVJTGLCCSFGAT-UHFFFAOYNA-N
SMILES:  COC1=CC(=CC(OC)=C1OC)C1C2C(COC2=O)C(OC2OC(CO)C(O)C(O)C2O)C2=CC3=C(OCO3)C=C12
RETENTIONTIME:  
CCS:  -1
IONMODE:  Negative
INSTRUMENTTYPE:  
INSTRUMENT:  Maxis II HD Q-TOF Bruker
COLLISIONENERGY:  
Comment:  DB#=CCMSLIB00000846965; origin=GNPS
Num Peaks:  22
113.02585	60.0
153.0556	120.0
161.04172	160.0
179.06024	80.0
215.03908	50.0
291.06277	60.0
324.14703	40.0
329.10181	30.0
336.10806	70.0
338.13962	50.0
365.13629	40.0
366.1185	40.0
383.12036	130.0
384.08282	60.0
395.11444	230.0
413.10538	50.0
431.12289	60.0
455.12274	40.0
575.17926	1000.0
576.16895	30.0
621.20264	20.0
645.95612	30.0

NAME:  NCGC00168949-02!(2R,3R,4S,5S,6R)-2-[[7-hydroxy-1-(4-hydroxy-3,5-dimethoxyphenyl)-3-(hydroxymethyl)-6,8-dimethoxy-1,2,3,4-tetrahydronaphthalen-2-yl]methoxy]-6-(hydroxymethyl)oxane-3,4,5-triol
PRECURSORMZ:  627.22944383183
PRECURSORTYPE:  [M+FA-H]-
FORMULA:  C28H38O13
Ontology: Kingdom: Organic compounds;Superclass: Lignans;Class: Lignan glycosides;
INCHIKEY:  PQQRNPDHSJDAGV-UHFFFAOYNA-N
SMILES:  COC1=CC(=CC(OC)=C1O)C1C(COC2OC(CO)C(O)C(O)C2O)C(CO)CC2=CC(OC)=C(O)C(OC)=C12
RETENTIONTIME:  
CCS:  -1
IONMODE:  Negative
INSTRUMENTTYPE:  
INSTRUMENT:  Maxis II HD Q-TOF Bruker
COLLISIONENERGY:  
Comment:  DB#=CCMSLIB00000846967; origin=GNPS
Num Peaks:  27
119.03388	20.0
138.03641	50.0
153.05617	60.0
179.05728	30.0
186.03156	10.0
193.06831	20.0
197.04292	50.0
202.06856	20.0
203.0731	70.0
207.02663	30.0
233.08476	90.0
327.08688	30.0
341.0997	50.0
357.14645	30.0
359.11407	30.0
371.11298	30.0
371.1459	20.0
386.14426	40.0
388.12518	10.0
401.15207	20.0
404.13962	30.0
419.16965	130.0
427.16199	20.0
444.11646	20.0
551.21246	10.0
581.22845	1000.0
599.42957	10.0

NAME:  NCGC00168902-03!2-(3,4-dihydroxyphenyl)-5,7-dihydroxy-3-[(2S,3R,4S,5R,6R)-3,4,5-trihydroxy-6-(hydroxymethyl)oxan-2-yl]oxychromen-4-one
PRECURSORMZ:  463.08819963183
PRECURSORTYPE:  [M-H]-
FORMULA:  C21H20O12
Ontology: Kingdom: Organic compounds;Superclass: Phenylpropanoids and polyketides;Class: Flavonoids;Subclass: Flavonoid glycosides
INCHIKEY:  OVSQVDMCBVZWGM-UHFFFAOYNA-N
SMILES:  OCC1OC(OC2=C(OC3=CC(O)=CC(O)=C3C2=O)C2=CC(O)=C(O)C=C2)C(O)C(O)C1O
RETENTIONTIME:  
CCS:  201.8799825
IONMODE:  Negative
INSTRUMENTTYPE:  
INSTRUMENT:  Maxis II HD Q-TOF Bruker
COLLISIONENERGY:  
Comment:  DB#=CCMSLIB00000846969; origin=GNPS
Num Peaks:  23
147.52431	30.0
148.29922	10.0
151.0007	50.0
153.0164	50.0
163.00673	40.0
163.87006	10.0
186.1208	10.0
193.01849	60.0
211.04155	30.0
216.05168	50.0
227.03239	20.0
242.02654	40.0
243.03152	70.0
244.03767	50.0
255.0257	160.0
271.02863	220.0
299.86823	30.0
300.02945	1000.0
300.40146	20.0
301.03632	680.0
463.09283	590.0
609.63879	30.0
1382.6438	20.0

NAME:  NCGC00385218-01!7-hydroxy-2-(4-hydroxy-3,5-dimethoxyphenyl)-5-[(2S,3R,4S,5S,6R)-3,4,5-trihydroxy-6-(hydroxymethyl)oxan-2-yl]oxychromen-4-one
PRECURSORMZ:  491.11949976083
PRECURSORTYPE:  [M-H]-
FORMULA:  C23H24O12
Ontology: Kingdom: Organic compounds;Superclass: Phenylpropanoids and polyketides;Class: Flavonoids;Subclass: Flavonoid glycosides
INCHIKEY:  FLSOTPIEFVBPBU-UHFFFAOYNA-N
SMILES:  COC1=CC(=CC(OC)=C1O)C1=CC(=O)C2=C(O1)C=C(O)C=C2OC1OC(CO)C(O)C(O)C1O
RETENTIONTIME:  
CCS:  234.0729996
IONMODE:  Negative
INSTRUMENTTYPE:  
INSTRUMENT:  Maxis II HD Q-TOF Bruker
COLLISIONENERGY:  
Comment:  DB#=CCMSLIB00000846971; origin=GNPS
Num Peaks:  8
231.02859	110.0
299.02682	60.0
300.02872	50.0
314.04337	180.0
329.06967	920.0
371.09201	50.0
476.09952	60.0
491.12277	1000.0

NAME:  NCGC00385218-01!7-hydroxy-2-(4-hydroxy-3,5-dimethoxyphenyl)-5-[(2S,3R,4S,5S,6R)-3,4,5-trihydroxy-6-(hydroxymethyl)oxan-2-yl]oxychromen-4-one
PRECURSORMZ:  527.0961774729
PRECURSORTYPE:  [M+Cl]-
FORMULA:  C23H24O12
Ontology: Kingdom: Organic compounds;Superclass: Phenylpropanoids and polyketides;Class: Flavonoids;Subclass: Flavonoid glycosides
INCHIKEY:  FLSOTPIEFVBPBU-UHFFFAOYNA-N
SMILES:  COC1=CC(=CC(OC)=C1O)C1=CC(=O)C2=C(O1)C=C(O)C=C2OC1OC(CO)C(O)C(O)C1O
RETENTIONTIME:  
CCS:  -1
IONMODE:  Negative
INSTRUMENTTYPE:  
INSTRUMENT:  Maxis II HD Q-TOF Bruker
COLLISIONENERGY:  
Comment:  DB#=CCMSLIB00000846972; origin=GNPS
Num Peaks:  13
97.03236	40.0
105.69946	10.0
141.01897	20.0
179.0351	120.0
179.60648	10.0
185.00955	190.0
191.21155	10.0
203.02014	1000.0
204.02187	20.0
365.0528	760.0
366.05313	30.0
527.08557	80.0
528.08044	10.0

NAME:  NCGC00169448-03!5-(1,2,3,4,5,6-hexahydroxyhexoxy)-6-hydroxy-3-methoxy-9-methyl-4,5-dihydro-3H-pyrano[3,4-h][1]benzoxepine-2,7-dione
PRECURSORMZ:  485.13006444483
PRECURSORTYPE:  [M-H]-
FORMULA:  C21H26O13
Ontology: ;;;
INCHIKEY:  NSIUWPVISVFSGF-UHFFFAOYNA-N
SMILES:  COC1CC(OC(O)C(O)C(O)C(O)C(O)CO)C2=C(OC1=O)C=C1C=C(C)OC(=O)C1=C2O
RETENTIONTIME:  
CCS:  -1
IONMODE:  Negative
INSTRUMENTTYPE:  
INSTRUMENT:  Maxis II HD Q-TOF Bruker
COLLISIONENERGY:  
Comment:  DB#=CCMSLIB00000846976; origin=GNPS
Num Peaks:  8
142.46892	30.0
144.28609	20.0
185.02969	40.0
229.05035	1000.0
231.0742	60.0
261.07709	640.0
273.04211	390.0
305.06635	390.0

NAME:  NCGC00380866-01!(2S)-5,7-dihydroxy-2-(4-hydroxyphenyl)-6-[(2S,3R,4R,5S,6R)-3,4,5-trihydroxy-6-[[(2R,3R,4R,5R,6S)-3,4,5-trihydroxy-6-methyloxan-2-yl]oxymethyl]oxan-2-yl]-2,3-dihydrochromen-4-one
PRECURSORMZ:  579.17192925783
PRECURSORTYPE:  [M-H]-
FORMULA:  C27H32O14
Ontology: Kingdom: Organic compounds;Superclass: Phenylpropanoids and polyketides;Class: Flavonoids;Subclass: Flavonoid glycosides
INCHIKEY:  HFSJWNXFQYKQNX-UHFFFAOYNA-N
SMILES:  CC1OC(OCC2OC(C(O)C(O)C2O)C2=C(O)C3=C(OC(CC3=O)C3=CC=C(O)C=C3)C=C2O)C(O)C(O)C1O
RETENTIONTIME:  
CCS:  -1
IONMODE:  Negative
INSTRUMENTTYPE:  
INSTRUMENT:  Maxis II HD Q-TOF Bruker
COLLISIONENERGY:  
Comment:  DB#=CCMSLIB00000846979; origin=GNPS
Num Peaks:  41
83.74946	70.0
83.78834	10.0
94.49731	40.0
119.04729	110.0
134.28915	20.0
151.00021	80.0
162.99918	40.0
164.0148	50.0
167.07098	40.0
170.95679	30.0
175.01097	100.0
189.99188	40.0
193.01393	160.0
270.06042	40.0
271.07047	70.0
276.0509	10.0
283.05997	90.0
284.06516	30.0
292.2504	30.0
295.06238	1000.0
296.55234	30.0
296.84732	30.0
310.05566	30.0
312.05164	60.0
312.59949	20.0
313.07278	480.0
325.069	140.0
337.07025	110.0
339.07617	30.0
343.07782	140.0
356.05194	20.0
379.07339	30.0
415.10593	160.0
432.11099	20.0
433.13403	50.0
459.13116	410.0
459.33685	20.0
459.42783	20.0
577.8313	20.0
579.17297	950.0
1859.39624	10.0

NAME:  NCGC00169723-02![(2S,3R,4R,5R,6S)-2-[2-(3,4-dihydroxyphenyl)-5,7-dihydroxy-4-oxochromen-3-yl]oxy-4,5-dihydroxy-6-methyloxan-3-yl] 3,4,5-trihydroxybenzoate
PRECURSORMZ:  599.10424362083
PRECURSORTYPE:  [M-H]-
FORMULA:  C28H24O15
Ontology: Kingdom: Organic compounds;Superclass: Phenylpropanoids and polyketides;Class: Flavonoids;Subclass: Flavonoid glycosides
INCHIKEY:  KTTNFIOZYNBKEY-UHFFFAOYNA-N
SMILES:  CC1OC(OC2=C(OC3=CC(O)=CC(O)=C3C2=O)C2=CC(O)=C(O)C=C2)C(OC(=O)C2=CC(O)=C(O)C(O)=C2)C(O)C1O
RETENTIONTIME:  
CCS:  231.4723876
IONMODE:  Negative
INSTRUMENTTYPE:  
INSTRUMENT:  Maxis II HD Q-TOF Bruker
COLLISIONENERGY:  
Comment:  DB#=CCMSLIB00000846981; origin=GNPS
Num Peaks:  12
107.01436	20.0
109.02953	10.0
151.00162	90.0
162.99947	20.0
169.01735	20.0
178.99812	40.0
255.02817	30.0
273.04034	30.0
283.03006	10.0
301.03622	1000.0
447.09109	20.0
599.1076	110.0

NAME:  NCGC00163589-02!2-(3,4-dihydroxyphenyl)-5-hydroxy-7-[(2S,3R,4S,5S,6R)-3,4,5-trihydroxy-6-(hydroxymethyl)oxan-2-yl]oxychromen-4-one
PRECURSORMZ:  493.09876401183
PRECURSORTYPE:  [M+FA-H]-
FORMULA:  C21H20O11
Ontology: Kingdom: Organic compounds;Superclass: Phenylpropanoids and polyketides;Class: Flavonoids;Subclass: Flavonoid glycosides
INCHIKEY:  PEFNSGRTCBGNAN-UHFFFAOYNA-N
SMILES:  OCC1OC(OC2=CC(O)=C3C(=O)C=C(OC3=C2)C2=CC(O)=C(O)C=C2)C(O)C(O)C1O
RETENTIONTIME:  
CCS:  -1
IONMODE:  Negative
INSTRUMENTTYPE:  
INSTRUMENT:  Maxis II HD Q-TOF Bruker
COLLISIONENERGY:  
Comment:  DB#=CCMSLIB00000846983; origin=GNPS
Num Peaks:  6
226.1174	70.0
284.02979	150.0
284.05597	120.0
285.04184	240.0
447.09326	1000.0
447.24521	80.0

NAME:  NCGC00347613-02!5-[(2R,3S)-6-hydroxy-2-(4-hydroxyphenyl)-4-[(E)-2-(4-hydroxyphenyl)ethenyl]-2,3-dihydro-1-benzofuran-3-yl]benzene-1,3-diol
PRECURSORMZ:  499.13984097583
PRECURSORTYPE:  [M+FA-H]-
FORMULA:  C28H22O6
Ontology: Kingdom: Organic compounds;Superclass: Phenylpropanoids and polyketides;;
INCHIKEY:  FQWLMRXWKZGLFI-UHFFFAOYNA-N
SMILES:  OC1=CC=C(C=CC2=CC(O)=CC3=C2C(C(O3)C2=CC=C(O)C=C2)C2=CC(O)=CC(O)=C2)C=C1
RETENTIONTIME:  
CCS:  -1
IONMODE:  Negative
INSTRUMENTTYPE:  
INSTRUMENT:  Maxis II HD Q-TOF Bruker
COLLISIONENERGY:  
Comment:  DB#=CCMSLIB00000846985; origin=GNPS
Num Peaks:  32
197.067	20.0
200.20358	10.0
209.09216	20.0
226.05887	30.0
240.04588	30.0
247.47589	20.0
252.04581	20.0
267.0715	30.0
289.09949	30.0
295.07898	20.0
301.09402	20.0
303.1008	40.0
315.10864	10.0
317.07938	10.0
343.08801	20.0
345.08118	20.0
346.08139	30.0
347.09113	60.0
359.08807	120.0
360.1012	20.0
371.9953	10.0
385.13849	10.0
393.14163	20.0
409.13757	30.0
412.00531	20.0
425.12939	40.0
435.1405	20.0
446.35919	10.0
452.68533	20.0
453.13306	1000.0
454.14865	10.0
471.15726	10.0

NAME:  NCGC00091914-04!(2R,3R)-2,3-bis[[(E)-3-(3,4-dihydroxyphenyl)prop-2-enoyl]oxy]butanedioic acid
PRECURSORMZ:  473.07254956783
PRECURSORTYPE:  [M-H]-
FORMULA:  C22H18O12
Ontology: Kingdom: Organic compounds;Superclass: Organic acids and derivatives;Class: Carboxylic acids and derivatives;Subclass: Tetracarboxylic acids and derivatives
INCHIKEY:  YDDGKXBLOXEEMN-UHFFFAOYNA-N
SMILES:  OC(=O)C(OC(=O)C=CC1=CC(O)=C(O)C=C1)C(OC(=O)C=CC1=CC(O)=C(O)C=C1)C(O)=O
RETENTIONTIME:  
CCS:  200.9189482
IONMODE:  Negative
INSTRUMENTTYPE:  
INSTRUMENT:  Maxis II HD Q-TOF Bruker
COLLISIONENERGY:  
Comment:  DB#=CCMSLIB00000846987; origin=GNPS
Num Peaks:  16
101.42532	20.0
135.04228	220.0
137.02354	110.0
149.00812	1000.0
149.05865	30.0
157.80463	30.0
161.02242	30.0
163.03604	60.0
179.03479	770.0
182.64223	20.0
205.03589	30.0
219.03059	150.0
293.02844	190.0
294.0314	20.0
311.04071	210.0
610.13562	30.0

NAME:  NCGC00385240-01!9-(4-hydroxy-3,5-dimethoxyphenyl)-4-[3,4,5-trihydroxy-6-(hydroxymethyl)oxan-2-yl]oxy-5a,6,8a,9-tetrahydro-5H-[2]benzofuro[6,5-f][1,3]benzodioxol-8-one
PRECURSORMZ:  607.16684357383
PRECURSORTYPE:  [M+FA-H]-
FORMULA:  C27H30O13
Ontology: ;
INCHIKEY:  HUCNZRPYZDCCEF-UHFFFAOYNA-N
SMILES:  COC1=CC(=CC(OC)=C1O)C1C2C(COC2=O)CC2=C(OC3OC(CO)C(O)C(O)C3O)C3=C(OCO3)C=C12
RETENTIONTIME:  
CCS:  -1
IONMODE:  Negative
INSTRUMENTTYPE:  
INSTRUMENT:  Maxis II HD Q-TOF Bruker
COLLISIONENERGY:  
Comment:  DB#=CCMSLIB00000846989; origin=GNPS
Num Peaks:  18
101.89545	10.0
189.91455	20.0
207.04475	10.0
230.50955	10.0
284.02756	10.0
295.05902	20.0
296.08014	10.0
297.0632	10.0
311.09494	10.0
313.08707	20.0
327.13309	20.0
353.06772	10.0
356.09555	20.0
371.12363	20.0
384.09009	20.0
398.91699	10.0
399.10944	1000.0
400.1084	10.0

NAME:  NCGC00169650-03!5,7-dihydroxy-2-(4-hydroxyphenyl)-8-[3,4,5-trihydroxy-6-(hydroxymethyl)oxan-2-yl]-6-(3,4,5-trihydroxyoxan-2-yl)chromen-4-one
PRECURSORMZ:  563.14062912983
PRECURSORTYPE:  [M-H]-
FORMULA:  C26H28O14
Ontology: Kingdom: Organic compounds;Superclass: Phenylpropanoids and polyketides;Class: Flavonoids;Subclass: Flavonoid glycosides
INCHIKEY:  OVMFOVNOXASTPA-UHFFFAOYNA-N
SMILES:  OCC1OC(C(O)C(O)C1O)C1=C2OC(=CC(=O)C2=C(O)C(C2OCC(O)C(O)C2O)=C1O)C1=CC=C(O)C=C1
RETENTIONTIME:  
CCS:  251.2320298
IONMODE:  Negative
INSTRUMENTTYPE:  
INSTRUMENT:  Maxis II HD Q-TOF Bruker
COLLISIONENERGY:  
Comment:  DB#=CCMSLIB00000846991; origin=GNPS
Num Peaks:  22
170.56354	10.0
189.02419	10.0
262.23224	20.0
283.06424	10.0
295.7782	30.0
297.07547	60.0
323.05862	20.0
325.07108	30.0
337.06357	10.0
353.06583	220.0
365.05344	10.0
383.07611	100.0
383.11884	10.0
395.07593	10.0
413.08905	20.0
443.09528	60.0
455.10294	10.0
473.10516	90.0
485.10147	10.0
503.11285	30.0
545.12524	40.0
563.13818	1000.0

NAME:  NCGC00347790-02!2-[[5-[[2,12-dihydroxy-4,4,10,13,14-pentamethyl-17-(1,5,6-trihydroxy-6-methylheptan-2-yl)-2,3,5,6,7,11,12,15,16,17-decahydro-1H-cyclopenta[a]phenanthren-3-yl]oxy]-3-hydroxy-3-methyl-5-oxopentanoyl]amino]acetic acid
PRECURSORMZ:  708.43283540083
PRECURSORTYPE:  [M-H]-
FORMULA:  C38H63NO11
Ontology: Kingdom: Organic compounds;Superclass: Lipids and lipid;Class: Prenol lipids;Subclass: Triterpenoids
INCHIKEY:  IOMBMOCSWVAYQU-UHFFFAOYNA-N
SMILES:  CC(O)(CC(=O)OC1C(O)CC2(C)C(CCC3=C2CC(O)C2(C)C(CCC32C)C(CO)CCC(O)C(C)(C)O)C1(C)C)CC(O)=NCC(O)=O
RETENTIONTIME:  
CCS:  277.7427917
IONMODE:  Negative
INSTRUMENTTYPE:  
INSTRUMENT:  Maxis II HD Q-TOF Bruker
COLLISIONENERGY:  
Comment:  DB#=CCMSLIB00000846993; origin=GNPS
Num Peaks:  8
116.03596	40.0
138.05553	530.0
158.04536	310.0
182.04477	1000.0
200.05452	710.0
201.05931	30.0
708.43457	210.0
709.43915	40.0

NAME:  NCGC00384571-01!(E)-3-(4-hydroxyphenyl)-N-[3-[[(E)-3-(4-hydroxyphenyl)prop-2-enoyl]-[4-[[(E)-3-(4-hydroxyphenyl)prop-2-enoyl]-[3-[[(E)-3-(4-hydroxyphenyl)prop-2-enoyl]amino]propyl]amino]butyl]amino]propyl]prop-2-enamide
PRECURSORMZ:  785.35558813383
PRECURSORTYPE:  [M-H]-
FORMULA:  C46H50N4O8
Ontology: Kingdom: Organic compounds;Superclass: Phenylpropanoids and polyketides;Class: Cinnamic acids and derivatives;Subclass: Hydroxycinnamic acids and derivatives
INCHIKEY:  KKJYIHSXTUGJLP-UHFFFAOYSA-N
SMILES:  OC(C=CC1=CC=C(O)C=C1)=NCCCN(CCCCN(CCCN=C(O)C=CC1=CC=C(O)C=C1)C(=O)C=CC1=CC=C(O)C=C1)C(=O)C=CC1=CC=C(O)C=C1
RETENTIONTIME:  
CCS:  284.5804754
IONMODE:  Negative
INSTRUMENTTYPE:  
INSTRUMENT:  Maxis II HD Q-TOF Bruker
COLLISIONENERGY:  
Comment:  DB#=CCMSLIB00000846994; origin=GNPS
Num Peaks:  33
77.23898	30.0
77.95439	60.0
119.05038	540.0
144.68327	30.0
145.02892	900.0
159.07889	50.0
178.02803	50.0
269.03925	50.0
303.43588	50.0
314.147	50.0
322.16357	10.0
329.29349	20.0
330.53796	10.0
355.20871	30.0
356.1925	100.0
399.21347	160.0
487.15881	30.0
498.64377	20.0
502.23068	100.0
519.25848	110.0
545.24548	1000.0
546.25415	160.0
549.31195	30.0
638.0097	10.0
639.32141	120.0
661.53607	20.0
665.30005	710.0
666.29462	130.0
783.53473	20.0
785.21948	70.0
785.35248	660.0
786.36853	150.0
786.5495	30.0

NAME:  NCGC00384571-01!(E)-3-(4-hydroxyphenyl)-N-[3-[[(E)-3-(4-hydroxyphenyl)prop-2-enoyl]-[4-[[(E)-3-(4-hydroxyphenyl)prop-2-enoyl]-[3-[[(E)-3-(4-hydroxyphenyl)prop-2-enoyl]amino]propyl]amino]butyl]amino]propyl]prop-2-enamide
PRECURSORMZ:  831.36106713383
PRECURSORTYPE:  [M+FA-H]-
FORMULA:  C46H50N4O8
Ontology: Kingdom: Organic compounds;Superclass: Phenylpropanoids and polyketides;Class: Cinnamic acids and derivatives;Subclass: Hydroxycinnamic acids and derivatives
INCHIKEY:  KKJYIHSXTUGJLP-UHFFFAOYSA-N
SMILES:  OC(C=CC1=CC=C(O)C=C1)=NCCCN(CCCCN(CCCN=C(O)C=CC1=CC=C(O)C=C1)C(=O)C=CC1=CC=C(O)C=C1)C(=O)C=CC1=CC=C(O)C=C1
RETENTIONTIME:  
CCS:  -1
IONMODE:  Negative
INSTRUMENTTYPE:  
INSTRUMENT:  Maxis II HD Q-TOF Bruker
COLLISIONENERGY:  
Comment:  DB#=CCMSLIB00000846996; origin=GNPS
Num Peaks:  37
84.39687	40.0
117.03532	90.0
119.04918	570.0
121.97169	10.0
145.03041	510.0
153.3011	10.0
159.08058	40.0
240.06392	20.0
241.02312	20.0
259.57538	10.0
260.00949	20.0
313.19412	50.0
316.77347	10.0
353.18387	70.0
356.19696	20.0
373.21909	40.0
374.20419	20.0
376.10962	20.0
384.52661	20.0
396.25302	20.0
399.20413	240.0
430.18579	40.0
472.02637	30.0
502.23523	60.0
519.26459	100.0
543.38837	20.0
545.242	740.0
546.24255	40.0
639.31122	40.0
640.27478	20.0
665.28729	530.0
784.24463	20.0
785.27954	20.0
785.35376	1000.0
786.35455	320.0
789.74078	10.0
1282.46387	20.0

NAME:  NCGC00385393-01!7-[(2S,3R,4S,5S,6R)-4,5-dihydroxy-6-(hydroxymethyl)-3-[(2S,3R,4R,5R,6S)-3,4,5-trihydroxy-6-methyloxan-2-yl]oxyoxan-2-yl]oxy-5-hydroxy-2-phenylchromen-4-one
PRECURSORMZ:  607.16684357383
PRECURSORTYPE:  [M+FA-H]-
FORMULA:  C27H30O13
Ontology: Kingdom: Organic compounds;Superclass: Phenylpropanoids and polyketides;Class: Flavonoids;Subclass: Flavonoid glycosides
INCHIKEY:  IJJFWUJRFABXCN-UHFFFAOYNA-N
SMILES:  CC1OC(OC2C(O)C(O)C(CO)OC2OC2=CC(O)=C3C(=O)C=C(OC3=C2)C2=CC=CC=C2)C(O)C(O)C1O
RETENTIONTIME:  
CCS:  -1
IONMODE:  Negative
INSTRUMENTTYPE:  
INSTRUMENT:  Maxis II HD Q-TOF Bruker
COLLISIONENERGY:  
Comment:  DB#=CCMSLIB00000846999; origin=GNPS
Num Peaks:  3
253.05133	1000.0
295.06396	20.0
561.16083	40.0

NAME:  NCGC00385375-01!8-[(2S,3R,4S,5S,6R)-4,5-dihydroxy-6-(hydroxymethyl)-3-[(2S,3R,4S,5R)-3,4,5-trihydroxyoxan-2-yl]oxyoxan-2-yl]-2-(3,4-dihydroxyphenyl)-5,7-dihydroxychromen-4-one
PRECURSORMZ:  579.13554374983
PRECURSORTYPE:  [M-H]-
FORMULA:  C26H28O15
Ontology: Kingdom: Organic compounds;Superclass: Phenylpropanoids and polyketides;Class: Flavonoids;Subclass: Flavonoid glycosides
INCHIKEY:  RQLWDYSEFWBFBP-UHFFFAOYNA-N
SMILES:  OCC1OC(C(OC2OCC(O)C(O)C2O)C(O)C1O)C1=C(O)C=C(O)C2=C1OC(=CC2=O)C1=CC(O)=C(O)C=C1
RETENTIONTIME:  
CCS:  250.0394624
IONMODE:  Negative
INSTRUMENTTYPE:  
INSTRUMENT:  Maxis II HD Q-TOF Bruker
COLLISIONENERGY:  
Comment:  DB#=CCMSLIB00000847001; origin=GNPS
Num Peaks:  39
76.11484	10.0
78.91897	20.0
117.03147	30.0
119.05164	120.0
125.02482	50.0
126.20701	10.0
133.58119	20.0
145.02809	700.0
147.35008	10.0
151.00188	360.0
157.06944	20.0
157.10605	10.0
163.0399	150.0
177.02484	40.0
179.50731	10.0
185.06192	50.0
187.03564	20.0
189.00748	20.0
190.00529	10.0
193.01874	20.0
199.06441	20.0
205.0161	10.0
217.0208	20.0
227.0685	20.0
271.06161	1000.0
295.05457	40.0
307.08505	270.0
307.84082	10.0
313.07324	30.0
326.0806	20.0
337.06659	10.0
399.0513	30.0
415.10568	120.0
415.16336	10.0
433.11945	30.0
459.09811	10.0
579.14972	220.0
582.63934	10.0
781.14508	10.0

NAME:  NCGC00385375-01!8-[(2S,3R,4S,5S,6R)-4,5-dihydroxy-6-(hydroxymethyl)-3-[(2S,3R,4S,5R)-3,4,5-trihydroxyoxan-2-yl]oxyoxan-2-yl]-2-(3,4-dihydroxyphenyl)-5,7-dihydroxychromen-4-one
PRECURSORMZ:  625.14102274983
PRECURSORTYPE:  [M+FA-H]-
FORMULA:  C26H28O15
Ontology: Kingdom: Organic compounds;Superclass: Phenylpropanoids and polyketides;Class: Flavonoids;Subclass: Flavonoid glycosides
INCHIKEY:  RQLWDYSEFWBFBP-UHFFFAOYNA-N
SMILES:  OCC1OC(C(OC2OCC(O)C(O)C2O)C(O)C1O)C1=C(O)C=C(O)C2=C1OC(=CC2=O)C1=CC(O)=C(O)C=C1
RETENTIONTIME:  
CCS:  -1
IONMODE:  Negative
INSTRUMENTTYPE:  
INSTRUMENT:  Maxis II HD Q-TOF Bruker
COLLISIONENERGY:  
Comment:  DB#=CCMSLIB00000847002; origin=GNPS
Num Peaks:  31
175.00249	30.0
202.55423	10.0
239.04562	10.0
297.04288	60.0
298.05191	80.0
309.04086	350.0
311.04868	10.0
322.99463	10.0
327.05038	620.0
329.50525	20.0
339.03424	10.0
351.04837	20.0
357.0618	330.0
358.05563	20.0
369.03699	10.0
370.43005	20.0
387.06909	10.0
393.03241	20.0
411.0596	10.0
429.07745	350.0
429.12857	20.0
430.07425	10.0
447.09424	30.0
449.10757	10.0
459.08762	120.0
578.78497	20.0
578.90997	10.0
579.13367	1000.0
580.13092	40.0
580.3335	20.0
1985.38855	10.0

NAME:  NCGC00385356-01![(2S,3R,4S,5R,6R)-3,5-dihydroxy-2-[[5-hydroxy-2-(4-hydroxyphenyl)-4-oxo-2,3-dihydrochromen-7-yl]oxy]-6-(hydroxymethyl)oxan-4-yl] (E)-3-(4-hydroxyphenyl)prop-2-enoate
PRECURSORMZ:  625.15627888983
PRECURSORTYPE:  [M+FA-H]-
FORMULA:  C30H28O12
Ontology: ;;;
INCHIKEY:  BEHIONSZUBFJLA-UHFFFAOYNA-N
SMILES:  OCC1OC(OC2=CC(O)=C3C(=O)CC(OC3=C2)C2=CC=C(O)C=C2)C(O)C(OC(=O)C=CC2=CC=C(O)C=C2)C1O
RETENTIONTIME:  
CCS:  -1
IONMODE:  Negative
INSTRUMENTTYPE:  
INSTRUMENT:  Maxis II HD Q-TOF Bruker
COLLISIONENERGY:  
Comment:  DB#=CCMSLIB00000847007; origin=GNPS
Num Peaks:  22
178.82397	20.0
274.98669	20.0
285.04019	30.0
297.03519	80.0
298.04971	40.0
298.07904	30.0
309.04562	270.0
311.06113	50.0
326.03741	30.0
327.05045	570.0
339.05917	50.0
357.06046	360.0
369.0553	50.0
429.0802	350.0
454.73218	20.0
458.24786	10.0
459.09189	170.0
577.44916	20.0
579.13483	1000.0
579.32117	20.0
579.59192	30.0
580.13098	60.0

NAME:  NCGC00180593-02!2-[2-[1-carboxy-2-(3,4-dihydroxyphenyl)ethoxy]carbonyl-3,4-bis(3,4-dihydroxyphenyl)cyclobutanecarbonyl]oxy-3-(3,4-dihydroxyphenyl)propanoic acid
PRECURSORMZ:  719.16175849783
PRECURSORTYPE:  [M-H]-
FORMULA:  C36H32O16
Ontology: Kingdom: Organic compounds;Superclass: Lignans;Class: Cyclobutane lignans;
INCHIKEY:  SUYLTDFWHNXGDX-UHFFFAOYNA-N
SMILES:  OC(=O)C(CC1=CC(O)=C(O)C=C1)OC(=O)C1C(C(C1C1=CC(O)=C(O)C=C1)C1=CC(O)=C(O)C=C1)C(=O)OC(CC1=CC(O)=C(O)C=C1)C(O)=O
RETENTIONTIME:  
CCS:  268.5457192
IONMODE:  Negative
INSTRUMENTTYPE:  
INSTRUMENT:  Maxis II HD Q-TOF Bruker
COLLISIONENERGY:  
Comment:  DB#=CCMSLIB00000847009; origin=GNPS
Num Peaks:  18
123.04321	10.0
133.02779	50.0
135.04611	120.0
149.06216	10.0
161.02383	1000.0
162.02768	10.0
179.03534	130.0
187.03934	10.0
197.04584	190.0
243.06783	10.0
255.06517	10.0
297.07693	20.0
341.06717	60.0
359.0788	320.0
360.07471	20.0
539.12219	10.0
540.12292	10.0
719.16144	50.0

NAME:  NCGC00169252-03!4-(3,4-dihydroxyphenyl)-7-hydroxy-5-[(2S,3R,4S,5S,6R)-3,4,5-trihydroxy-6-(hydroxymethyl)oxan-2-yl]oxychromen-2-one
PRECURSORMZ:  447.09328501183
PRECURSORTYPE:  [M-H]-
FORMULA:  C21H20O11
Ontology: Kingdom: Organic compounds;Superclass: Phenylpropanoids and polyketides;Class: Coumarins and derivatives;Subclass: Coumarin glycosides
INCHIKEY:  VAPVFWUBNBLVMB-UHFFFAOYNA-N
SMILES:  OCC1OC(OC2=CC(O)=CC3=C2C(=CC(=O)O3)C2=CC(O)=C(O)C=C2)C(O)C(O)C1O
RETENTIONTIME:  
CCS:  211.5538295
IONMODE:  Negative
INSTRUMENTTYPE:  
INSTRUMENT:  Maxis II HD Q-TOF Bruker
COLLISIONENERGY:  
Comment:  DB#=CCMSLIB00000847011; origin=GNPS
Num Peaks:  5
174.06209	30.0
175.04041	50.0
241.04781	70.0
241.14114	20.0
285.03934	1000.0

NAME:  NCGC00169252-03!4-(3,4-dihydroxyphenyl)-7-hydroxy-5-[(2S,3R,4S,5S,6R)-3,4,5-trihydroxy-6-(hydroxymethyl)oxan-2-yl]oxychromen-2-one
PRECURSORMZ:  493.09876401183
PRECURSORTYPE:  [M+FA-H]-
FORMULA:  C21H20O11
Ontology: Kingdom: Organic compounds;Superclass: Phenylpropanoids and polyketides;Class: Coumarins and derivatives;Subclass: Coumarin glycosides
INCHIKEY:  VAPVFWUBNBLVMB-UHFFFAOYNA-N
SMILES:  OCC1OC(OC2=CC(O)=CC3=C2C(=CC(=O)O3)C2=CC(O)=C(O)C=C2)C(O)C(O)C1O
RETENTIONTIME:  
CCS:  -1
IONMODE:  Negative
INSTRUMENTTYPE:  
INSTRUMENT:  Maxis II HD Q-TOF Bruker
COLLISIONENERGY:  
Comment:  DB#=CCMSLIB00000847012; origin=GNPS
Num Peaks:  5
173.05708	10.0
175.04303	10.0
285.03903	1000.0
285.85468	10.0
447.10049	160.0

NAME:  NCGC00179829-02!(3S,4R)-3-[(3S,4R)-5,7-dihydroxy-4-(4-hydroxyphenyl)-2-oxo-3,4-dihydrochromen-3-yl]-5,7-dihydroxy-4-(4-hydroxyphenyl)-3,4-dihydrochromen-2-one
PRECURSORMZ:  587.11949945583
PRECURSORTYPE:  [M+FA-H]-
FORMULA:  C30H22O10
Ontology: Kingdom: Organic compounds;Superclass: Phenylpropanoids and polyketides;Class: Neoflavonoids;Subclass: Neoflavans
INCHIKEY:  WCAMADNGWUBZMH-UHFFFAOYNA-N
SMILES:  OC1=CC=C(C=C1)C1C(C2C(C3=CC=C(O)C=C3)C3=C(O)C=C(O)C=C3OC2=O)C(=O)OC2=CC(O)=CC(O)=C12
RETENTIONTIME:  
CCS:  -1
IONMODE:  Negative
INSTRUMENTTYPE:  
INSTRUMENT:  Maxis II HD Q-TOF Bruker
COLLISIONENERGY:  
Comment:  DB#=CCMSLIB00000847014; origin=GNPS
Num Peaks:  37
125.02072	10.0
136.20639	10.0
142.04404	20.0
145.02773	80.0
161.06184	20.0
177.01578	40.0
197.0715	10.0
217.01379	130.0
225.05052	10.0
229.052	1000.0
230.05591	20.0
231.5141	10.0
239.0741	30.0
243.03284	40.0
243.06699	10.0
254.05466	10.0
256.0325	10.0
257.08386	10.0
269.04462	90.0
281.04565	10.0
283.06778	30.0
293.04715	20.0
294.0621	10.0
311.05667	40.0
335.06158	20.0
343.09448	20.0
351.09848	10.0
353.03308	70.0
354.04108	10.0
361.07172	20.0
403.08154	10.0
411.12369	20.0
415.07648	60.0
419.07388	20.0
447.07559	240.0
497.12576	30.0
541.11481	250.0

NAME:  NCGC00169589-02!(2S,3S)-8-[(2R,3S)-5,7-dihydroxy-2-(4-hydroxyphenyl)-4-oxo-2,3-dihydrochromen-3-yl]-3,5,7-trihydroxy-2-(4-hydroxyphenyl)-2,3-dihydrochromen-4-one
PRECURSORMZ:  557.10893507583
PRECURSORTYPE:  [M-H]-
FORMULA:  C30H22O11
Ontology: Kingdom: Organic compounds;Superclass: Phenylpropanoids and polyketides;Class: Flavonoids;Subclass: Biflavonoids and polyflavonoids
INCHIKEY:  AFDANKUHSLVEBJ-UHFFFAOYNA-N
SMILES:  OC1C(OC2=C(C3C(OC4=CC(O)=CC(O)=C4C3=O)C3=CC=C(O)C=C3)C(O)=CC(O)=C2C1=O)C1=CC=C(O)C=C1
RETENTIONTIME:  
CCS:  249.9499756
IONMODE:  Negative
INSTRUMENTTYPE:  
INSTRUMENT:  Maxis II HD Q-TOF Bruker
COLLISIONENERGY:  
Comment:  DB#=CCMSLIB00000847017; origin=GNPS
Num Peaks:  53
90.98126	60.0
110.11317	20.0
125.02437	240.0
125.11958	10.0
151.00578	100.0
152.16249	20.0
201.06105	100.0
203.03886	130.0
205.78569	30.0
216.95811	20.0
217.03075	30.0
225.05621	30.0
245.00461	40.0
245.0479	10.0
253.056	30.0
259.05807	20.0
268.03491	60.0
268.44427	40.0
268.81491	20.0
269.04617	330.0
270.05597	20.0
285.19614	20.0
285.68881	10.0
287.06253	40.0
295.04532	40.0
296.03308	150.0
296.28998	40.0
297.04242	20.0
306.03751	30.0
309.04608	30.0
319.0907	40.0
324.0199	30.0
325.03595	40.0
349.06589	30.0
353.06287	30.0
357.10745	30.0
359.08481	50.0
377.10147	20.0
391.08289	20.0
401.28644	20.0
401.944	20.0
403.08194	980.0
404.86411	10.0
405.10486	60.0
431.07877	1000.0
432.07935	80.0
451.07349	50.0
463.07053	40.0
539.1156	20.0
555.90277	20.0
557.10809	360.0
624.97705	10.0
1522.77429	10.0

NAME:  NCGC00169589-02!(2S,3S)-8-[(2R,3S)-5,7-dihydroxy-2-(4-hydroxyphenyl)-4-oxo-2,3-dihydrochromen-3-yl]-3,5,7-trihydroxy-2-(4-hydroxyphenyl)-2,3-dihydrochromen-4-one
PRECURSORMZ:  539.09837039583
PRECURSORTYPE:  [M-H2O-H]-
FORMULA:  C30H22O11
Ontology: Kingdom: Organic compounds;Superclass: Phenylpropanoids and polyketides;Class: Flavonoids;Subclass: Biflavonoids and polyflavonoids
INCHIKEY:  AFDANKUHSLVEBJ-UHFFFAOYNA-N
SMILES:  OC1C(OC2=C(C3C(OC4=CC(O)=CC(O)=C4C3=O)C3=CC=C(O)C=C3)C(O)=CC(O)=C2C1=O)C1=CC=C(O)C=C1
RETENTIONTIME:  
CCS:  -1
IONMODE:  Negative
INSTRUMENTTYPE:  
INSTRUMENT:  Maxis II HD Q-TOF Bruker
COLLISIONENERGY:  
Comment:  DB#=CCMSLIB00000847018; origin=GNPS
Num Peaks:  1
269.04568	1000.0

NAME:  NCGC00169589-02!(2S,3S)-8-[(2R,3S)-5,7-dihydroxy-2-(4-hydroxyphenyl)-4-oxo-2,3-dihydrochromen-3-yl]-3,5,7-trihydroxy-2-(4-hydroxyphenyl)-2,3-dihydrochromen-4-one
PRECURSORMZ:  603.11441407583
PRECURSORTYPE:  [M+FA-H]-
FORMULA:  C30H22O11
Ontology: Kingdom: Organic compounds;Superclass: Phenylpropanoids and polyketides;Class: Flavonoids;Subclass: Biflavonoids and polyflavonoids
INCHIKEY:  AFDANKUHSLVEBJ-UHFFFAOYNA-N
SMILES:  OC1C(OC2=C(C3C(OC4=CC(O)=CC(O)=C4C3=O)C3=CC=C(O)C=C3)C(O)=CC(O)=C2C1=O)C1=CC=C(O)C=C1
RETENTIONTIME:  
CCS:  -1
IONMODE:  Negative
INSTRUMENTTYPE:  
INSTRUMENT:  Maxis II HD Q-TOF Bruker
COLLISIONENERGY:  
Comment:  DB#=CCMSLIB00000847021; origin=GNPS
Num Peaks:  6
268.03836	150.0
282.11401	20.0
282.3757	20.0
282.77158	50.0
282.90717	20.0
283.06	1000.0

NAME:  NCGC00384554-01![(2R,3R,4R,5R,6R)-6-[2-(3,4-dihydroxyphenyl)ethoxy]-5-hydroxy-4-[(2S,3R,4R,5R,6S)-3,4,5-trihydroxy-6-methyloxan-2-yl]oxy-2-[[(2S,3R,4S,5S)-3,4,5-trihydroxyoxan-2-yl]oxymethyl]oxan-3-yl] (E)-3-(3,4-dihydroxyphenyl)prop-2-enoate
PRECURSORMZ:  755.24040274483
PRECURSORTYPE:  [M-H]-
FORMULA:  C34H44O19
Ontology: ;;;
INCHIKEY:  XPLMUADTACCMDJ-UHFFFAOYNA-N
SMILES:  CC1OC(OC2C(O)C(OCCC3=CC(O)=C(O)C=C3)OC(COC3OCC(O)C(O)C3O)C2OC(=O)C=CC2=CC(O)=C(O)C=C2)C(O)C(O)C1O
RETENTIONTIME:  
CCS:  272.6695212
IONMODE:  Negative
INSTRUMENTTYPE:  
INSTRUMENT:  Maxis II HD Q-TOF Bruker
COLLISIONENERGY:  
Comment:  DB#=CCMSLIB00000847023; origin=GNPS
Num Peaks:  21
113.02542	40.0
132.02057	20.0
133.0298	130.0
134.03789	10.0
135.04373	100.0
137.02744	10.0
153.05386	20.0
160.74721	10.0
161.02362	1000.0
162.02846	40.0
177.02429	10.0
179.03429	80.0
191.05623	20.0
297.09641	20.0
315.10669	30.0
367.11996	10.0
461.16434	50.0
593.20941	190.0
594.20715	10.0
755.23627	970.0
756.24774	170.0

NAME:  NCGC00347649-02!
PRECURSORMZ:  425.12419121583
PRECURSORTYPE:  [M-H]-
FORMULA:  C23H22O8
Ontology: ;;;
INCHIKEY:  JCJPVNDLAAXNEX-UHFFFAOYNA-N
SMILES:  COC1=C(OC)C=C2C(OCC3OC4=C(C(O)=CC5=C4CC(O5)C(C)=C)C(=O)C23O)=C1
RETENTIONTIME:  
CCS:  217.4068861
IONMODE:  Negative
INSTRUMENTTYPE:  
INSTRUMENT:  Maxis II HD Q-TOF Bruker
COLLISIONENERGY:  
Comment:  DB#=CCMSLIB00000847025; origin=GNPS
Num Peaks:  7
149.06053	190.0
191.07513	260.0
217.04958	1000.0
307.99768	70.0
367.10858	130.0
425.12741	290.0
1748.49414	270.0

NAME:  NCGC00347590-02!9,11,12a-trihydroxy-2,3-dimethoxy-8-(3-methylbut-2-enyl)-6,6a-dihydrochromeno[3,4-b]chromen-12-one
PRECURSORMZ:  427.13984128083
PRECURSORTYPE:  [M-H]-
FORMULA:  C23H24O8
Ontology: Kingdom: Organic compounds;Superclass: Phenylpropanoids and polyketides;Class: Isoflavonoids;Subclass: Rotenoids
INCHIKEY:  LAUJMTGOOIBBOB-UHFFFAOYNA-N
SMILES:  COC1=C(OC)C=C2C(OCC3OC4=C(CC=C(C)C)C(O)=CC(O)=C4C(=O)C23O)=C1
RETENTIONTIME:  
CCS:  -1
IONMODE:  Negative
INSTRUMENTTYPE:  
INSTRUMENT:  Maxis II HD Q-TOF Bruker
COLLISIONENERGY:  
Comment:  DB#=CCMSLIB00000847026; origin=GNPS
Num Peaks:  26
119.73853	20.0
133.07179	30.0
152.00212	50.0
177.01758	90.0
190.06612	40.0
190.99545	20.0
191.03557	40.0
192.07675	30.0
203.8479	20.0
207.06242	20.0
218.06117	20.0
219.06387	70.0
236.21161	20.0
237.07484	20.0
250.04071	20.0
258.08023	20.0
323.05441	20.0
339.08466	40.0
369.09036	30.0
397.09225	240.0
411.09778	40.0
412.1131	40.0
412.14999	20.0
426.33286	20.0
427.13809	1000.0
428.14554	20.0

NAME:  NCGC00384734-01!1-[2,4,6-trihydroxy-3-[7-hydroxy-2-(4-hydroxyphenyl)-3,4-dihydro-2H-chromen-4-yl]phenyl]dodecan-1-one
PRECURSORMZ:  547.27012717583
PRECURSORTYPE:  [M-H]-
FORMULA:  C33H40O7
Ontology: Kingdom: Organic compounds;Superclass: Phenylpropanoids and polyketides;Class: Flavonoids;Subclass: Hydroxyflavonoids
INCHIKEY:  JGXZVDAPLSTBGZ-UHFFFAOYNA-N
SMILES:  CCCCCCCCCCCC(=O)C1=C(O)C=C(O)C(C2CC(OC3=C2C=CC(O)=C3)C2=CC=C(O)C=C2)=C1O
RETENTIONTIME:  
CCS:  259.8837828
IONMODE:  Negative
INSTRUMENTTYPE:  
INSTRUMENT:  Maxis II HD Q-TOF Bruker
COLLISIONENERGY:  
Comment:  DB#=CCMSLIB00000847029; origin=GNPS
Num Peaks:  26
107.00977	100.0
134.04276	100.0
135.04539	240.0
136.25491	30.0
161.02397	340.0
161.43016	50.0
177.05246	60.0
203.0338	250.0
221.18898	50.0
223.16809	20.0
239.06953	590.0
255.08934	60.0
261.18958	40.0
284.99786	60.0
307.1897	740.0
331.19003	80.0
339.2431	60.0
341.19424	90.0
365.25067	60.0
383.21249	60.0
427.21603	170.0
437.23196	370.0
437.27322	80.0
438.23651	60.0
547.26569	1000.0
1906.36279	110.0

NAME:  NCGC00384733-01![(2R,3S,4S,5R,6S)-6-[4-[(E)-3-(2,4-dihydroxyphenyl)-3-oxoprop-1-enyl]phenoxy]-3,4,5-trihydroxyoxan-2-yl]methyl (E)-3-(4-hydroxyphenyl)prop-2-enoate
PRECURSORMZ:  563.15588526983
PRECURSORTYPE:  [M-H]-
FORMULA:  C30H28O11
Ontology: Kingdom: Organic compounds;Superclass: Phenylpropanoids and polyketides;Class: Flavonoids;Subclass: Flavonoid glycosides
INCHIKEY:  FCYCVETXTGWXBR-UHFFFAOYNA-N
SMILES:  OC1C(COC(=O)C=CC2=CC=C(O)C=C2)OC(OC2=CC=C(C=CC(=O)C3=C(O)C=C(O)C=C3)C=C2)C(O)C1O
RETENTIONTIME:  
CCS:  -1
IONMODE:  Negative
INSTRUMENTTYPE:  
INSTRUMENT:  Maxis II HD Q-TOF Bruker
COLLISIONENERGY:  
Comment:  DB#=CCMSLIB00000847030; origin=GNPS
Num Peaks:  22
103.06611	10.0
113.0318	20.0
119.05243	130.0
119.09924	10.0
134.98552	20.0
135.007	150.0
137.14078	10.0
139.20781	10.0
140.17442	30.0
145.02805	280.0
153.01802	180.0
154.605	10.0
255.06555	1000.0
256.06372	20.0
257.55322	20.0
297.08057	20.0
307.08649	40.0
339.08899	10.0
417.12152	30.0
441.08667	20.0
563.15387	560.0
980.11505	10.0

NAME:  NCGC00384749-01!2-[[5-(4-hydroxy-3,5-dimethoxyphenyl)-6,7-bis(hydroxymethyl)-1,3-dimethoxy-5,6,7,8-tetrahydronaphthalen-2-yl]oxy]-6-(hydroxymethyl)oxane-3,4,5-triol
PRECURSORMZ:  627.22944383183
PRECURSORTYPE:  [M+FA-H]-
FORMULA:  C28H38O13
Ontology: Kingdom: Organic compounds;Superclass: Lignans;Class: Lignan glycosides;
INCHIKEY:  MLMDACHSXKCQIF-UHFFFAOYNA-N
SMILES:  COC1=CC(=CC(OC)=C1O)C1C(CO)C(CO)CC2=C(OC)C(OC3OC(CO)C(O)C(O)C3O)=C(OC)C=C12
RETENTIONTIME:  
CCS:  -1
IONMODE:  Negative
INSTRUMENTTYPE:  
INSTRUMENT:  Maxis II HD Q-TOF Bruker
COLLISIONENERGY:  
Comment:  DB#=CCMSLIB00000847033; origin=GNPS
Num Peaks:  12
177.05652	20.0
207.3797	20.0
237.07433	10.0
327.07767	20.0
331.12473	20.0
344.09613	20.0
359.11053	120.0
373.13235	70.0
389.12082	100.0
404.1525	260.0
419.17023	1000.0
1046.42554	10.0

NAME:  NCGC00169031-03![6-(2-formamido-3-methylbutanoyl)oxy-2,3,4,5-tetrahydroxyhexyl] 2-formamido-3-methylbutanoate
PRECURSORMZ:  481.20389778583
PRECURSORTYPE:  [M+FA-H]-
FORMULA:  C18H32N2O10
Ontology: Kingdom: Organic compounds;Superclass: Organic acids and derivatives;Class: Carboxylic acids and derivatives;Subclass: Amino acids
INCHIKEY:  DORNRAAPIXGDPH-UHFFFAOYNA-N
SMILES:  CC(C)C(N=CO)C(=O)OCC(O)C(O)C(O)C(O)COC(=O)C(N=CO)C(C)C
RETENTIONTIME:  
CCS:  -1
IONMODE:  Negative
INSTRUMENTTYPE:  
INSTRUMENT:  Maxis II HD Q-TOF Bruker
COLLISIONENERGY:  
Comment:  DB#=CCMSLIB00000847034; origin=GNPS
Num Peaks:  2
143.93018	10.0
144.06728	1000.0

NAME:  NCGC00169113-03!2-[(2R,4aS,8S,8aS)-8-[2-[(4aS,7R,8aR)-7-(1-carboxyethenyl)-1-hydroxy-4a-methyl-2-oxo-6,7,8,8a-tetrahydro-5H-naphthalen-1-yl]ethyl]-4a-methyl-7-oxo-1,2,3,4,8,8a-hexahydronaphthalen-2-yl]prop-2-enoic acid
PRECURSORMZ:  509.25447711183
PRECURSORTYPE:  [M-H]-
FORMULA:  C30H38O7
Ontology: ;;;
INCHIKEY:  BSSWIRVAMSGQMG-UHFFFAOYNA-N
SMILES:  CC12CCC(CC1C(CCC1(O)C3CC(CCC3(C)C=CC1=O)C(=C)C(O)=O)C(=O)C=C2)C(=C)C(O)=O
RETENTIONTIME:  
CCS:  -1
IONMODE:  Negative
INSTRUMENTTYPE:  
INSTRUMENT:  Maxis II HD Q-TOF Bruker
COLLISIONENERGY:  
Comment:  DB#=CCMSLIB00000847036; origin=GNPS
Num Peaks:  11
95.08588	10.0
161.09383	10.0
175.10947	20.0
189.12878	20.0
190.93579	10.0
201.12352	10.0
230.09726	10.0
230.82011	10.0
465.26245	100.0
508.52374	10.0
509.25537	1000.0

NAME:  NCGC00169733-03!(4S,5Z,6S)-4-(2-methoxy-2-oxoethyl)-5-[2-[(E)-3-phenylprop-2-enoyl]oxyethylidene]-6-[(2S,3R,4S,5S,6R)-3,4,5-trihydroxy-6-(hydroxymethyl)oxan-2-yl]oxy-4H-pyran-3-carboxylic acid
PRECURSORMZ:  549.16136457383
PRECURSORTYPE:  [M-H]-
FORMULA:  C26H30O13
Ontology: Kingdom: Organic compounds;Superclass: Lipids and lipid;Class: Prenol lipids;Subclass: Terpene glycosides
INCHIKEY:  JGHUOJAZXGSFRI-UHFFFAOYNA-N
SMILES:  COC(=O)CC1C(=CCOC(=O)C=CC2=CC=CC=C2)C(OC2OC(CO)C(O)C(O)C2O)OC=C1C(O)=O
RETENTIONTIME:  
CCS:  227.1963136
IONMODE:  Negative
INSTRUMENTTYPE:  
INSTRUMENT:  Maxis II HD Q-TOF Bruker
COLLISIONENERGY:  
Comment:  DB#=CCMSLIB00000847039; origin=GNPS
Num Peaks:  25
72.17317	20.0
104.65812	20.0
113.03058	30.0
121.02837	80.0
123.01023	50.0
127.03752	40.0
145.0376	180.0
146.68234	20.0
147.04353	370.0
161.0313	40.0
163.03999	220.0
164.81419	20.0
165.0155	40.0
176.83981	40.0
176.91374	10.0
177.02509	20.0
177.05641	1000.0
179.31606	30.0
195.0658	300.0
208.05321	40.0
221.04546	540.0
237.07098	20.0
387.10513	30.0
401.11734	20.0
423.42053	20.0

NAME:  NCGC00347745-02!
PRECURSORMZ:  597.19774977783
PRECURSORTYPE:  [M+FA-H]-
FORMULA:  C30H32O10
Ontology: Kingdom: Organic compounds;Superclass: Organoheterocyclic compounds;Class: Naphthopyrans;Subclass: Naphthopyranones
INCHIKEY:  XQJFWXFZEDKVQR-UHFFFAOYNA-N
SMILES:  CC1OC=C2C(=O)C3(OC3C(=O)C22C3OC(C)C(C12)C1=C3C(=O)C2(OC2C1=O)C(O)C=C(C)C)C(O)C=C(C)C
RETENTIONTIME:  
CCS:  -1
IONMODE:  Negative
INSTRUMENTTYPE:  
INSTRUMENT:  Maxis II HD Q-TOF Bruker
COLLISIONENERGY:  
Comment:  DB#=CCMSLIB00000847041; origin=GNPS
Num Peaks:  42
91.66709	40.0
92.79025	10.0
95.04823	50.0
103.05358	40.0
107.05018	60.0
119.04735	120.0
147.04378	330.0
151.03955	90.0
163.03972	10.0
165.04929	170.0
176.00703	30.0
178.02219	50.0
179.03889	50.0
181.05038	50.0
189.01605	40.0
190.02782	60.0
191.03564	1000.0
192.03581	10.0
193.04744	120.0
193.10191	20.0
200.09132	40.0
206.05942	30.0
227.03235	60.0
241.08548	40.0
247.12111	40.0
257.07443	70.0
259.10623	50.0
261.11835	50.0
275.09103	100.0
299.1279	20.0
306.05597	40.0
311.09991	50.0
321.11807	30.0
330.0972	80.0
336.02386	30.0
355.07428	20.0
400.07739	30.0
407.12692	50.0
420.05728	50.0
452.14215	30.0
467.12439	30.0
469.15054	30.0

NAME:  NCGC00385057-01!
PRECURSORMZ:  633.07333741583
PRECURSORTYPE:  [M-H]-
FORMULA:  C27H22O18
Ontology: Kingdom: Organic compounds;Superclass: Phenylpropanoids and polyketides;Class: Tannins;Subclass: Hydrolyzable tannins
INCHIKEY:  TUSDEZXZIZRFGC-UHFFFAOYNA-N
SMILES:  [H]C12COC(=O)C3=CC(O)=C(O)C(O)=C3C3=C(O)C(O)=C(O)C=C3C(=O)OC([H])(C(O)C(OC(=O)C3=CC(O)=C(O)C(O)=C3)O1)C2O
RETENTIONTIME:  
CCS:  226.2698533
IONMODE:  Negative
INSTRUMENTTYPE:  
INSTRUMENT:  Maxis II HD Q-TOF Bruker
COLLISIONENERGY:  
Comment:  DB#=CCMSLIB00000847042; origin=GNPS
Num Peaks:  38
125.02343	10.0
132.23056	10.0
163.03928	10.0
173.03784	10.0
195.03519	10.0
201.02727	20.0
203.04414	10.0
217.01564	10.0
221.03384	10.0
229.01884	30.0
235.01799	10.0
245.00699	30.0
247.03735	20.0
249.03947	20.0
255.02654	20.0
257.00723	10.0
258.00873	20.0
273.004	110.0
274.01532	20.0
275.01996	140.0
282.05396	20.0
299.06418	20.0
299.98941	20.0
300.99814	740.0
329.02896	60.0
330.0354	10.0
331.05118	20.0
334.01395	20.0
359.04831	10.0
401.05566	20.0
419.06348	60.0
437.05307	20.0
463.05408	240.0
464.05539	10.0
481.11612	10.0
615.05743	10.0
633.07153	1000.0
633.18286	10.0

NAME:  NCGC00380677-01!5,7-dihydroxy-2-(4-hydroxy-3-methoxyphenyl)-6-(3-methylbut-2-enyl)-2,3-dihydrochromen-4-one
PRECURSORMZ:  369.13436197583
PRECURSORTYPE:  [M-H]-
FORMULA:  C21H22O6
Ontology: Kingdom: Organic compounds;Superclass: Phenylpropanoids and polyketides;Class: Flavonoids;Subclass: Flavans
INCHIKEY:  GWVGVAPNTKLROZ-UHFFFAOYNA-N
SMILES:  COC1=C(O)C=CC(=C1)C1CC(=O)C2=C(O1)C=C(O)C(CC=C(C)C)=C2O
RETENTIONTIME:  
CCS:  215.0221779
IONMODE:  Negative
INSTRUMENTTYPE:  
INSTRUMENT:  Maxis II HD Q-TOF Bruker
COLLISIONENERGY:  
Comment:  DB#=CCMSLIB00000847045; origin=GNPS
Num Peaks:  13
133.06647	260.0
135.05351	240.0
135.12718	80.0
147.04556	80.0
149.06136	90.0
163.00456	170.0
219.07501	420.0
245.07864	170.0
264.06644	160.0
325.15213	170.0
369.13977	1000.0
369.19724	120.0
372.55914	170.0

NAME:  NCGC00380680-01!5-hydroxy-3-[(2S,3R,4R,5S)-3-hydroxy-5-(hydroxymethyl)-4-[(2S,3R,4S,5S,6R)-3,4,5-trihydroxy-6-(hydroxymethyl)oxan-2-yl]oxyoxolan-2-yl]oxy-2-(4-hydroxyphenyl)-7-[(2S,3R,4R,5R,6S)-3,4,5-trihydroxy-6-methyloxan-2-yl]oxychromen-4-one
PRECURSORMZ:  725.19345255183
PRECURSORTYPE:  [M-H]-
FORMULA:  C32H38O19
Ontology: Kingdom: Organic compounds;Superclass: Phenylpropanoids and polyketides;Class: Flavonoids;Subclass: Flavonoid glycosides
INCHIKEY:  LKVIDBLGZHMPCV-UHFFFAOYNA-N
SMILES:  CC1OC(OC2=CC(O)=C3C(=O)C(OC4OC(CO)C(OC5OC(CO)C(O)C(O)C5O)C4O)=C(OC3=C2)C2=CC=C(O)C=C2)C(O)C(O)C1O
RETENTIONTIME:  
CCS:  -1
IONMODE:  Negative
INSTRUMENTTYPE:  
INSTRUMENT:  Maxis II HD Q-TOF Bruker
COLLISIONENERGY:  
Comment:  DB#=CCMSLIB00000847046; origin=GNPS
Num Peaks:  19
104.58163	10.0
163.00233	10.0
213.05783	20.0
227.03435	30.0
229.04944	20.0
255.03198	40.0
277.62979	10.0
281.04831	20.0
283.02716	90.0
284.03275	80.0
285.04175	1000.0
286.03159	20.0
430.09964	20.0
431.10062	370.0
560.27216	20.0
579.13586	350.0
580.13763	20.0
725.19458	90.0
726.1897	10.0

NAME:  NCGC00380680-01!5-hydroxy-3-[(2S,3R,4R,5S)-3-hydroxy-5-(hydroxymethyl)-4-[(2S,3R,4S,5S,6R)-3,4,5-trihydroxy-6-(hydroxymethyl)oxan-2-yl]oxyoxolan-2-yl]oxy-2-(4-hydroxyphenyl)-7-[(2S,3R,4R,5R,6S)-3,4,5-trihydroxy-6-methyloxan-2-yl]oxychromen-4-one
PRECURSORMZ:  771.19893155183
PRECURSORTYPE:  [M+FA-H]-
FORMULA:  C32H38O19
Ontology: Kingdom: Organic compounds;Superclass: Phenylpropanoids and polyketides;Class: Flavonoids;Subclass: Flavonoid glycosides
INCHIKEY:  LKVIDBLGZHMPCV-UHFFFAOYNA-N
SMILES:  CC1OC(OC2=CC(O)=C3C(=O)C(OC4OC(CO)C(OC5OC(CO)C(O)C(O)C5O)C4O)=C(OC3=C2)C2=CC=C(O)C=C2)C(O)C(O)C1O
RETENTIONTIME:  
CCS:  -1
IONMODE:  Negative
INSTRUMENTTYPE:  
INSTRUMENT:  Maxis II HD Q-TOF Bruker
COLLISIONENERGY:  
Comment:  DB#=CCMSLIB00000847049; origin=GNPS
Num Peaks:  21
165.69762	10.0
178.99973	10.0
185.06728	10.0
187.35339	10.0
227.0334	40.0
239.03546	10.0
255.03226	50.0
257.05072	10.0
283.0256	100.0
284.03592	160.0
285.0408	1000.0
286.03958	20.0
430.09589	30.0
431.05408	10.0
431.10141	320.0
432.09573	40.0
579.13831	370.0
580.14166	50.0
725.19751	210.0
726.19629	40.0
751.3576	10.0

NAME:  NCGC00384803-01!2,4-dihydroxy-3-[(E)-4-hydroxy-3-methyl-5-(1,2,6-trimethyl-3-oxocyclohexyl)pent-2-enyl]-6-methylbenzaldehyde
PRECURSORMZ:  387.21769767783
PRECURSORTYPE:  [M-H]-
FORMULA:  C23H32O5
Ontology: Kingdom: Organic compounds;Superclass: Organic oxygen compounds;Class: Organooxygen compounds;Subclass: Carbonyl compounds
INCHIKEY:  BQAWIDAQBDWCGH-UHFFFAOYNA-N
SMILES:  CC1CCC(=O)C(C)C1(C)CC(O)C(C)=CCC1=C(O)C=C(C)C(C=O)=C1O
RETENTIONTIME:  
CCS:  -1
IONMODE:  Negative
INSTRUMENTTYPE:  
INSTRUMENT:  Maxis II HD Q-TOF Bruker
COLLISIONENERGY:  
Comment:  DB#=CCMSLIB00000847051; origin=GNPS
Num Peaks:  8
136.05437	110.0
165.61499	40.0
175.03917	90.0
205.08269	330.0
369.19907	20.0
387.21829	1000.0
387.36615	30.0
405.67834	90.0

NAME:  NCGC00384802-01!5,7-dihydroxy-2-(4-hydroxyphenyl)-3-[(2S,3R,4S,5R)-3,4,5-trihydroxyoxan-2-yl]oxychromen-4-one
PRECURSORMZ:  417.08272032783
PRECURSORTYPE:  [M-H]-
FORMULA:  C20H18O10
Ontology: Kingdom: Organic compounds;Superclass: Phenylpropanoids and polyketides;Class: Flavonoids;Subclass: Flavonoid glycosides
INCHIKEY:  RNVUDWOQYYWXBJ-UHFFFAOYNA-N
SMILES:  OC1COC(OC2=C(OC3=CC(O)=CC(O)=C3C2=O)C2=CC=C(O)C=C2)C(O)C1O
RETENTIONTIME:  
CCS:  194.2118837
IONMODE:  Negative
INSTRUMENTTYPE:  
INSTRUMENT:  Maxis II HD Q-TOF Bruker
COLLISIONENERGY:  
Comment:  DB#=CCMSLIB00000847053; origin=GNPS
Num Peaks:  10
93.03325	110.0
125.88402	90.0
151.00409	110.0
178.99881	60.0
205.01131	100.0
227.03656	270.0
255.03004	420.0
284.0311	840.0
285.03769	280.0
417.08258	1000.0

NAME:  NCGC00384833-01!1,3,6,7-tetrahydroxy-2-[(2S,3R,4R,5S,6R)-3,4,5-trihydroxy-6-(hydroxymethyl)oxan-2-yl]xanthen-9-one
PRECURSORMZ:  421.07763494783
PRECURSORTYPE:  [M-H]-
FORMULA:  C19H18O11
Ontology: Kingdom: Organic compounds;Superclass: Organoheterocyclic compounds;Class: Benzopyrans;
INCHIKEY:  AEDDIBAIWPIIBD-UHFFFAOYNA-N
SMILES:  OCC1OC(C(O)C(O)C1O)C1=C(O)C2=C(OC3=C(C=C(O)C(O)=C3)C2=O)C=C1O
RETENTIONTIME:  
CCS:  196.0031985
IONMODE:  Negative
INSTRUMENTTYPE:  
INSTRUMENT:  Maxis II HD Q-TOF Bruker
COLLISIONENERGY:  
Comment:  DB#=CCMSLIB00000847055; origin=GNPS
Num Peaks:  9
258.01654	280.0
259.01517	170.0
271.02451	280.0
273.05594	130.0
301.03467	1000.0
301.07913	190.0
331.05554	990.0
403.07864	480.0
421.0769	970.0

NAME:  NCGC00384830-01!3-[5,7-dihydroxy-2-(4-methoxyphenyl)-4-oxo-2,3-dihydrochromen-3-yl]-5,7-dihydroxy-2-(4-methoxyphenyl)-2,3-dihydrochromen-4-one
PRECURSORMZ:  569.14532058483
PRECURSORTYPE:  [M-H]-
FORMULA:  C32H26O10
Ontology: Kingdom: Organic compounds;Superclass: Phenylpropanoids and polyketides;Class: Flavonoids;Subclass: Biflavonoids and polyflavonoids
INCHIKEY:  BTCICADMSGBCKA-UHFFFAOYNA-N
SMILES:  COC1=CC=C(C=C1)C1OC2=CC(O)=CC(O)=C2C(=O)C1C1C(OC2=CC(O)=CC(O)=C2C1=O)C1=CC=C(OC)C=C1
RETENTIONTIME:  
CCS:  256.048302
IONMODE:  Negative
INSTRUMENTTYPE:  
INSTRUMENT:  Maxis II HD Q-TOF Bruker
COLLISIONENERGY:  
Comment:  DB#=CCMSLIB00000847056; origin=GNPS
Num Peaks:  23
125.02232	1000.0
151.00555	160.0
237.07875	50.0
242.06662	70.0
243.06616	70.0
315.10126	70.0
325.05936	40.0
325.08508	60.0
331.13092	180.0
341.12851	100.0
346.07187	70.0
358.12738	70.0
404.073	70.0
414.68231	40.0
415.11725	110.0
415.15933	100.0
417.11621	100.0
443.10434	440.0
448.08081	70.0
465.11182	50.0
483.1481	130.0
569.14325	330.0
573.45508	30.0

NAME:  NCGC00384824-01!methyl 3-hydroxy-2-[[3-hydroxy-2-[[2-[(3-hydroxy-2,4-dimethyltetradecanoyl)amino]-3-methylbutanoyl]amino]butanoyl]amino]propanoate
PRECURSORMZ:  608.3683170029
PRECURSORTYPE:  [M+Cl]-
FORMULA:  C29H55N3O8
Ontology: Kingdom: Organic compounds;Superclass: Organic acids and derivatives;Class: Carboxylic acids and derivatives;Subclass: Amino acids
INCHIKEY:  AKMKWHBDPUOPSK-UHFFFAOYNA-N
SMILES:  CCCCCCCCCCC(C)C(O)C(C)C(O)=NC(C(C)C)C(O)=NC(C(C)O)C(O)=NC(CO)C(=O)OC
RETENTIONTIME:  
CCS:  -1
IONMODE:  Negative
INSTRUMENTTYPE:  
INSTRUMENT:  Maxis II HD Q-TOF Bruker
COLLISIONENERGY:  
Comment:  DB#=CCMSLIB00000847061; origin=GNPS
Num Peaks:  18
113.03552	130.0
131.03969	120.0
153.09833	150.0
171.11601	170.0
182.71046	80.0
212.09923	130.0
229.1192	170.0
268.12653	540.0
280.12817	530.0
300.15634	1000.0
301.15906	100.0
344.18484	80.0
369.29639	60.0
478.33362	120.0
496.34338	230.0
498.36148	180.0
510.34875	100.0
540.35437	100.0

NAME:  NCGC00384824-01!methyl 3-hydroxy-2-[[3-hydroxy-2-[[2-[(3-hydroxy-2,4-dimethyltetradecanoyl)amino]-3-methylbutanoyl]amino]butanoyl]amino]propanoate
PRECURSORMZ:  618.39711829083
PRECURSORTYPE:  [M+FA-H]-
FORMULA:  C29H55N3O8
Ontology: Kingdom: Organic compounds;Superclass: Organic acids and derivatives;Class: Carboxylic acids and derivatives;Subclass: Amino acids
INCHIKEY:  AKMKWHBDPUOPSK-UHFFFAOYNA-N
SMILES:  CCCCCCCCCCC(C)C(O)C(C)C(O)=NC(C(C)C)C(O)=NC(C(C)O)C(O)=NC(CO)C(=O)OC
RETENTIONTIME:  
CCS:  -1
IONMODE:  Negative
INSTRUMENTTYPE:  
INSTRUMENT:  Maxis II HD Q-TOF Bruker
COLLISIONENERGY:  
Comment:  DB#=CCMSLIB00000847063; origin=GNPS
Num Peaks:  55
98.02142	30.0
109.73351	10.0
113.03654	120.0
115.08385	60.0
125.03471	140.0
141.0641	20.0
143.04347	10.0
145.05856	20.0
145.34279	10.0
149.33699	10.0
153.09831	20.0
154.0864	80.0
169.09636	50.0
171.11288	270.0
180.11475	20.0
183.125	10.0
221.12202	10.0
222.17813	10.0
224.09303	30.0
224.14014	30.0
225.12013	40.0
227.10336	20.0
233.53967	10.0
244.12976	70.0
267.75937	20.0
268.12735	360.0
270.24042	10.0
280.1297	110.0
296.82022	10.0
298.14029	10.0
300.15613	1000.0
301.15527	20.0
312.15717	270.0
330.16577	30.0
344.18161	110.0
351.00101	10.0
352.28491	50.0
369.32074	30.0
374.19202	40.0
436.24261	10.0
453.29916	10.0
466.3298	210.0
467.34668	10.0
478.32419	150.0
480.3425	20.0
496.33789	80.0
497.3364	20.0
498.35519	140.0
510.35556	70.0
528.35413	10.0
533.32556	10.0
540.36108	30.0
542.38293	190.0
554.37445	30.0
572.38849	170.0

NAME:  NCGC00384822-01![(2R,3S,4S,5R,6S)-3,4-dihydroxy-5,6-bis[(3,4,5-trihydroxybenzoyl)oxy]oxan-2-yl]methyl 3,4,5-trihydroxybenzoate
PRECURSORMZ:  635.08898748083
PRECURSORTYPE:  [M-H]-
FORMULA:  C27H24O18
Ontology: ;;;
INCHIKEY:  LLENXGNWVNSBQG-UHFFFAOYNA-N
SMILES:  OC1C(O)C(OC(=O)C2=CC(O)=C(O)C(O)=C2)C(OC(=O)C2=CC(O)=C(O)C(O)=C2)OC1COC(=O)C1=CC(O)=C(O)C(O)=C1
RETENTIONTIME:  
CCS:  225.5529243
IONMODE:  Negative
INSTRUMENTTYPE:  
INSTRUMENT:  Maxis II HD Q-TOF Bruker
COLLISIONENERGY:  
Comment:  DB#=CCMSLIB00000847065; origin=GNPS
Num Peaks:  25
123.00627	20.0
125.0248	110.0
151.00301	60.0
166.99419	10.0
168.00447	40.0
169.01421	360.0
171.34927	10.0
190.85725	10.0
191.03644	20.0
193.00795	10.0
211.02658	40.0
217.42575	10.0
222.0098	20.0
241.0341	20.0
295.04297	20.0
297.05582	30.0
311.10745	10.0
313.05463	260.0
463.33374	20.0
464.91034	10.0
465.06546	1000.0
468.9715	10.0
483.07336	40.0
483.12094	10.0
635.0921	70.0

NAME:  NCGC00384822-01![(2R,3S,4S,5R,6S)-3,4-dihydroxy-5,6-bis[(3,4,5-trihydroxybenzoyl)oxy]oxan-2-yl]methyl 3,4,5-trihydroxybenzoate
PRECURSORMZ:  671.0656651929
PRECURSORTYPE:  [M+Cl]-
FORMULA:  C27H24O18
Ontology: Kingdom: Organic compounds;Superclass: Phenylpropanoids and polyketides;Class: Tannins;
INCHIKEY:  LLENXGNWVNSBQG-UHFFFAOYNA-N
SMILES:  OC1C(O)C(OC(=O)C2=CC(O)=C(O)C(O)=C2)C(OC(=O)C2=CC(O)=C(O)C(O)=C2)OC1COC(=O)C1=CC(O)=C(O)C(O)=C1
RETENTIONTIME:  
CCS:  -1
IONMODE:  Negative
INSTRUMENTTYPE:  
INSTRUMENT:  Maxis II HD Q-TOF Bruker
COLLISIONENERGY:  
Comment:  DB#=CCMSLIB00000847067; origin=GNPS
Num Peaks:  10
125.023	140.0
164.0032	100.0
167.02913	70.0
169.01109	240.0
211.02109	120.0
310.69006	130.0
313.06409	350.0
465.064	1000.0
634.25189	80.0
635.08014	490.0

NAME:  NCGC00380272-01!5,8-dihydroxy-6-methoxy-7-[(2S,3R,4S,5S,6R)-3,4,5-trihydroxy-6-(hydroxymethyl)oxan-2-yl]oxychromen-2-one
PRECURSORMZ:  385.07763494783
PRECURSORTYPE:  [M-H]-
FORMULA:  C16H18O11
Ontology: Kingdom: Organic compounds;Superclass: Phenylpropanoids and polyketides;Class: Coumarins and derivatives;Subclass: Coumarin glycosides
INCHIKEY:  CZSKYBTXDJQXNC-UHFFFAOYNA-N
SMILES:  COC1=C(OC2OC(CO)C(O)C(O)C2O)C(O)=C2OC(=O)C=CC2=C1O
RETENTIONTIME:  
CCS:  -1
IONMODE:  Negative
INSTRUMENTTYPE:  
INSTRUMENT:  Maxis II HD Q-TOF Bruker
COLLISIONENERGY:  
Comment:  DB#=CCMSLIB00000847069; origin=GNPS
Num Peaks:  12
82.18265	40.0
178.99821	130.0
206.99091	1000.0
222.01494	540.0
280.28534	80.0
280.55823	50.0
280.8804	40.0
281.00739	80.0
281.1282	40.0
370.05148	70.0
385.08038	810.0
807.40533	70.0

NAME:  NCGC00347633-02!7-benzyl-11,14,20-trimethyl-16-(2-methylpropyl)-10,13-di(propan-2-yl)-17-oxa-1,5,8,11,14-pentazabicyclo[17.3.0]docosane-2,6,9,12,15,18-hexone
PRECURSORMZ:  668.40287267883
PRECURSORTYPE:  [M-H]-
FORMULA:  C36H55N5O7
Ontology: Kingdom: Organic compounds;Superclass: Organic acids and derivatives;Class: Peptidomimetics;Subclass: Depsipeptides
INCHIKEY:  UCLZXGHPVJMYSQ-UHFFFAOYNA-N
SMILES:  CC(C)CC1OC(=O)C2C(C)CCN2C(=O)CCN=C(O)C(CC2=CC=CC=C2)N=C(O)C(C(C)C)N(C)C(=O)C(C(C)C)N(C)C1=O
RETENTIONTIME:  
CCS:  -1
IONMODE:  Negative
INSTRUMENTTYPE:  
INSTRUMENT:  Maxis II HD Q-TOF Bruker
COLLISIONENERGY:  
Comment:  DB#=CCMSLIB00000847071; origin=GNPS
Num Peaks:  13
129.10114	150.0
136.06737	120.0
144.74413	120.0
168.0627	290.0
202.76347	90.0
329.21475	120.0
372.22919	410.0
443.27304	240.0
578.3717	110.0
581.05536	260.0
596.38647	140.0
668.40192	1000.0
669.39124	130.0

NAME:  NCGC00347633-02!7-benzyl-11,14,20-trimethyl-16-(2-methylpropyl)-10,13-di(propan-2-yl)-17-oxa-1,5,8,11,14-pentazabicyclo[17.3.0]docosane-2,6,9,12,15,18-hexone
PRECURSORMZ:  714.40835167883
PRECURSORTYPE:  [M+FA-H]-
FORMULA:  C36H55N5O7
Ontology: Kingdom: Organic compounds;Superclass: Organic acids and derivatives;Class: Peptidomimetics;Subclass: Depsipeptides
INCHIKEY:  UCLZXGHPVJMYSQ-UHFFFAOYNA-N
SMILES:  CC(C)CC1OC(=O)C2C(C)CCN2C(=O)CCN=C(O)C(CC2=CC=CC=C2)N=C(O)C(C(C)C)N(C)C(=O)C(C(C)C)N(C)C1=O
RETENTIONTIME:  
CCS:  -1
IONMODE:  Negative
INSTRUMENTTYPE:  
INSTRUMENT:  Maxis II HD Q-TOF Bruker
COLLISIONENERGY:  
Comment:  DB#=CCMSLIB00000847073; origin=GNPS
Num Peaks:  29
127.08527	90.0
129.10185	50.0
131.08357	140.0
139.08868	40.0
140.05946	110.0
153.07083	100.0
155.08372	250.0
160.07751	80.0
168.13721	90.0
169.08109	50.0
188.14861	70.0
193.09761	90.0
224.12735	80.0
243.13419	20.0
244.13211	100.0
275.13559	70.0
304.14783	100.0
364.19229	40.0
366.21042	60.0
372.22321	290.0
402.24579	70.0
444.24872	50.0
570.3288	100.0
650.39032	110.0
650.43951	40.0
668.4024	1000.0
669.42065	250.0
678.56317	20.0
688.40259	60.0

NAME:  NCGC00380246-01!7-[(2S,3R,4S,5S,6R)-4,5-dihydroxy-3-[(2S,3R,4R,5R,6S)-3,4,5-trihydroxy-6-methyloxan-2-yl]oxy-6-[[(2S,3R,4S,5R)-3,4,5-trihydroxyoxan-2-yl]oxymethyl]oxan-2-yl]oxy-5-hydroxy-2-(4-hydroxyphenyl)-2,3-dihydrochromen-4-one
PRECURSORMZ:  711.21418799583
PRECURSORTYPE:  [M-H]-
FORMULA:  C32H40O18
Ontology: Kingdom: Organic compounds;Superclass: Phenylpropanoids and polyketides;Class: Flavonoids;Subclass: Flavonoid glycosides
INCHIKEY:  VWZAZEGRFSUWHJ-UHFFFAOYNA-N
SMILES:  CC1OC(OC2C(O)C(O)C(COC3OCC(O)C(O)C3O)OC2OC2=CC(O)=C3C(=O)CC(OC3=C2)C2=CC=C(O)C=C2)C(O)C(O)C1O
RETENTIONTIME:  
CCS:  261.2644156
IONMODE:  Negative
INSTRUMENTTYPE:  
INSTRUMENT:  Maxis II HD Q-TOF Bruker
COLLISIONENERGY:  
Comment:  DB#=CCMSLIB00000847075; origin=GNPS
Num Peaks:  27
119.04662	40.0
137.02524	40.0
151.00034	550.0
151.07892	20.0
169.01369	40.0
174.99969	50.0
177.01779	90.0
185.06464	50.0
190.06221	40.0
271.05936	1000.0
272.06293	30.0
312.05905	20.0
338.38028	30.0
339.07144	140.0
346.95969	60.0
423.08115	30.0
459.13095	30.0
459.15756	40.0
485.13916	40.0
547.1402	40.0
590.31787	20.0
591.16382	230.0
709.9447	30.0
710.18829	20.0
711.1087	30.0
711.21313	910.0
712.21112	100.0

NAME:  NCGC00380246-01!7-[(2S,3R,4S,5S,6R)-4,5-dihydroxy-3-[(2S,3R,4R,5R,6S)-3,4,5-trihydroxy-6-methyloxan-2-yl]oxy-6-[[(2S,3R,4S,5R)-3,4,5-trihydroxyoxan-2-yl]oxymethyl]oxan-2-yl]oxy-5-hydroxy-2-(4-hydroxyphenyl)-2,3-dihydrochromen-4-one
PRECURSORMZ:  757.21966699583
PRECURSORTYPE:  [M+FA-H]-
FORMULA:  C32H40O18
Ontology: Kingdom: Organic compounds;Superclass: Phenylpropanoids and polyketides;Class: Flavonoids;Subclass: Flavonoid glycosides
INCHIKEY:  VWZAZEGRFSUWHJ-UHFFFAOYNA-N
SMILES:  CC1OC(OC2C(O)C(O)C(COC3OCC(O)C(O)C3O)OC2OC2=CC(O)=C3C(=O)CC(OC3=C2)C2=CC=C(O)C=C2)C(O)C(O)C1O
RETENTIONTIME:  
CCS:  -1
IONMODE:  Negative
INSTRUMENTTYPE:  
INSTRUMENT:  Maxis II HD Q-TOF Bruker
COLLISIONENERGY:  
Comment:  DB#=CCMSLIB00000847076; origin=GNPS
Num Peaks:  17
83.01277	10.0
119.05061	40.0
125.02241	10.0
145.02747	50.0
151.00238	420.0
151.54482	10.0
164.0101	10.0
169.01071	20.0
177.01831	50.0
270.04678	20.0
271.05963	430.0
339.06638	30.0
459.12506	30.0
591.16071	90.0
605.17242	10.0
711.21332	1000.0
712.211	80.0

NAME:  NCGC00380259-01!2-[[4-[4,6-dihydroxy-3-(3-methylbut-2-enyl)-2-[3,4,5-trihydroxy-6-(hydroxymethyl)oxan-2-yl]oxyphenyl]-3-hydroxy-2-(4-hydroxyphenyl)-5-methoxy-3,4-dihydro-2H-chromen-7-yl]oxy]-6-(hydroxymethyl)oxane-3,4,5-triol
PRECURSORMZ:  849.28226725383
PRECURSORTYPE:  [M+FA-H]-
FORMULA:  C39H48O18
Ontology: Kingdom: Organic compounds;Superclass: Phenylpropanoids and polyketides;Class: Flavonoids;Subclass: Flavonoid glycosides
INCHIKEY:  GQOCHCOFYNMUOJ-UHFFFAOYNA-N
SMILES:  COC1=C2C(C(O)C(OC2=CC(OC2OC(CO)C(O)C(O)C2O)=C1)C1=CC=C(O)C=C1)C1=C(O)C=C(O)C(CC=C(C)C)=C1OC1OC(CO)C(O)C(O)C1O
RETENTIONTIME:  
CCS:  -1
IONMODE:  Negative
INSTRUMENTTYPE:  
INSTRUMENT:  Maxis II HD Q-TOF Bruker
COLLISIONENERGY:  
Comment:  DB#=CCMSLIB00000847079; origin=GNPS
Num Peaks:  123
71.0108	10.0
95.04829	10.0
107.0519	10.0
124.01432	20.0
125.02418	10.0
133.02672	50.0
134.03427	10.0
136.01707	20.0
137.02409	30.0
139.03937	130.0
149.02408	40.0
149.05785	20.0
151.03893	50.0
161.09964	30.0
163.00146	120.0
164.00961	190.0
164.08017	10.0
165.01137	10.0
175.07462	20.0
176.01184	90.0
177.02348	10.0
178.0237	150.0
179.03339	220.0
188.00917	20.0
189.01927	20.0
189.06042	20.0
190.02478	60.0
191.03229	20.0
191.0675	20.0
193.08537	330.0
201.05769	10.0
203.07423	10.0
205.08612	210.0
217.09698	10.0
226.05679	30.0
230.05678	20.0
231.0667	540.0
231.25369	10.0
232.07237	240.0
233.08081	1000.0
234.07945	50.0
235.09657	20.0
241.21686	10.0
243.03043	50.0
245.08112	20.0
251.12914	10.0
252.04504	20.0
253.05388	20.0
253.08765	10.0
253.12524	10.0
255.02902	20.0
256.03571	70.0
257.04001	40.0
257.08389	20.0
258.04437	10.0
259.5332	10.0
266.09726	20.0
267.03314	50.0
268.02798	20.0
269.05978	10.0
270.05133	60.0
271.12561	20.0
281.04984	20.0
281.11591	10.0
285.078	180.0
286.0885	20.0
295.10437	20.0
295.13162	20.0
307.09735	20.0
309.07474	20.0
310.08496	20.0
311.09134	300.0
313.10645	30.0
314.6427	10.0
319.08987	20.0
321.11322	160.0
322.09933	10.0
323.09503	80.0
325.10883	420.0
326.07178	20.0
327.12332	70.0
337.10892	20.0
339.12402	960.0
340.12436	80.0
354.10849	20.0
355.12531	30.0
363.12836	10.0
367.13547	30.0
377.03751	10.0
381.16763	10.0
391.06894	10.0
392.10199	10.0
394.12674	240.0
395.13855	20.0
409.15814	10.0
415.15799	10.0
425.13672	10.0
429.13257	40.0
443.14093	40.0
447.14459	10.0
448.14301	10.0
459.14734	20.0
461.16086	800.0
462.15833	80.0
470.25198	10.0
473.14139	100.0
479.1723	120.0
480.18921	10.0
487.15039	10.0
487.2034	10.0
501.17902	360.0
502.1745	20.0
505.16489	70.0
507.19266	20.0
609.21021	20.0
623.23059	50.0
624.24231	20.0
639.20044	20.0
640.22388	10.0
641.22443	750.0
641.95465	10.0
642.23065	140.0
803.28113	20.0

NAME:  NCGC00380269-01!6-[(8a-carboxy-4,4,6a,6b,11,11,14b-heptamethyl-1,2,3,4a,5,6,7,8,9,10,12,12a,14,14a-tetradecahydropicen-3-yl)oxy]-5-[3,5-dihydroxy-6-(hydroxymethyl)-4-(3,4,5-trihydroxy-6-methyloxan-2-yl)oxyoxan-2-yl]oxy-3,4-dihydroxyoxane-2-carboxylic acid
PRECURSORMZ:  939.49588915483
PRECURSORTYPE:  [M-H]-
FORMULA:  C48H76O18
Ontology: Kingdom: Organic compounds;Superclass: Lipids and lipid;Class: Prenol lipids;Subclass: Terpene glycosides
INCHIKEY:  LHVARDGCCWIXJA-UHFFFAOYNA-N
SMILES:  CC1OC(OC2C(O)C(CO)OC(OC3C(O)C(O)C(OC3OC3CCC4(C)C(CCC5(C)C4CC=C4C6CC(C)(C)CCC6(CCC54C)C(O)=O)C3(C)C)C(O)=O)C2O)C(O)C(O)C1O
RETENTIONTIME:  
CCS:  -1
IONMODE:  Negative
INSTRUMENTTYPE:  
INSTRUMENT:  Maxis II HD Q-TOF Bruker
COLLISIONENERGY:  
Comment:  DB#=CCMSLIB00000847081; origin=GNPS
Num Peaks:  52
85.0312	30.0
87.01413	30.0
97.03167	20.0
101.02681	50.0
103.03626	20.0
112.0134	50.0
113.02442	80.0
115.00043	10.0
115.03663	20.0
117.01973	20.0
131.034	40.0
143.03391	60.0
145.04361	10.0
157.0127	20.0
159.02798	10.0
161.04478	20.0
163.05664	60.0
205.06973	40.0
367.1297	10.0
407.32687	10.0
437.34369	20.0
453.34369	40.0
455.35339	120.0
456.3609	10.0
497.3493	40.0
523.38141	60.0
537.35822	40.0
538.36475	20.0
551.39703	10.0
567.36926	10.0
569.3822	150.0
571.37085	20.0
587.37561	20.0
587.41333	20.0
613.36285	60.0
631.39435	10.0
713.4621	20.0
731.44373	50.0
732.44043	20.0
793.47168	10.0
794.41162	10.0
877.50421	10.0
921.43774	20.0
921.50568	10.0
937.58984	10.0
937.89545	10.0
938.57587	20.0
939.50195	1000.0
940.50122	230.0
941.53046	20.0
1334.17798	30.0
1483.69482	20.0

NAME:  NCGC00380269-01!6-[(8a-carboxy-4,4,6a,6b,11,11,14b-heptamethyl-1,2,3,4a,5,6,7,8,9,10,12,12a,14,14a-tetradecahydropicen-3-yl)oxy]-5-[3,5-dihydroxy-6-(hydroxymethyl)-4-(3,4,5-trihydroxy-6-methyloxan-2-yl)oxyoxan-2-yl]oxy-3,4-dihydroxyoxane-2-carboxylic acid
PRECURSORMZ:  985.50136815483
PRECURSORTYPE:  [M+FA-H]-
FORMULA:  C48H76O18
Ontology: ;;;
INCHIKEY:  LHVARDGCCWIXJA-UHFFFAOYNA-N
SMILES:  CC1OC(OC2C(O)C(CO)OC(OC3C(O)C(O)C(OC3OC3CCC4(C)C(CCC5(C)C4CC=C4C6CC(C)(C)CCC6(CCC54C)C(O)=O)C3(C)C)C(O)=O)C2O)C(O)C(O)C1O
RETENTIONTIME:  
CCS:  -1
IONMODE:  Negative
INSTRUMENTTYPE:  
INSTRUMENT:  Maxis II HD Q-TOF Bruker
COLLISIONENERGY:  
Comment:  DB#=CCMSLIB00000847082; origin=GNPS
Num Peaks:  50
87.01284	20.0
87.04254	30.0
99.00672	30.0
101.03159	10.0
113.03154	40.0
115.04464	30.0
131.03424	90.0
141.10422	10.0
143.03157	60.0
145.04826	20.0
147.03137	30.0
161.04558	40.0
163.06323	20.0
205.06744	60.0
247.09047	10.0
437.7637	50.0
441.26315	20.0
441.76434	20.0
451.26498	20.0
453.34216	70.0
455.34805	60.0
462.55936	20.0
465.67676	20.0
477.60056	10.0
481.36975	10.0
497.38263	30.0
524.37518	30.0
525.36603	30.0
537.36304	60.0
538.35455	10.0
569.37695	130.0
570.39679	50.0
587.40381	30.0
613.37061	160.0
641.40857	20.0
701.22876	30.0
730.42816	10.0
731.44855	10.0
793.42896	20.0
874.07483	20.0
921.4892	20.0
926.51337	10.0
937.35748	10.0
939.42053	40.0
939.50043	1000.0
940.50244	310.0
940.62573	20.0
940.78101	10.0
941.5144	30.0
1482.34021	20.0

NAME:  NCGC00385426-01!2,3,14-trihydroxy-10,13-dimethyl-17-(2,3,6,7-tetrahydroxy-6-methylheptan-2-yl)-2,3,4,5,9,11,12,15,16,17-decahydro-1H-cyclopenta[a]phenanthren-6-one
PRECURSORMZ:  541.30182092483
PRECURSORTYPE:  [M+FA-H]-
FORMULA:  C27H44O8
Ontology: Kingdom: Organic compounds;Superclass: Lipids and lipid;Class: Steroids and steroid derivatives;Subclass: Bile acids
INCHIKEY:  RRCGNPRHZQPOOT-UHFFFAOYNA-N
SMILES:  CC(O)(CO)CCC(O)C(C)(O)C1CCC2(O)C3=CC(=O)C4CC(O)C(O)CC4(C)C3CCC12C
RETENTIONTIME:  
CCS:  -1
IONMODE:  Negative
INSTRUMENTTYPE:  
INSTRUMENT:  Maxis II HD Q-TOF Bruker
COLLISIONENERGY:  
Comment:  DB#=CCMSLIB00000847085; origin=GNPS
Num Peaks:  15
83.05646	40.0
103.83867	100.0
117.5369	20.0
175.09538	390.0
257.17957	30.0
301.18921	30.0
319.18839	100.0
333.17337	20.0
389.23743	20.0
494.08066	20.0
495.29312	1000.0
495.38446	10.0
496.10376	20.0
541.31104	40.0
1108.65503	50.0

NAME:  NCGC00385434-01!8-[4,5-dihydroxy-6-(hydroxymethyl)-3-[3,4,5-trihydroxy-6-(hydroxymethyl)oxan-2-yl]oxyoxan-2-yl]-5,7-dihydroxy-2-(4-hydroxyphenyl)chromen-4-one
PRECURSORMZ:  593.15119381383
PRECURSORTYPE:  [M-H]-
FORMULA:  C27H30O15
Ontology: ;;;
INCHIKEY:  FYTOTHFWELWOCG-UHFFFAOYNA-N
SMILES:  OCC1OC(OC2C(O)C(O)C(CO)OC2C2=C(O)C=C(O)C3=C2OC(=CC3=O)C2=CC=C(O)C=C2)C(O)C(O)C1O
RETENTIONTIME:  
CCS:  232.8819117
IONMODE:  Negative
INSTRUMENTTYPE:  
INSTRUMENT:  Maxis II HD Q-TOF Bruker
COLLISIONENERGY:  
Comment:  DB#=CCMSLIB00000847087; origin=GNPS
Num Peaks:  16
101.02095	110.0
109.155	80.0
169.06389	130.0
175.00522	120.0
282.04971	90.0
293.04523	790.0
310.52203	60.0
314.04175	70.0
323.09448	50.0
335.05661	80.0
341.08051	110.0
413.08829	890.0
471.59164	30.0
593.15814	1000.0
593.23212	50.0
594.17487	60.0

NAME:  NCGC00385434-01!8-[4,5-dihydroxy-6-(hydroxymethyl)-3-[3,4,5-trihydroxy-6-(hydroxymethyl)oxan-2-yl]oxyoxan-2-yl]-5,7-dihydroxy-2-(4-hydroxyphenyl)chromen-4-one
PRECURSORMZ:  639.15667281383
PRECURSORTYPE:  [M+FA-H]-
FORMULA:  C27H30O15
Ontology: Kingdom: Organic compounds;Superclass: Phenylpropanoids and polyketides;Class: Flavonoids;Subclass: Flavonoid glycosides
INCHIKEY:  FYTOTHFWELWOCG-UHFFFAOYNA-N
SMILES:  OCC1OC(OC2C(O)C(O)C(CO)OC2C2=C(O)C=C(O)C3=C2OC(=CC3=O)C2=CC=C(O)C=C2)C(O)C(O)C1O
RETENTIONTIME:  
CCS:  -1
IONMODE:  Negative
INSTRUMENTTYPE:  
INSTRUMENT:  Maxis II HD Q-TOF Bruker
COLLISIONENERGY:  
Comment:  DB#=CCMSLIB00000847089; origin=GNPS
Num Peaks:  29
162.64828	50.0
166.31435	50.0
170.11427	40.0
174.40327	30.0
180.00208	40.0
181.01155	50.0
199.0377	90.0
270.01984	100.0
287.01791	110.0
288.02234	30.0
309.05453	20.0
314.0007	40.0
315.01907	140.0
316.01511	90.0
327.06705	30.0
327.51761	20.0
329.02722	20.0
329.0575	40.0
329.17789	10.0
330.03381	300.0
330.92099	20.0
331.04156	240.0
359.09665	100.0
371.06021	90.0
477.10602	1000.0
492.08084	160.0
493.10776	60.0
639.16632	160.0
731.59412	20.0

NAME:  NCGC00385418-01!2-(3,4-dihydroxyphenyl)-5-hydroxy-7-methoxy-8-[(2S,3R,4S,5S,6R)-3,4,5-trihydroxy-6-(hydroxymethyl)oxan-2-yl]oxy-3-[(2S,3R,4R,5R,6S)-3,4,5-trihydroxy-6-methyloxan-2-yl]oxychromen-4-one
PRECURSORMZ:  685.16215211783
PRECURSORTYPE:  [M+FA-H]-
FORMULA:  C28H32O17
Ontology: Kingdom: Organic compounds;Superclass: Phenylpropanoids and polyketides;Class: Flavonoids;Subclass: Flavonoid glycosides
INCHIKEY:  NMZDJTDURFIQKE-UHFFFAOYNA-N
SMILES:  COC1=C(OC2OC(CO)C(O)C(O)C2O)C2=C(C(O)=C1)C(=O)C(OC1OC(C)C(O)C(O)C1O)=C(O2)C1=CC(O)=C(O)C=C1
RETENTIONTIME:  
CCS:  -1
IONMODE:  Negative
INSTRUMENTTYPE:  
INSTRUMENT:  Maxis II HD Q-TOF Bruker
COLLISIONENERGY:  
Comment:  DB#=CCMSLIB00000847097; origin=GNPS
Num Peaks:  14
169.01051	230.0
169.08653	40.0
175.00539	230.0
316.01837	120.0
330.03644	130.0
331.04288	480.0
360.8999	100.0
361.17236	190.0
477.07166	440.0
477.10492	1000.0
492.09103	230.0
639.15491	690.0
643.46301	80.0
653.13275	80.0

NAME:  NCGC00385427-01!17-[2,3-dihydroxy-6-methyl-6-[3,4,5-trihydroxy-6-(hydroxymethyl)oxan-2-yl]oxyheptan-2-yl]-2,3,14-trihydroxy-10,13-dimethyl-2,3,4,5,9,11,12,15,16,17-decahydro-1H-cyclopenta[a]phenanthren-6-one
PRECURSORMZ:  687.35972972683
PRECURSORTYPE:  [M+FA-H]-
FORMULA:  C33H54O12
Ontology: Kingdom: Organic compounds;Superclass: Lipids and lipid;Class: Steroids and steroid derivatives;Subclass: Bile acids
INCHIKEY:  VJAXSGXKVCCJNY-UHFFFAOYNA-N
SMILES:  CC(C)(CCC(O)C(C)(O)C1CCC2(O)C3=CC(=O)C4CC(O)C(O)CC4(C)C3CCC12C)OC1OC(CO)C(O)C(O)C1O
RETENTIONTIME:  
CCS:  -1
IONMODE:  Negative
INSTRUMENTTYPE:  
INSTRUMENT:  Maxis II HD Q-TOF Bruker
COLLISIONENERGY:  
Comment:  DB#=CCMSLIB00000847098; origin=GNPS
Num Peaks:  27
85.02444	30.0
89.03057	20.0
99.00992	20.0
101.02132	10.0
113.02409	40.0
119.03598	30.0
161.04413	20.0
179.05473	110.0
233.1503	20.0
287.16022	20.0
300.98294	10.0
301.17166	10.0
313.09341	20.0
319.18631	30.0
321.15622	100.0
357.16968	20.0
373.20474	10.0
392.22302	20.0
461.2933	20.0
479.30322	40.0
623.35205	30.0
641.35107	1000.0
641.44385	20.0
642.34021	70.0
645.03253	20.0
673.00439	10.0
1424.90552	20.0

NAME:  NCGC00385414-01!3-[(2S,3R,4S,5R,6R)-4-[(2S,3R,4S,5S,6R)-4,5-dihydroxy-6-(hydroxymethyl)-3-[(2S,3R,4S,5R)-3,4,5-trihydroxyoxan-2-yl]oxyoxan-2-yl]oxy-3,5-dihydroxy-6-(hydroxymethyl)oxan-2-yl]oxy-5,7-dihydroxy-2-(4-hydroxyphenyl)chromen-4-one
PRECURSORMZ:  741.18836717183
PRECURSORTYPE:  [M-H]-
FORMULA:  C32H38O20
Ontology: Kingdom: Organic compounds;Superclass: Phenylpropanoids and polyketides;Class: Flavonoids;Subclass: Flavonoid glycosides
INCHIKEY:  RIRIPDPAMZKRKD-UHFFFAOYNA-N
SMILES:  OCC1OC(OC2C(O)C(CO)OC(OC3=C(OC4=CC(O)=CC(O)=C4C3=O)C3=CC=C(O)C=C3)C2O)C(OC2OCC(O)C(O)C2O)C(O)C1O
RETENTIONTIME:  
CCS:  -1
IONMODE:  Negative
INSTRUMENTTYPE:  
INSTRUMENT:  Maxis II HD Q-TOF Bruker
COLLISIONENERGY:  
Comment:  DB#=CCMSLIB00000847101; origin=GNPS
Num Peaks:  21
149.2784	20.0
150.9989	40.0
172.05641	30.0
196.28659	20.0
199.04362	10.0
227.03668	90.0
229.04381	30.0
239.03534	20.0
241.05382	10.0
255.02986	340.0
257.03714	40.0
283.02853	30.0
284.03186	1000.0
285.03912	420.0
286.0369	20.0
354.31348	10.0
411.06107	30.0
579.13873	30.0
609.14703	40.0
741.18884	860.0
742.19354	90.0

NAME:  NCGC00385433-01![4-[4,5-dihydroxy-6-methyl-3-[3,4,5-trihydroxy-6-(hydroxymethyl)oxan-2-yl]oxyoxan-2-yl]oxy-6-[2-(3,4-dihydroxyphenyl)ethoxy]-3,5-dihydroxyoxan-2-yl]methyl (E)-3-(3,4-dihydroxyphenyl)prop-2-enoate
PRECURSORMZ:  785.25096742883
PRECURSORTYPE:  [M-H]-
FORMULA:  C35H46O20
Ontology: Kingdom: Organic compounds;Superclass: Organic oxygen compounds;Class: Organooxygen compounds;Subclass: Carbohydrates and carbohydrate conjugates
INCHIKEY:  PSFMBXYUQFAGAM-UHFFFAOYNA-N
SMILES:  CC1OC(OC2C(O)C(COC(=O)C=CC3=CC(O)=C(O)C=C3)OC(OCCC3=CC(O)=C(O)C=C3)C2O)C(OC2OC(CO)C(O)C(O)C2O)C(O)C1O
RETENTIONTIME:  
CCS:  260.5950537
IONMODE:  Negative
INSTRUMENTTYPE:  
INSTRUMENT:  Maxis II HD Q-TOF Bruker
COLLISIONENERGY:  
Comment:  DB#=CCMSLIB00000847102; origin=GNPS
Num Peaks:  27
85.02984	10.0
89.02249	20.0
113.02365	120.0
134.03519	40.0
135.04344	120.0
155.06477	10.0
159.04999	10.0
160.17488	20.0
160.62971	20.0
161.02272	710.0
179.03171	30.0
189.05478	10.0
199.04057	10.0
221.06299	20.0
251.06026	40.0
294.91727	10.0
297.09213	30.0
305.05396	10.0
315.10779	50.0
433.09045	10.0
461.1651	110.0
623.2226	150.0
624.19556	10.0
785.24963	1000.0
785.50806	10.0
786.24908	80.0
819.86823	10.0

NAME:  NCGC00180861-02!(3R,5R)-4-[(E)-3-(3,4-dihydroxyphenyl)prop-2-enoyl]oxy-1,3,5-trihydroxycyclohexane-1-carboxylic acid
PRECURSORMZ:  353.08780570783
PRECURSORTYPE:  [M-H]-
FORMULA:  C16H18O9
Ontology: Kingdom: Organic compounds;Superclass: Organic oxygen compounds;Class: Organooxygen compounds;Subclass: Alcohols and polyols
INCHIKEY:  GYFFKZTYYAFCTR-UHFFFAOYNA-N
SMILES:  OC1CC(O)(CC(O)C1OC(=O)C=CC1=CC(O)=C(O)C=C1)C(O)=O
RETENTIONTIME:  
CCS:  204.1685122
IONMODE:  Negative
INSTRUMENTTYPE:  
INSTRUMENT:  Maxis II HD Q-TOF Bruker
COLLISIONENERGY:  
Comment:  DB#=CCMSLIB00000847105; origin=GNPS
Num Peaks:  8
134.04828	190.0
135.0439	280.0
155.03477	230.0
161.01994	110.0
173.04388	1000.0
179.03406	500.0
191.05566	400.0
992.20148	90.0

NAME:  NCGC00169984-03!(3R,5R)-3,5-bis[[(E)-3-(3,4-dihydroxyphenyl)prop-2-enoyl]oxy]-1,4-dihydroxycyclohexane-1-carboxylic acid
PRECURSORMZ:  515.11949976083
PRECURSORTYPE:  [M-H]-
FORMULA:  C25H24O12
Ontology: Kingdom: Organic compounds;Superclass: Organic oxygen compounds;Class: Organooxygen compounds;Subclass: Alcohols and polyols
INCHIKEY:  KRZBCHWVBQOTNZ-UHFFFAOYNA-N
SMILES:  OC1C(CC(O)(CC1OC(=O)C=CC1=CC(O)=C(O)C=C1)C(O)=O)OC(=O)C=CC1=CC(O)=C(O)C=C1
RETENTIONTIME:  
CCS:  246.8204516
IONMODE:  Negative
INSTRUMENTTYPE:  
INSTRUMENT:  Maxis II HD Q-TOF Bruker
COLLISIONENERGY:  
Comment:  DB#=CCMSLIB00000847106; origin=GNPS
Num Peaks:  18
70.39426	20.0
88.13137	10.0
127.03933	30.0
132.59702	30.0
134.03647	50.0
135.04362	200.0
161.02409	60.0
173.04298	40.0
178.76498	30.0
179.03288	730.0
180.03464	30.0
191.05469	1000.0
196.33017	20.0
335.08078	20.0
339.04596	10.0
353.08777	970.0
354.09692	40.0
860.63806	10.0

NAME:  NCGC00169984-03!(3R,5R)-3,5-bis[[(E)-3-(3,4-dihydroxyphenyl)prop-2-enoyl]oxy]-1,4-dihydroxycyclohexane-1-carboxylic acid
PRECURSORMZ:  561.12497876083
PRECURSORTYPE:  [M+FA-H]-
FORMULA:  C25H24O12
Ontology: Kingdom: Organic compounds;Superclass: Organic oxygen compounds;Class: Organooxygen compounds;Subclass: Alcohols and polyols
INCHIKEY:  KRZBCHWVBQOTNZ-UHFFFAOYNA-N
SMILES:  OC1C(CC(O)(CC1OC(=O)C=CC1=CC(O)=C(O)C=C1)C(O)=O)OC(=O)C=CC1=CC(O)=C(O)C=C1
RETENTIONTIME:  
CCS:  -1
IONMODE:  Negative
INSTRUMENTTYPE:  
INSTRUMENT:  Maxis II HD Q-TOF Bruker
COLLISIONENERGY:  
Comment:  DB#=CCMSLIB00000847109; origin=GNPS
Num Peaks:  10
135.04369	120.0
161.02542	70.0
170.84195	30.0
173.04546	20.0
179.03558	550.0
182.22978	20.0
191.05489	770.0
335.07361	50.0
353.08792	1000.0
515.15729	50.0

NAME:  NCGC00347805-02!(2E,6E)-3,7,11,15,19,23,27,31,35-nonamethylhexatriaconta-2,6,34-triene-1,10,11,15,19,23,27,31-octol
PRECURSORMZ:  799.63047227683
PRECURSORTYPE:  [M+FA-H]-
FORMULA:  C45H86O8
Ontology: Kingdom: Organic compounds;Superclass: Lipids and lipid;Class: Prenol lipids;Subclass: Polyprenols
INCHIKEY:  MFQDKOXWQXOOAO-UHFFFAOYNA-N
SMILES:  CC(C)=CCCC(C)(O)CCCC(C)(O)CCCC(C)(O)CCCC(C)(O)CCCC(C)(O)CCCC(C)(O)C(O)CCC(C)=CCCC(C)=CCO
RETENTIONTIME:  
CCS:  -1
IONMODE:  Negative
INSTRUMENTTYPE:  
INSTRUMENT:  Maxis II HD Q-TOF Bruker
COLLISIONENERGY:  
Comment:  DB#=CCMSLIB00000847111; origin=GNPS
Num Peaks:  29
85.06506	20.0
87.05147	20.0
127.084	20.0
213.1566	10.0
234.19983	20.0
253.21208	20.0
325.27466	10.0
347.29129	10.0
360.36569	10.0
366.51175	10.0
373.3071	30.0
385.2941	50.0
399.2254	10.0
415.33344	10.0
450.69547	20.0
617.51868	20.0
619.48285	10.0
659.55658	10.0
717.5932	10.0
735.61493	50.0
737.59821	10.0
751.59308	10.0
752.63934	20.0
752.75031	10.0
753.47015	20.0
753.62756	1000.0
753.73492	20.0
754.63159	190.0
1281.94397	10.0

NAME:  NCGC00180445-02![(2R,3R,4R,5R,6R)-2-[[(2R,3R,4R)-3,4-dihydroxy-4-(hydroxymethyl)oxolan-2-yl]oxymethyl]-4-[(2S,3R,4R,5R,6S)-4,5-dihydroxy-6-methyl-3-[(2S,3R,4S,5S)-3,4,5-trihydroxyoxan-2-yl]oxyoxan-2-yl]oxy-6-[2-(3,4-dihydroxyphenyl)ethoxy]-5-hydroxyoxan-3-yl] (E)-3-(3,4-dihydroxyphenyl)prop-2-enoate
PRECURSORMZ:  887.28266148183
PRECURSORTYPE:  [M-H]-
FORMULA:  C39H52O23
Ontology: Kingdom: Organic compounds;Superclass: Organic oxygen compounds;Class: Organooxygen compounds;Subclass: Carbohydrates and carbohydrate conjugates
INCHIKEY:  NPVUMVVTBDKDDD-UHFFFAOYNA-N
SMILES:  CC1OC(OC2C(O)C(OCCC3=CC(O)=C(O)C=C3)OC(COC3OCC(O)(CO)C3O)C2OC(=O)C=CC2=CC(O)=C(O)C=C2)C(OC2OCC(O)C(O)C2O)C(O)C1O
RETENTIONTIME:  
CCS:  291.6075053
IONMODE:  Negative
INSTRUMENTTYPE:  
INSTRUMENT:  Maxis II HD Q-TOF Bruker
COLLISIONENERGY:  
Comment:  DB#=CCMSLIB00000847113; origin=GNPS
Num Peaks:  26
89.02094	40.0
101.02514	10.0
113.02206	20.0
123.00481	10.0
123.04393	20.0
125.02182	30.0
131.03165	20.0
133.02751	190.0
135.04381	150.0
140.00719	10.0
149.04324	10.0
161.02234	1000.0
162.02594	40.0
179.03323	50.0
191.05307	10.0
315.10849	20.0
429.1442	30.0
435.93332	20.0
447.1488	70.0
593.20734	120.0
594.20251	20.0
725.24963	320.0
725.31818	20.0
726.25311	40.0
887.28064	920.0
888.29291	210.0

NAME:  NCGC00169234-02!2-[5-hydroxy-4-methoxy-6-[4-methoxy-6-[4-methoxy-6-[4-methoxy-2-methyl-6-[[(3S,10R,11S,12S,13S,14S,17S)-11,12,14-trihydroxy-17-[(1S)-1-hydroxyethyl]-10,13-dimethyl-1,2,3,4,7,8,9,11,12,15,16,17-dodecahydrocyclopenta[a]phenanthren-3-yl]oxy]oxan-3-yl]oxy-2-methyloxan-3-yl]oxy-2-methyloxan-3-yl]oxy-2-methyloxan-3-yl]oxy-6-(hydroxymethyl)oxane-3,4,5-triol
PRECURSORMZ:  1165.60114176983
PRECURSORTYPE:  [M+FA-H]-
FORMULA:  C55H92O23
Ontology: Kingdom: Organic compounds;Superclass: Lipids and lipid;Class: Steroids and steroid derivatives;Subclass: Steroidal glycosides
INCHIKEY:  AGRZUANLVXMRCO-UHFFFAOYNA-N
SMILES:  COC1CC(OC2CCC3(C)C4C(O)C(O)C5(C)C(CCC5(O)C4CC=C3C2)C(C)O)OC(C)C1OC1CC(OC)C(OC2CC(OC)C(OC3OC(C)C(OC4OC(CO)C(O)C(O)C4O)C(OC)C3O)C(C)O2)C(C)O1
RETENTIONTIME:  
CCS:  -1
IONMODE:  Negative
INSTRUMENTTYPE:  
INSTRUMENT:  Maxis II HD Q-TOF Bruker
COLLISIONENERGY:  
Comment:  DB#=CCMSLIB00000847115; origin=GNPS
Num Peaks:  53
71.01556	10.0
79.46462	10.0
83.01353	10.0
83.04971	50.0
84.0191	10.0
85.03233	40.0
86.0243	10.0
93.03383	10.0
93.21646	10.0
95.01492	20.0
101.02445	110.0
109.03061	50.0
111.04372	190.0
112.04889	20.0
112.7089	10.0
113.02478	90.0
114.02754	20.0
119.03275	20.0
126.02836	40.0
127.03984	60.0
141.05251	20.0
143.06956	20.0
159.02353	20.0
161.04478	80.0
177.0905	20.0
179.05466	50.0
229.1046	20.0
255.12593	10.0
289.06924	10.0
303.18088	10.0
321.10611	10.0
373.18829	20.0
429.26489	10.0
510.09381	20.0
533.26953	10.0
555.33868	10.0
591.36884	10.0
617.36792	10.0
635.38068	50.0
653.39026	40.0
654.39587	10.0
797.47083	110.0
798.47449	20.0
907.48578	10.0
957.54492	410.0
958.55066	110.0
959.54358	20.0
1119.59692	1000.0
1120.46777	10.0
1120.59644	450.0
1121.59131	100.0
1122.59717	20.0
1364.82581	10.0

NAME:  NCGC00347618-02!3-hydroxy-N-(1-hydroxy-4-methylpentan-2-yl)-5-oxo-6-phenylhexanamide
PRECURSORMZ:  366.19221090083
PRECURSORTYPE:  [M+FA-H]-
FORMULA:  C18H27NO4
Ontology: Kingdom: Organic compounds;Superclass: Lipids and lipid;Class: Fatty Acyls;Subclass: Fatty amides
INCHIKEY:  AZUKRZGSIRBRCH-UHFFFAOYNA-N
SMILES:  CC(C)CC(CO)N=C(O)CC(O)CC(=O)CC1=CC=CC=C1
RETENTIONTIME:  
CCS:  -1
IONMODE:  Negative
INSTRUMENTTYPE:  
INSTRUMENT:  Maxis II HD Q-TOF Bruker
COLLISIONENERGY:  
Comment:  DB#=CCMSLIB00000847117; origin=GNPS
Num Peaks:  8
97.39403	190.0
133.05934	50.0
142.0864	1000.0
159.08301	490.0
186.11275	230.0
302.18201	150.0
1162.32947	20.0
1977.64966	80.0

NAME:  NCGC00380232-01!(2S,3S,4S,5R,6R)-6-[(11-carboxy-4,4,6a,6b,8a,11,14b-heptamethyl-1,2,3,4a,5,6,7,8,9,10,12,12a,14,14a-tetradecahydropicen-3-yl)oxy]-5-[(2R,3R,4S,5R,6S)-6-carboxy-3-[(2R,3R,4S,5S,6S)-6-carboxy-4,5-dihydroxy-3-[(2S,3R,4R,5R,6S)-3,4,5-trihydroxy-6-methyloxan-2-yl]oxyoxan-2-yl]oxy-4,5-dihydroxyoxan-2-yl]oxy-3,4-dihydroxyoxane-2-carboxylic acid
PRECURSORMZ:  1129.50724168783
PRECURSORTYPE:  [M-H]-
FORMULA:  C54H82O25
Ontology: Kingdom: Organic compounds;Superclass: Lipids and lipid;Class: Prenol lipids;Subclass: Terpene glycosides
INCHIKEY:  SCYOPUASTLSBIC-UHFFFAOYNA-N
SMILES:  CC1OC(OC2C(O)C(O)C(OC2OC2C(O)C(O)C(OC2OC2C(O)C(O)C(OC2OC2CCC3(C)C(CCC4(C)C3CC=C3C5CC(C)(CCC5(C)CCC43C)C(O)=O)C2(C)C)C(O)=O)C(O)=O)C(O)=O)C(O)C(O)C1O
RETENTIONTIME:  
CCS:  -1
IONMODE:  Negative
INSTRUMENTTYPE:  
INSTRUMENT:  Maxis II HD Q-TOF Bruker
COLLISIONENERGY:  
Comment:  DB#=CCMSLIB00000847118; origin=GNPS
Num Peaks:  7
497.11459	50.0
543.72388	10.0
1127.49866	10.0
1129.50818	1000.0
1130.51208	200.0
1131.52185	20.0
1733.20093	10.0

NAME:  NCGC00380231-01!5-[6-carboxy-3-[6-carboxy-4,5-dihydroxy-3-(3,4,5-trihydroxy-6-methyloxan-2-yl)oxyoxan-2-yl]oxy-4,5-dihydroxyoxan-2-yl]oxy-6-[[11-carboxy-4-(hydroxymethyl)-4,6a,6b,8a,11,14b-hexamethyl-1,2,3,4a,5,6,7,8,9,10,12,12a,14,14a-tetradecahydropicen-3-yl]oxy]-3,4-dihydroxyoxane-2-carboxylic acid
PRECURSORMZ:  1145.50215630783
PRECURSORTYPE:  [M-H]-
FORMULA:  C54H82O26
Ontology: Kingdom: Organic compounds;Superclass: Lipids and lipid;Class: Prenol lipids;Subclass: Terpene glycosides
INCHIKEY:  MNGUOJFSPDEZLA-UHFFFAOYNA-N
SMILES:  CC1OC(OC2C(O)C(O)C(OC2OC2C(O)C(O)C(OC2OC2C(O)C(O)C(OC2OC2CCC3(C)C(CCC4(C)C3CC=C3C5CC(C)(CCC5(C)CCC43C)C(O)=O)C2(C)CO)C(O)=O)C(O)=O)C(O)=O)C(O)C(O)C1O
RETENTIONTIME:  
CCS:  -1
IONMODE:  Negative
INSTRUMENTTYPE:  
INSTRUMENT:  Maxis II HD Q-TOF Bruker
COLLISIONENERGY:  
Comment:  DB#=CCMSLIB00000847121; origin=GNPS
Num Peaks:  52
71.01472	20.0
72.99351	20.0
85.02688	40.0
89.023	20.0
99.00588	30.0
101.02448	20.0
109.02782	10.0
113.02323	280.0
115.00426	20.0
119.03553	30.0
129.01732	30.0
130.99655	10.0
133.01329	150.0
143.03293	30.0
157.01031	20.0
157.02924	10.0
159.02481	10.0
163.05853	40.0
175.02336	60.0
191.05455	20.0
193.03134	10.0
201.03841	20.0
241.34467	20.0
263.0704	20.0
266.64655	10.0
303.06543	10.0
321.07953	460.0
322.08347	20.0
337.10785	10.0
339.09338	720.0
340.09012	30.0
341.10748	20.0
381.10089	100.0
435.11783	70.0
453.11856	40.0
479.08984	30.0
497.11368	1000.0
498.11603	120.0
513.36108	10.0
574.37292	10.0
611.14581	20.0
629.15961	20.0
647.39215	30.0
648.38336	20.0
673.14313	40.0
674.14948	10.0
1127.47644	20.0
1129.48926	20.0
1145.50354	880.0
1146.50781	330.0
1147.50537	110.0
1160.50342	10.0

NAME:  NCGC00380231-01!5-[6-carboxy-3-[6-carboxy-4,5-dihydroxy-3-(3,4,5-trihydroxy-6-methyloxan-2-yl)oxyoxan-2-yl]oxy-4,5-dihydroxyoxan-2-yl]oxy-6-[[11-carboxy-4-(hydroxymethyl)-4,6a,6b,8a,11,14b-hexamethyl-1,2,3,4a,5,6,7,8,9,10,12,12a,14,14a-tetradecahydropicen-3-yl]oxy]-3,4-dihydroxyoxane-2-carboxylic acid
PRECURSORMZ:  1127.49159162783
PRECURSORTYPE:  [M-H2O-H]-
FORMULA:  C54H82O26
Ontology: Kingdom: Organic compounds;Superclass: Lipids and lipid;Class: Prenol lipids;Subclass: Terpene glycosides
INCHIKEY:  MNGUOJFSPDEZLA-UHFFFAOYNA-N
SMILES:  CC1OC(OC2C(O)C(O)C(OC2OC2C(O)C(O)C(OC2OC2C(O)C(O)C(OC2OC2CCC3(C)C(CCC4(C)C3CC=C3C5CC(C)(CCC5(C)CCC43C)C(O)=O)C2(C)CO)C(O)=O)C(O)=O)C(O)=O)C(O)C(O)C1O
RETENTIONTIME:  
CCS:  -1
IONMODE:  Negative
INSTRUMENTTYPE:  
INSTRUMENT:  Maxis II HD Q-TOF Bruker
COLLISIONENERGY:  
Comment:  DB#=CCMSLIB00000847122; origin=GNPS
Num Peaks:  42
83.01279	110.0
99.0132	130.0
101.02467	120.0
113.02096	210.0
115.00034	90.0
119.03147	80.0
131.0332	40.0
133.01497	400.0
145.04688	110.0
157.01175	80.0
163.05432	120.0
175.02411	80.0
259.08832	90.0
262.09155	90.0
321.08044	860.0
322.0957	80.0
337.09744	100.0
339.09555	600.0
351.05222	130.0
381.10901	80.0
421.08795	50.0
435.11157	80.0
435.33163	70.0
497.11371	1000.0
498.11197	140.0
536.38269	40.0
596.6499	70.0
611.14282	90.0
618.06433	60.0
671.46912	70.0
673.11365	50.0
673.15588	50.0
674.49738	30.0
821.35181	50.0
1033.47949	50.0
1065.43994	60.0
1123.39661	30.0
1126.99023	70.0
1127.49487	790.0
1128.48987	240.0
1129.5332	110.0
1132.83459	30.0

NAME:  NCGC00381116-01!(E)-4-hydroxy-4-[4-hydroxy-2-[(E)-6-oxohept-1-enyl]cyclopentyl]but-2-enoic acid
PRECURSORMZ:  341.16057642083
PRECURSORTYPE:  [M+FA-H]-
FORMULA:  C16H24O5
Ontology: Kingdom: Organic compounds;Superclass: Lipids and lipid;Class: Fatty Acyls;Subclass: Fatty acids and conjugates
INCHIKEY:  XOBLMJHTXIQOHS-UHFFFAOYNA-N
SMILES:  CC(=O)CCCC=CC1CC(O)CC1C(O)C=CC(O)=O
RETENTIONTIME:  
CCS:  -1
IONMODE:  Negative
INSTRUMENTTYPE:  
INSTRUMENT:  Maxis II HD Q-TOF Bruker
COLLISIONENERGY:  
Comment:  DB#=CCMSLIB00000847125; origin=GNPS
Num Peaks:  7
113.05961	110.0
165.09216	110.0
195.14203	90.0
233.16273	80.0
251.1703	100.0
295.15436	1000.0
298.11841	70.0

NAME:  NCGC00385780-01!5,7-dihydroxy-3-[4-hydroxy-2-methoxy-3-(3-methylbut-2-enyl)phenyl]-6-(3-methylbut-2-enyl)-2,3-dihydrochromen-4-one
PRECURSORMZ:  437.19696223383
PRECURSORTYPE:  [M-H]-
FORMULA:  C26H30O6
Ontology: ;;;
INCHIKEY:  ARNVYCOTFWJTBS-UHFFFAOYNA-N
SMILES:  COC1=C(C=CC(O)=C1CC=C(C)C)C1COC2=C(C1=O)C(O)=C(CC=C(C)C)C(O)=C2
RETENTIONTIME:  
CCS:  235.1450979
IONMODE:  Negative
INSTRUMENTTYPE:  
INSTRUMENT:  Maxis II HD Q-TOF Bruker
COLLISIONENERGY:  
Comment:  DB#=CCMSLIB00000847127; origin=GNPS
Num Peaks:  17
122.03393	80.0
134.04002	100.0
163.00009	60.0
164.00877	110.0
176.00801	50.0
177.08641	60.0
208.61925	30.0
211.47963	60.0
233.08324	710.0
244.84308	40.0
266.16806	40.0
434.51074	20.0
435.36703	60.0
436.6723	40.0
437.19641	1000.0
437.25357	20.0
1574.92444	40.0

NAME:  NCGC00169618-04!6-[(6,8-dihydroxy-7-methoxy-3-methyl-1-oxo-3,4-dihydroisochromen-4-yl)oxy]-4,8-dihydroxy-7-methoxy-3-methyl-3,4-dihydroisochromen-1-one
PRECURSORMZ:  461.10893507583
PRECURSORTYPE:  [M-H]-
FORMULA:  C22H22O11
Ontology: Kingdom: Organic compounds;Superclass: Benzenoids;Class: Benzene and substituted derivatives;Subclass: Benzoic acids and derivatives
INCHIKEY:  WLSOGIGMSWCVID-UHFFFAOYNA-N
SMILES:  COC1=C(O)C=C2C(OC3=C(OC)C(O)=C4C(=O)OC(C)C(O)C4=C3)C(C)OC(=O)C2=C1O
RETENTIONTIME:  
CCS:  -1
IONMODE:  Negative
INSTRUMENTTYPE:  
INSTRUMENT:  Maxis II HD Q-TOF Bruker
COLLISIONENERGY:  
Comment:  DB#=CCMSLIB00000847129; origin=GNPS
Num Peaks:  14
120.21263	20.0
149.05881	30.0
151.03958	100.0
170.02182	10.0
178.99673	60.0
179.03368	20.0
206.02243	530.0
207.02818	20.0
221.04572	750.0
224.03296	440.0
239.05679	1000.0
240.06458	30.0
465.04135	10.0
1592.93372	20.0

NAME:  NCGC00169618-04!6-[(6,8-dihydroxy-7-methoxy-3-methyl-1-oxo-3,4-dihydroisochromen-4-yl)oxy]-4,8-dihydroxy-7-methoxy-3-methyl-3,4-dihydroisochromen-1-one
PRECURSORMZ:  507.11441407583
PRECURSORTYPE:  [M+FA-H]-
FORMULA:  C22H22O11
Ontology: Kingdom: Organic compounds;Superclass: Benzenoids;Class: Benzene and substituted derivatives;Subclass: Benzoic acids and derivatives
INCHIKEY:  WLSOGIGMSWCVID-UHFFFAOYNA-N
SMILES:  COC1=C(O)C=C2C(OC3=C(OC)C(O)=C4C(=O)OC(C)C(O)C4=C3)C(C)OC(=O)C2=C1O
RETENTIONTIME:  
CCS:  -1
IONMODE:  Negative
INSTRUMENTTYPE:  
INSTRUMENT:  Maxis II HD Q-TOF Bruker
COLLISIONENERGY:  
Comment:  DB#=CCMSLIB00000847131; origin=GNPS
Num Peaks:  4
206.02101	580.0
221.04739	580.0
224.02977	110.0
239.05692	1000.0

NAME:  NCGC00381114-01!3-(1,3-benzodioxol-5-yl)-7-[6-[[3,4-dihydroxy-4-(hydroxymethyl)oxolan-2-yl]oxymethyl]-5-[6-[[3,4-dihydroxy-4-(hydroxymethyl)oxolan-2-yl]oxymethyl]-3,4,5-trihydroxyoxan-2-yl]oxy-3,4-dihydroxyoxan-2-yl]oxy-5,6-dimethoxychromen-4-one
PRECURSORMZ:  975.26231965783
PRECURSORTYPE:  [M+FA-H]-
FORMULA:  C40H50O25
Ontology: Kingdom: Organic compounds;Superclass: Phenylpropanoids and polyketides;Class: Isoflavonoids;Subclass: Isoflavonoid O
INCHIKEY:  FZYKTYOEQYVLEL-UHFFFAOYNA-N
SMILES:  COC1=C(OC2OC(COC3OCC(O)(CO)C3O)C(OC3OC(COC4OCC(O)(CO)C4O)C(O)C(O)C3O)C(O)C2O)C=C2OC=C(C(=O)C2=C1OC)C1=CC2=C(OCO2)C=C1
RETENTIONTIME:  
CCS:  -1
IONMODE:  Negative
INSTRUMENTTYPE:  
INSTRUMENT:  Maxis II HD Q-TOF Bruker
COLLISIONENERGY:  
Comment:  DB#=CCMSLIB00000847136; origin=GNPS
Num Peaks:  31
89.02959	20.0
99.00331	20.0
101.0254	20.0
123.04493	20.0
125.02493	10.0
137.0266	20.0
149.04385	20.0
161.04634	30.0
166.03209	20.0
167.11021	20.0
191.05818	200.0
251.07419	90.0
275.07394	60.0
283.02802	40.0
293.08698	60.0
294.08392	20.0
305.16284	10.0
309.03854	20.0
310.94421	20.0
311.02103	1000.0
312.02362	40.0
314.21103	20.0
326.04379	150.0
327.07227	10.0
341.06723	810.0
342.07254	90.0
359.90717	10.0
525.24969	20.0
569.16144	10.0
587.1817	500.0
588.18866	30.0

NAME:  NCGC00385829-01!2-(3,4-dihydroxyphenyl)-6-[(2E)-3,7-dimethylocta-2,6-dienyl]-5,7-dihydroxy-2,3-dihydrochromen-4-one
PRECURSORMZ:  423.18131216983
PRECURSORTYPE:  [M-H]-
FORMULA:  C25H28O6
Ontology: Kingdom: Organic compounds;Superclass: Phenylpropanoids and polyketides;Class: Flavonoids;Subclass: Flavans
INCHIKEY:  XCYSQFHYFNWYFP-UHFFFAOYNA-N
SMILES:  CC(C)=CCCC(C)=CCC1=C(O)C2=C(OC(CC2=O)C2=CC(O)=C(O)C=C2)C=C1O
RETENTIONTIME:  
CCS:  236.0322353
IONMODE:  Negative
INSTRUMENTTYPE:  
INSTRUMENT:  Maxis II HD Q-TOF Bruker
COLLISIONENERGY:  
Comment:  DB#=CCMSLIB00000847138; origin=GNPS
Num Peaks:  17
177.01732	210.0
179.00404	170.0
203.03609	100.0
219.06508	260.0
219.14294	260.0
247.06401	80.0
261.14734	180.0
288.13632	100.0
379.19229	220.0
394.59396	70.0
394.77527	120.0
395.18616	1000.0
395.26309	60.0
396.8421	70.0
398.62952	130.0
423.18085	830.0
423.29416	140.0

NAME:  NCGC00385829-01!2-(3,4-dihydroxyphenyl)-6-[(2E)-3,7-dimethylocta-2,6-dienyl]-5,7-dihydroxy-2,3-dihydrochromen-4-one
PRECURSORMZ:  469.18679116983
PRECURSORTYPE:  [M+FA-H]-
FORMULA:  C25H28O6
Ontology: Kingdom: Organic compounds;Superclass: Phenylpropanoids and polyketides;Class: Flavonoids;Subclass: Flavans
INCHIKEY:  XCYSQFHYFNWYFP-UHFFFAOYNA-N
SMILES:  CC(C)=CCCC(C)=CCC1=C(O)C2=C(OC(CC2=O)C2=CC(O)=C(O)C=C2)C=C1O
RETENTIONTIME:  
CCS:  -1
IONMODE:  Negative
INSTRUMENTTYPE:  
INSTRUMENT:  Maxis II HD Q-TOF Bruker
COLLISIONENERGY:  
Comment:  DB#=CCMSLIB00000847141; origin=GNPS
Num Peaks:  15
135.04341	370.0
139.00284	30.0
144.16612	10.0
201.13408	20.0
243.13426	20.0
257.1525	20.0
261.15442	20.0
282.9881	40.0
285.88922	10.0
287.12894	640.0
289.6832	10.0
313.14059	20.0
405.17404	20.0
423.18002	1000.0
700.0874	20.0

NAME:  NCGC00385824-01!methyl 2,4,10-triacetyloxy-5,9-dihydroxy-1,4a-dimethyl-7-propan-2-yl-2,3,4,9,10,10a-hexahydrophenanthrene-1-carboxylate
PRECURSORMZ:  519.22357090683
PRECURSORTYPE:  [M-H]-
FORMULA:  C27H36O10
Ontology: ;;;
INCHIKEY:  CDYGRHOHQUXDMN-UHFFFAOYNA-N
SMILES:  COC(=O)C1(C)C(CC(OC(C)=O)C2(C)C1C(OC(C)=O)C(O)C1=C2C(O)=CC(=C1)C(C)C)OC(C)=O
RETENTIONTIME:  
CCS:  -1
IONMODE:  Negative
INSTRUMENTTYPE:  
INSTRUMENT:  Maxis II HD Q-TOF Bruker
COLLISIONENERGY:  
Comment:  DB#=CCMSLIB00000847143; origin=GNPS
Num Peaks:  16
245.11641	210.0
253.14037	170.0
281.15485	170.0
292.91556	270.0
307.13766	80.0
313.13559	220.0
338.97916	170.0
357.18225	310.0
361.15237	90.0
362.59741	140.0
375.18231	330.0
417.18695	100.0
417.22617	180.0
459.20059	130.0
477.21127	1000.0
519.23224	290.0

NAME:  NCGC00385824-01!methyl 2,4,10-triacetyloxy-5,9-dihydroxy-1,4a-dimethyl-7-propan-2-yl-2,3,4,9,10,10a-hexahydrophenanthrene-1-carboxylate
PRECURSORMZ:  565.22904990683
PRECURSORTYPE:  [M+FA-H]-
FORMULA:  C27H36O10
Ontology: Kingdom: Organic compounds;Superclass: Lipids and lipid;Class: Steroids and steroid derivatives;Subclass: Hydroxysteroids
INCHIKEY:  CDYGRHOHQUXDMN-UHFFFAOYNA-N
SMILES:  COC(=O)C1(C)C(CC(OC(C)=O)C2(C)C1C(OC(C)=O)C(O)C1=C2C(O)=CC(=C1)C(C)C)OC(C)=O
RETENTIONTIME:  
CCS:  -1
IONMODE:  Negative
INSTRUMENTTYPE:  
INSTRUMENT:  Maxis II HD Q-TOF Bruker
COLLISIONENERGY:  
Comment:  DB#=CCMSLIB00000847145; origin=GNPS
Num Peaks:  38
141.05524	50.0
209.49438	10.0
215.10855	30.0
253.11935	20.0
255.10413	20.0
256.09689	10.0
257.12271	20.0
263.10867	40.0
269.11768	30.0
271.14633	10.0
279.13687	20.0
281.12811	10.0
285.15005	20.0
307.14081	30.0
311.16461	10.0
315.37439	20.0
331.15451	30.0
339.16663	20.0
342.14999	10.0
356.76981	10.0
357.17059	220.0
361.14731	20.0
363.18945	20.0
373.16724	20.0
375.16553	30.0
385.17563	20.0
389.19095	10.0
391.17203	20.0
417.19513	190.0
420.93027	20.0
435.20325	190.0
436.22263	10.0
445.18198	10.0
477.21277	1000.0
478.22205	40.0
519.22369	350.0
1629.42188	20.0
1654.35999	10.0

NAME:  NCGC00169958-02![(2R,3R,4S,5R,6S)-3,5-dihydroxy-4-[(E)-3-(1-hydroxy-4-oxocyclohexa-2,5-dien-1-yl)prop-2-enoyl]oxy-6-(4-hydroxyphenoxy)oxan-2-yl]methyl (E)-3-(1-hydroxy-4-oxocyclohexa-2,5-dien-1-yl)prop-2-enoate
PRECURSORMZ:  595.14571450983
PRECURSORTYPE:  [M-H]-
FORMULA:  C30H28O13
Ontology: Kingdom: Organic compounds;Superclass: Lipids and lipid;Class: Saccharolipids;
INCHIKEY:  UJKUPLFZLUIDFV-UHFFFAOYNA-N
SMILES:  OC1C(COC(=O)C=CC2(O)C=CC(=O)C=C2)OC(OC2=CC=C(O)C=C2)C(O)C1OC(=O)C=CC1(O)C=CC(=O)C=C1
RETENTIONTIME:  
CCS:  -1
IONMODE:  Negative
INSTRUMENTTYPE:  
INSTRUMENT:  Maxis II HD Q-TOF Bruker
COLLISIONENERGY:  
Comment:  DB#=CCMSLIB00000847147; origin=GNPS
Num Peaks:  19
109.02853	200.0
123.04334	20.0
133.02858	80.0
135.04625	130.0
159.05042	30.0
161.02248	1000.0
165.77147	10.0
169.43227	10.0
179.03317	330.0
185.29871	60.0
189.02049	30.0
253.07727	60.0
305.07797	30.0
307.07806	10.0
323.09085	60.0
415.10678	70.0
421.92041	40.0
485.1109	80.0
595.14996	40.0

NAME:  NCGC00169958-02![(2R,3R,4S,5R,6S)-3,5-dihydroxy-4-[(E)-3-(1-hydroxy-4-oxocyclohexa-2,5-dien-1-yl)prop-2-enoyl]oxy-6-(4-hydroxyphenoxy)oxan-2-yl]methyl (E)-3-(1-hydroxy-4-oxocyclohexa-2,5-dien-1-yl)prop-2-enoate
PRECURSORMZ:  641.15119350983
PRECURSORTYPE:  [M+FA-H]-
FORMULA:  C30H28O13
Ontology: Kingdom: Organic compounds;Superclass: Lipids and lipid;Class: Saccharolipids;
INCHIKEY:  UJKUPLFZLUIDFV-UHFFFAOYNA-N
SMILES:  OC1C(COC(=O)C=CC2(O)C=CC(=O)C=C2)OC(OC2=CC=C(O)C=C2)C(O)C1OC(=O)C=CC1(O)C=CC(=O)C=C1
RETENTIONTIME:  
CCS:  -1
IONMODE:  Negative
INSTRUMENTTYPE:  
INSTRUMENT:  Maxis II HD Q-TOF Bruker
COLLISIONENERGY:  
Comment:  DB#=CCMSLIB00000847149; origin=GNPS
Num Peaks:  45
92.31306	20.0
93.03922	40.0
93.72686	40.0
107.90608	20.0
108.02137	120.0
109.0298	580.0
111.00707	40.0
117.03281	40.0
121.02964	40.0
123.00677	60.0
133.03172	60.0
135.04234	200.0
151.03716	30.0
161.02309	940.0
163.04164	20.0
177.05879	20.0
179.03307	890.0
193.04279	30.0
197.04832	30.0
217.05952	20.0
221.04381	80.0
225.08366	20.0
235.40411	10.0
247.05853	60.0
253.0759	20.0
259.0574	20.0
305.06656	170.0
307.08429	20.0
316.56882	20.0
323.07416	70.0
331.07095	30.0
375.07047	230.0
414.53656	10.0
414.6803	10.0
415.10281	1000.0
433.11423	70.0
457.09552	20.0
463.2153	40.0
485.10797	460.0
593.85248	20.0
594.05029	10.0
594.35303	20.0
595.15033	560.0
595.26959	20.0
696.79999	20.0

NAME:  NCGC00169385-02!5-[4,5-dihydroxy-6-(hydroxymethyl)-3-(3,4,5-trihydroxyoxan-2-yl)oxyoxan-2-yl]oxy-7,8-dimethoxy-3-(4-methoxyphenyl)chromen-4-one
PRECURSORMZ:  659.13837559076
PRECURSORTYPE:  [M+K-2H]-
FORMULA:  C29H34O15
Ontology: ;;;
INCHIKEY:  NGUSMSQYMDPBGF-UHFFFAOYNA-N
SMILES:  COC1=CC=C(C=C1)C1=COC2=C(C1=O)C(OC1OC(CO)C(O)C(O)C1OC1OCC(O)C(O)C1O)=CC(OC)=C2OC
RETENTIONTIME:  
CCS:  -1
IONMODE:  Negative
INSTRUMENTTYPE:  
INSTRUMENT:  Maxis II HD Q-TOF Bruker
COLLISIONENERGY:  
Comment:  DB#=CCMSLIB00000847151; origin=GNPS
Num Peaks:  18
109.0262	70.0
134.48547	70.0
135.00168	60.0
135.04343	600.0
161.02135	330.0
177.91878	30.0
178.38519	20.0
178.55194	50.0
179.03421	1000.0
179.15224	40.0
259.05859	30.0
305.06631	70.0
307.08905	40.0
323.07205	110.0
415.09775	80.0
433.1091	250.0
475.12469	70.0
595.14813	230.0

NAME:  NCGC00169385-02!5-[4,5-dihydroxy-6-(hydroxymethyl)-3-(3,4,5-trihydroxyoxan-2-yl)oxyoxan-2-yl]oxy-7,8-dimethoxy-3-(4-methoxyphenyl)chromen-4-one
PRECURSORMZ:  667.18797294283
PRECURSORTYPE:  [M+FA-H]-
FORMULA:  C29H34O15
Ontology: ;;;
INCHIKEY:  NGUSMSQYMDPBGF-UHFFFAOYNA-N
SMILES:  COC1=CC=C(C=C1)C1=COC2=C(C1=O)C(OC1OC(CO)C(O)C(O)C1OC1OCC(O)C(O)C1O)=CC(OC)=C2OC
RETENTIONTIME:  
CCS:  -1
IONMODE:  Negative
INSTRUMENTTYPE:  
INSTRUMENT:  Maxis II HD Q-TOF Bruker
COLLISIONENERGY:  
Comment:  DB#=CCMSLIB00000847153; origin=GNPS
Num Peaks:  4
297.0405	270.0
312.0639	80.0
327.08682	1000.0
328.08316	10.0

NAME:  NCGC00380264-01!6-[6-[[10-acetyloxy-7,8-dihydroxy-8a-(hydroxymethyl)-4,4,6a,6b,11,11,14b-heptamethyl-9-(2-methylpropanoyloxy)-1,2,3,4a,5,6,7,8,9,10,12,12a,14,14a-tetradecahydropicen-3-yl]oxy]-4,5-dihydroxy-2-methyloxan-3-yl]oxy-4-[4,5-dihydroxy-6-(hydroxymethyl)-3-[3,4,5-trihydroxy-6-(hydroxymethyl)oxan-2-yl]oxyoxan-2-yl]oxy-3,5-dihydroxyoxane-2-carboxylic acid
PRECURSORMZ:  1263.60153599883
PRECURSORTYPE:  [M-H]-
FORMULA:  C60H96O28
Ontology: ;;;
INCHIKEY:  FFEZXYJBMGDYNX-UHFFFAOYNA-N
SMILES:  CC(C)C(=O)OC1C(OC(C)=O)C(C)(C)CC2C3=CCC4C5(C)CCC(OC6OC(C)C(OC7OC(C(O)C(OC8OC(CO)C(O)C(O)C8OC8OC(CO)C(O)C(O)C8O)C7O)C(O)=O)C(O)C6O)C(C)(C)C5CCC4(C)C3(C)C(O)C(O)C12CO
RETENTIONTIME:  
CCS:  -1
IONMODE:  Negative
INSTRUMENTTYPE:  
INSTRUMENT:  Maxis II HD Q-TOF Bruker
COLLISIONENERGY:  
Comment:  DB#=CCMSLIB00000847154; origin=GNPS
Num Peaks:  41
71.0138	10.0
73.02941	10.0
85.02863	30.0
87.0071	30.0
87.04359	80.0
89.02412	60.0
96.99338	10.0
100.98418	10.0
101.02305	80.0
103.03978	20.0
113.02397	40.0
115.03642	20.0
119.03302	100.0
125.02301	20.0
131.03268	110.0
137.02711	30.0
139.00484	30.0
143.03461	60.0
145.0498	20.0
157.01349	40.0
161.04089	30.0
163.06178	90.0
167.03218	10.0
205.07224	220.0
247.08179	30.0
383.11597	30.0
401.504	20.0
506.68887	10.0
517.34534	20.0
595.36029	10.0
615.37097	10.0
617.3941	20.0
713.41431	10.0
1083.53394	40.0
1083.62012	10.0
1084.52673	10.0
1262.57397	10.0
1263.60107	1000.0
1264.60449	490.0
1265.6084	150.0
1266.60693	30.0

NAME:  NCGC00386044-01!6-[(2,3-dihydroxyphenyl)methyl]-5,7-dihydroxy-2-phenyl-2,3-dihydrochromen-4-one
PRECURSORMZ:  377.10306184783
PRECURSORTYPE:  [M-H]-
FORMULA:  C22H18O6
Ontology: ;;;
INCHIKEY:  FMCBIXROZWHXRU-UHFFFAOYNA-N
SMILES:  OC1=CC=CC(CC2=C(O)C3=C(OC(CC3=O)C3=CC=CC=C3)C=C2O)=C1O
RETENTIONTIME:  
CCS:  -1
IONMODE:  Negative
INSTRUMENTTYPE:  
INSTRUMENT:  Maxis II HD Q-TOF Bruker
COLLISIONENERGY:  
Comment:  DB#=CCMSLIB00000847157; origin=GNPS
Num Peaks:  9
109.031	140.0
134.63994	70.0
151.00415	90.0
182.30084	90.0
255.06741	1000.0
255.22203	20.0
256.07343	90.0
267.06549	170.0
377.10364	510.0

NAME:  NCGC00347763-02!(3R)-5-methyl-3-[(2S,3R,4S,5S,6R)-3,4,5-trihydroxy-6-(hydroxymethyl)oxan-2-yl]oxy-3-[[4-[(2S,3R,4S,5S,6R)-3,4,5-trihydroxy-6-(hydroxymethyl)oxan-2-yl]oxyphenyl]methoxycarbonyl]hexanoic acid
PRECURSORMZ:  619.22435875583
PRECURSORTYPE:  [M-H]-
FORMULA:  C27H40O16
Ontology: ;;;
INCHIKEY:  ZGNUJHGCJSHIQU-UHFFFAOYNA-N
SMILES:  CC(C)CC(CC(O)=O)(OC1OC(CO)C(O)C(O)C1O)C(=O)OCC1=CC=C(OC2OC(CO)C(O)C(O)C2O)C=C1
RETENTIONTIME:  
CCS:  244.3065465
IONMODE:  Negative
INSTRUMENTTYPE:  
INSTRUMENT:  Maxis II HD Q-TOF Bruker
COLLISIONENERGY:  
Comment:  DB#=CCMSLIB00000847158; origin=GNPS
Num Peaks:  20
101.02847	60.0
109.0636	30.0
113.02316	120.0
119.03531	80.0
123.0439	30.0
125.08533	10.0
127.07349	70.0
149.04541	100.0
153.05594	1000.0
157.04985	10.0
161.04112	50.0
171.05884	20.0
179.05606	600.0
285.09598	30.0
307.1304	30.0
439.16663	110.0
457.17258	40.0
472.43509	30.0
619.22357	200.0
619.82422	10.0

NAME:  NCGC00347763-02!(3R)-5-methyl-3-[(2S,3R,4S,5S,6R)-3,4,5-trihydroxy-6-(hydroxymethyl)oxan-2-yl]oxy-3-[[4-[(2S,3R,4S,5S,6R)-3,4,5-trihydroxy-6-(hydroxymethyl)oxan-2-yl]oxyphenyl]methoxycarbonyl]hexanoic acid
PRECURSORMZ:  665.22983775583
PRECURSORTYPE:  [M+FA-H]-
FORMULA:  C27H40O16
Ontology: ;;;
INCHIKEY:  ZGNUJHGCJSHIQU-UHFFFAOYNA-N
SMILES:  CC(C)CC(CC(O)=O)(OC1OC(CO)C(O)C(O)C1O)C(=O)OCC1=CC=C(OC2OC(CO)C(O)C(O)C2O)C=C1
RETENTIONTIME:  
CCS:  -1
IONMODE:  Negative
INSTRUMENTTYPE:  
INSTRUMENT:  Maxis II HD Q-TOF Bruker
COLLISIONENERGY:  
Comment:  DB#=CCMSLIB00000847161; origin=GNPS
Num Peaks:  15
101.02636	300.0
113.02321	230.0
123.04199	170.0
127.07592	110.0
129.05263	420.0
153.05479	560.0
171.06779	200.0
213.07803	70.0
231.08318	140.0
256.79263	90.0
285.0946	420.0
288.29575	30.0
291.10989	130.0
457.17102	1000.0
458.15552	30.0

NAME:  NCGC00386032-01!3-[(2S,3R,4S,5S,6R)-4,5-dihydroxy-3-[3,4,5-trihydroxy-6-(hydroxymethyl)oxan-2-yl]oxy-6-[[(2R,3R,4R,5R,6S)-3,4,5-trihydroxy-6-methyloxan-2-yl]oxymethyl]oxan-2-yl]oxy-5,7-dihydroxy-2-(4-hydroxyphenyl)chromen-4-one
PRECURSORMZ:  755.20401723583
PRECURSORTYPE:  [M-H]-
FORMULA:  C33H40O20
Ontology: ;;;
INCHIKEY:  VNLOLXSJMINBIS-UHFFFAOYNA-N
SMILES:  CC1OC(OCC2OC(OC3=C(OC4=CC(O)=CC(O)=C4C3=O)C3=CC=C(O)C=C3)C(OC3OC(CO)C(O)C(O)C3O)C(O)C2O)C(O)C(O)C1O
RETENTIONTIME:  
CCS:  260.5697459
IONMODE:  Negative
INSTRUMENTTYPE:  
INSTRUMENT:  Maxis II HD Q-TOF Bruker
COLLISIONENERGY:  
Comment:  DB#=CCMSLIB00000847163; origin=GNPS
Num Peaks:  9
109.02962	130.0
163.00276	50.0
213.06029	10.0
225.05692	10.0
255.06697	580.0
256.06845	10.0
267.06732	180.0
377.10403	1000.0
378.1076	50.0

NAME:  NCGC00386032-01!3-[(2S,3R,4S,5S,6R)-4,5-dihydroxy-3-[3,4,5-trihydroxy-6-(hydroxymethyl)oxan-2-yl]oxy-6-[[(2R,3R,4R,5R,6S)-3,4,5-trihydroxy-6-methyloxan-2-yl]oxymethyl]oxan-2-yl]oxy-5,7-dihydroxy-2-(4-hydroxyphenyl)chromen-4-one
PRECURSORMZ:  801.20949623583
PRECURSORTYPE:  [M+FA-H]-
FORMULA:  C33H40O20
Ontology: ;;;
INCHIKEY:  VNLOLXSJMINBIS-UHFFFAOYNA-N
SMILES:  CC1OC(OCC2OC(OC3=C(OC4=CC(O)=CC(O)=C4C3=O)C3=CC=C(O)C=C3)C(OC3OC(CO)C(O)C(O)C3O)C(O)C2O)C(O)C(O)C1O
RETENTIONTIME:  
CCS:  -1
IONMODE:  Negative
INSTRUMENTTYPE:  
INSTRUMENT:  Maxis II HD Q-TOF Bruker
COLLISIONENERGY:  
Comment:  DB#=CCMSLIB00000847165; origin=GNPS
Num Peaks:  21
139.01035	90.0
211.04128	70.0
227.03629	180.0
257.05191	70.0
283.02545	490.0
283.26651	50.0
283.34375	30.0
284.03674	470.0
285.04507	920.0
447.08826	250.0
448.08667	80.0
585.64636	40.0
593.14923	1000.0
594.13776	70.0
595.95355	30.0
753.17816	70.0
755.13531	100.0
755.19476	120.0
756.19421	50.0
1057.98035	20.0
1963.03723	40.0

NAME:  NCGC00347565-02![3-(4-hydroxy-3-methoxybenzoyl)-2,3-dimethyloxiran-2-yl]-(4-hydroxy-3-methoxyphenyl)methanone
PRECURSORMZ:  371.11362653183
PRECURSORTYPE:  [M-H]-
FORMULA:  C20H20O7
Ontology: ;;;
INCHIKEY:  ZDJWTWORZULMCQ-UHFFFAOYNA-N
SMILES:  COC1=C(O)C=CC(=C1)C(=O)C1(C)OC1(C)C(=O)C1=CC(OC)=C(O)C=C1
RETENTIONTIME:  
CCS:  -1
IONMODE:  Negative
INSTRUMENTTYPE:  
INSTRUMENT:  Maxis II HD Q-TOF Bruker
COLLISIONENERGY:  
Comment:  DB#=CCMSLIB00000847167; origin=GNPS
Num Peaks:  12
108.02153	280.0
134.03479	310.0
162.02631	150.0
178.02925	390.0
193.04836	110.0
193.09056	140.0
205.05244	150.0
221.07127	180.0
281.04901	130.0
295.55118	40.0
371.11737	1000.0
1255.52625	120.0

NAME:  NCGC00380371-01!5-hydroxy-2,2,6,6-tetramethyl-4-[3-methyl-1-[2,4,6-trihydroxy-3-(2-methylpropanoyl)phenyl]butyl]cyclohex-4-ene-1,3-dione
PRECURSORMZ:  445.22317698283
PRECURSORTYPE:  [M-H]-
FORMULA:  C25H34O7
Ontology: ;;;
INCHIKEY:  ZGUNMNCNGJXADK-UHFFFAOYNA-N
SMILES:  CC(C)CC(C1=C(O)C(C(=O)C(C)C)=C(O)C=C1O)C1=C(O)C(C)(C)C(=O)C(C)(C)C1=O
RETENTIONTIME:  
CCS:  -1
IONMODE:  Negative
INSTRUMENTTYPE:  
INSTRUMENT:  Maxis II HD Q-TOF Bruker
COLLISIONENERGY:  
Comment:  DB#=CCMSLIB00000847169; origin=GNPS
Num Peaks:  10
124.68902	10.0
125.02582	20.0
135.26344	10.0
165.09172	50.0
181.0863	30.0
195.06377	160.0
208.52611	10.0
209.08026	1000.0
263.12698	80.0
445.22345	290.0

NAME:  NCGC00380371-01!5-hydroxy-2,2,6,6-tetramethyl-4-[3-methyl-1-[2,4,6-trihydroxy-3-(2-methylpropanoyl)phenyl]butyl]cyclohex-4-ene-1,3-dione
PRECURSORMZ:  427.21261230283
PRECURSORTYPE:  [M-H2O-H]-
FORMULA:  C25H34O7
Ontology: ;;;
INCHIKEY:  ZGUNMNCNGJXADK-UHFFFAOYNA-N
SMILES:  CC(C)CC(C1=C(O)C(C(=O)C(C)C)=C(O)C=C1O)C1=C(O)C(C)(C)C(=O)C(C)(C)C1=O
RETENTIONTIME:  
CCS:  -1
IONMODE:  Negative
INSTRUMENTTYPE:  
INSTRUMENT:  Maxis II HD Q-TOF Bruker
COLLISIONENERGY:  
Comment:  DB#=CCMSLIB00000847171; origin=GNPS
Num Peaks:  5
203.24985	40.0
369.12943	140.0
427.21228	1000.0
427.35742	50.0
778.07428	70.0

NAME:  NCGC00380369-01!(2S,3S,4S,5R,6S)-3,4,5-trihydroxy-6-(3-hydroxy-4-methoxy-2,5-diphenylphenoxy)oxane-2-carboxylic acid
PRECURSORMZ:  467.13475590083
PRECURSORTYPE:  [M-H]-
FORMULA:  C25H24O9
Ontology: ;;;
INCHIKEY:  ULMASYHIMBKYFX-UHFFFAOYNA-N
SMILES:  COC1=C(O)C(=C(OC2OC(C(O)C(O)C2O)C(O)=O)C=C1C1=CC=CC=C1)C1=CC=CC=C1
RETENTIONTIME:  
CCS:  228.4428007
IONMODE:  Negative
INSTRUMENTTYPE:  
INSTRUMENT:  Maxis II HD Q-TOF Bruker
COLLISIONENERGY:  
Comment:  DB#=CCMSLIB00000847173; origin=GNPS
Num Peaks:  7
247.07724	130.0
275.07379	90.0
276.07965	1000.0
291.10019	230.0
467.13684	150.0
1303.29211	300.0
1797.02869	60.0

NAME:  NCGC00380368-01!methyl 3,15,21-tris[[3,4,5-trihydroxy-6-(hydroxymethyl)oxan-2-yl]oxy]docosanoate
PRECURSORMZ:  887.48571839483
PRECURSORTYPE:  [M-H]-
FORMULA:  C41H76O20
Ontology: ;;;
INCHIKEY:  BKEFKSNTAPNAHR-UHFFFAOYNA-N
SMILES:  COC(=O)CC(CCCCCCCCCCCC(CCCCCC(C)OC1OC(CO)C(O)C(O)C1O)OC1OC(CO)C(O)C(O)C1O)OC1OC(CO)C(O)C(O)C1O
RETENTIONTIME:  
CCS:  -1
IONMODE:  Negative
INSTRUMENTTYPE:  
INSTRUMENT:  Maxis II HD Q-TOF Bruker
COLLISIONENERGY:  
Comment:  DB#=CCMSLIB00000847175; origin=GNPS
Num Peaks:  23
71.01434	20.0
87.00845	40.0
101.02172	90.0
111.0082	30.0
113.02182	70.0
119.03614	20.0
129.02357	30.0
179.05104	50.0
179.88741	60.0
257.01642	30.0
370.33994	20.0
437.5376	40.0
469.32306	10.0
513.33112	30.0
514.34003	30.0
515.18823	10.0
531.35242	20.0
621.35272	10.0
675.39465	1000.0
675.52716	20.0
676.39954	140.0
707.41602	130.0
708.42157	40.0

NAME:  NCGC00380368-01!methyl 3,15,21-tris[[3,4,5-trihydroxy-6-(hydroxymethyl)oxan-2-yl]oxy]docosanoate
PRECURSORMZ:  923.4623961069
PRECURSORTYPE:  [M+Cl]-
FORMULA:  C41H76O20
Ontology: ;;;
INCHIKEY:  BKEFKSNTAPNAHR-UHFFFAOYNA-N
SMILES:  COC(=O)CC(CCCCCCCCCCCC(CCCCCC(C)OC1OC(CO)C(O)C(O)C1O)OC1OC(CO)C(O)C(O)C1O)OC1OC(CO)C(O)C(O)C1O
RETENTIONTIME:  
CCS:  -1
IONMODE:  Negative
INSTRUMENTTYPE:  
INSTRUMENT:  Maxis II HD Q-TOF Bruker
COLLISIONENERGY:  
Comment:  DB#=CCMSLIB00000847177; origin=GNPS
Num Peaks:  18
127.07545	20.0
153.09076	10.0
167.03497	20.0
169.0833	10.0
181.08647	40.0
182.06038	60.0
197.08063	1000.0
198.08464	40.0
206.04376	10.0
248.06577	60.0
249.07169	10.0
276.09308	10.0
289.10544	20.0
291.12213	220.0
292.13098	30.0
303.12231	20.0
417.22418	60.0
461.2171	40.0

NAME:  NCGC00380368-01!methyl 3,15,21-tris[[3,4,5-trihydroxy-6-(hydroxymethyl)oxan-2-yl]oxy]docosanoate
PRECURSORMZ:  933.49119739483
PRECURSORTYPE:  [M+FA-H]-
FORMULA:  C41H76O20
Ontology: ;;;
INCHIKEY:  BKEFKSNTAPNAHR-UHFFFAOYNA-N
SMILES:  COC(=O)CC(CCCCCCCCCCCC(CCCCCC(C)OC1OC(CO)C(O)C(O)C1O)OC1OC(CO)C(O)C(O)C1O)OC1OC(CO)C(O)C(O)C1O
RETENTIONTIME:  
CCS:  -1
IONMODE:  Negative
INSTRUMENTTYPE:  
INSTRUMENT:  Maxis II HD Q-TOF Bruker
COLLISIONENERGY:  
Comment:  DB#=CCMSLIB00000847179; origin=GNPS
Num Peaks:  24
71.01429	10.0
83.01308	20.0
85.0301	40.0
89.02281	50.0
95.01123	10.0
101.02332	60.0
111.00967	10.0
112.01823	20.0
113.02369	90.0
119.03321	40.0
124.01555	20.0
125.02721	20.0
159.03008	20.0
179.0545	60.0
205.03227	10.0
353.21262	10.0
469.35443	10.0
513.34296	50.0
513.38983	10.0
675.39429	1000.0
675.56879	10.0
676.39838	200.0
707.42188	290.0
708.42859	50.0

NAME:  NCGC00169998-02!(2R,3R,4S,5S,6R)-2-[(3R)-1,7-bis(3,4-dihydroxyphenyl)heptan-3-yl]oxy-6-(hydroxymethyl)oxane-3,4,5-triol
PRECURSORMZ:  493.20792084283
PRECURSORTYPE:  [M-H]-
FORMULA:  C25H34O10
Ontology: ;;;
INCHIKEY:  LSEDQFLRUJOXDX-UHFFFAOYNA-N
SMILES:  OCC1OC(OC(CCCCC2=CC(O)=C(O)C=C2)CCC2=CC(O)=C(O)C=C2)C(O)C(O)C1O
RETENTIONTIME:  
CCS:  237.3764066
IONMODE:  Negative
INSTRUMENTTYPE:  
INSTRUMENT:  Maxis II HD Q-TOF Bruker
COLLISIONENERGY:  
Comment:  DB#=CCMSLIB00000847181; origin=GNPS
Num Peaks:  7
122.03551	10.0
251.34067	10.0
257.94531	10.0
313.1434	40.0
331.15704	150.0
493.20602	1000.0
494.19858	10.0

NAME:  NCGC00385089-01!(3S,5S,8R,9S,10S,13R,14S,17R)-3-[(2R,3R,4S,5R,6S)-3,4-dihydroxy-6-methyl-5-[(2S,3R,4S,5S,6R)-3,4,5-trihydroxy-6-(hydroxymethyl)oxan-2-yl]oxyoxan-2-yl]oxy-5,14-dihydroxy-13-methyl-17-(6-oxopyran-3-yl)-2,3,4,6,7,8,9,11,12,15,16,17-dodecahydro-1H-cyclopenta[a]phenanthrene-10-carbaldehyde
PRECURSORMZ:  769.32882352183
PRECURSORTYPE:  [M+FA-H]-
FORMULA:  C36H52O15
Ontology: ;;;
INCHIKEY:  DCSLTSSPIJWEJN-UHFFFAOYNA-N
SMILES:  CC1OC(OC2CCC3(C=O)C4CCC5(C)C(CCC5(O)C4CCC3(O)C2)C2=COC(=O)C=C2)C(O)C(O)C1OC1OC(CO)C(O)C(O)C1O
RETENTIONTIME:  
CCS:  -1
IONMODE:  Negative
INSTRUMENTTYPE:  
INSTRUMENT:  Maxis II HD Q-TOF Bruker
COLLISIONENERGY:  
Comment:  DB#=CCMSLIB00000847183; origin=GNPS
Num Peaks:  24
85.0296	30.0
89.02595	20.0
101.02299	90.0
113.02345	90.0
119.03656	20.0
131.03334	30.0
143.03493	20.0
145.05109	140.0
149.04402	10.0
159.02596	20.0
161.04492	280.0
179.05675	130.0
221.06929	210.0
247.08351	130.0
263.07288	20.0
265.09384	40.0
283.17499	10.0
343.44275	10.0
371.18887	10.0
397.20447	90.0
561.27283	30.0
562.28278	10.0
723.32373	1000.0
724.32458	130.0

NAME:  NCGC00385677-01!3-[(2E)-3,7-dimethylocta-2,6-dienyl]-2,4-dihydroxy-6-[(E)-2-phenylethenyl]benzoic acid
PRECURSORMZ:  391.19148292983
PRECURSORTYPE:  [M-H]-
FORMULA:  C25H28O4
Ontology: ;;;
INCHIKEY:  WHNBKYRXAOMPAE-UHFFFAOYSA-N
SMILES:  CC(C)=CCCC(C)=CCC1=C(O)C=C(C=CC2=CC=CC=C2)C(C(O)=O)=C1O
RETENTIONTIME:  
CCS:  226.9541141
IONMODE:  Negative
INSTRUMENTTYPE:  
INSTRUMENT:  Maxis II HD Q-TOF Bruker
COLLISIONENERGY:  
Comment:  DB#=CCMSLIB00000847185; origin=GNPS
Num Peaks:  10
195.08406	190.0
223.07362	280.0
247.1142	250.0
263.07809	140.0
264.07825	130.0
278.12451	150.0
304.11475	170.0
347.20078	920.0
373.17557	650.0
391.19205	1000.0

NAME:  NCGC00180865-02!6-[[4,4,6a,6b,11,11,14b-heptamethyl-8a-[3,4,5-trihydroxy-6-(hydroxymethyl)oxan-2-yl]oxycarbonyl-1,2,3,4a,5,6,7,8,9,10,12,12a,14,14a-tetradecahydropicen-3-yl]oxy]-4-[4,5-dihydroxy-6-methyl-3-[3,4,5-trihydroxy-6-(hydroxymethyl)oxan-2-yl]oxyoxan-2-yl]oxy-3,5-dihydroxyoxane-2-carboxylic acid
PRECURSORMZ:  1101.54871257683
PRECURSORTYPE:  [M-H]-
FORMULA:  C54H86O23
Ontology: ;;;
INCHIKEY:  UDPVBZZTXOCTNJ-UHFFFAOYNA-N
SMILES:  CC1OC(OC2C(O)C(OC3CCC4(C)C(CCC5(C)C4CC=C4C6CC(C)(C)CCC6(CCC54C)C(=O)OC4OC(CO)C(O)C(O)C4O)C3(C)C)OC(C2O)C(O)=O)C(OC2OC(CO)C(O)C(O)C2O)C(O)C1O
RETENTIONTIME:  
CCS:  -1
IONMODE:  Negative
INSTRUMENTTYPE:  
INSTRUMENT:  Maxis II HD Q-TOF Bruker
COLLISIONENERGY:  
Comment:  DB#=CCMSLIB00000847187; origin=GNPS
Num Peaks:  20
85.02921	20.0
101.02474	20.0
113.02354	40.0
131.03586	20.0
143.03505	10.0
161.04469	30.0
175.02486	20.0
367.11652	20.0
437.34039	20.0
455.35321	290.0
456.35446	20.0
497.3685	20.0
555.37378	20.0
569.3902	40.0
613.37	20.0
631.38568	900.0
632.38928	90.0
1101.55042	1000.0
1102.55188	380.0
1103.55188	50.0

NAME:  NCGC00347691-02!(3Z)-3-[[1,6-dimethyl-2-[(1E,3E)-penta-1,3-dienyl]-4a,5,6,7,8,8a-hexahydro-2H-naphthalen-1-yl]-hydroxymethylidene]-5-(1-hydroxyethyl)pyrrolidine-2,4-dione
PRECURSORMZ:  398.23368209483
PRECURSORTYPE:  [M-H]-
FORMULA:  C24H33NO4
Ontology: ;;;
INCHIKEY:  AIFXMSDWXBFQTF-UHFFFAOYNA-N
SMILES:  CC=CC=CC1C=CC2CC(C)CCC2C1(C)C(O)=C1C(O)=NC(C(C)O)C1=O
RETENTIONTIME:  
CCS:  -1
IONMODE:  Negative
INSTRUMENTTYPE:  
INSTRUMENT:  Maxis II HD Q-TOF Bruker
COLLISIONENERGY:  
Comment:  DB#=CCMSLIB00000847189; origin=GNPS
Num Peaks:  9
148.08629	220.0
192.06438	170.0
192.16641	40.0
198.05507	130.0
326.20801	300.0
336.21457	150.0
354.21213	1000.0
398.23438	790.0
399.2431	140.0

NAME:  NCGC00384521-01!2-(3,4-dihydroxyphenyl)-5-hydroxy-7-methoxy-3-[3,4,5-trihydroxy-6-(hydroxymethyl)oxan-2-yl]oxychromen-4-one
PRECURSORMZ:  477.10384969583
PRECURSORTYPE:  [M-H]-
FORMULA:  C22H22O12
Ontology: Kingdom: Organic compounds;Superclass: Phenylpropanoids and polyketides;Class: Flavonoids;Subclass: Flavonoid glycosides
INCHIKEY:  PHEWILLIAJUBQE-UHFFFAOYNA-N
SMILES:  COC1=CC(O)=C2C(=O)C(OC3OC(CO)C(O)C(O)C3O)=C(OC2=C1)C1=CC(O)=C(O)C=C1
RETENTIONTIME:  
CCS:  221.1091493
IONMODE:  Negative
INSTRUMENTTYPE:  
INSTRUMENT:  Maxis II HD Q-TOF Bruker
COLLISIONENERGY:  
Comment:  DB#=CCMSLIB00000847191; origin=GNPS
Num Peaks:  16
152.09842	20.0
165.02191	80.0
169.17752	20.0
176.24664	40.0
232.03593	30.0
238.15265	30.0
259.05838	30.0
271.02542	60.0
299.02106	330.0
313.4613	10.0
314.04355	1000.0
315.05106	190.0
315.75906	30.0
329.33762	20.0
477.00137	20.0
477.10336	500.0

NAME:  NCGC00384839-01!(2R,3R,4S,5S,6R)-2-[[(2R,3S,4S,5R,6S)-6-[4-[3-[3,5-dimethoxy-4-[(2S,3R,4S,5S,6R)-3,4,5-trihydroxy-6-(hydroxymethyl)oxan-2-yl]oxyphenyl]-1,3,3a,4,6,6a-hexahydrofuro[3,4-c]furan-6-yl]-2,6-dimethoxyphenoxy]-3,4,5-trihydroxyoxan-2-yl]methoxy]-6-(hydroxymethyl)oxane-3,4,5-triol
PRECURSORMZ:  949.31944061083
PRECURSORTYPE:  [M+FA-H]-
FORMULA:  C40H56O23
Ontology: ;;;
INCHIKEY:  NONWRJXAJGEWOR-UHFFFAOYNA-N
SMILES:  COC1=CC(=CC(OC)=C1OC1OC(CO)C(O)C(O)C1O)C1OCC2C1COC2C1=CC(OC)=C(OC2OC(COC3OC(CO)C(O)C(O)C3O)C(O)C(O)C2O)C(OC)=C1
RETENTIONTIME:  
CCS:  -1
IONMODE:  Negative
INSTRUMENTTYPE:  
INSTRUMENT:  Maxis II HD Q-TOF Bruker
COLLISIONENERGY:  
Comment:  DB#=CCMSLIB00000847193; origin=GNPS
Num Peaks:  69
71.0142	50.0
85.02826	40.0
89.03111	120.0
90.69733	20.0
99.01538	40.0
101.02458	140.0
115.23287	20.0
119.03768	120.0
119.08451	10.0
123.77338	20.0
124.78014	20.0
125.02644	260.0
126.02856	30.0
131.03156	40.0
137.02296	30.0
139.00134	30.0
143.03532	50.0
143.30869	20.0
149.04742	20.0
151.00688	50.0
152.05489	10.0
159.03987	40.0
161.04863	220.0
163.04544	40.0
166.02641	260.0
175.04141	30.0
177.02151	30.0
179.05797	410.0
181.05205	1000.0
183.33832	10.0
191.06728	40.0
195.03792	40.0
203.06999	40.0
207.06384	40.0
208.04202	40.0
209.05304	30.0
218.05829	20.0
221.0659	260.0
222.06625	30.0
223.06596	30.0
224.03801	50.0
225.04568	30.0
233.06842	10.0
245.07037	90.0
262.66483	20.0
263.07587	140.0
277.09286	30.0
305.08539	30.0
315.08878	20.0
323.10114	800.0
324.09802	70.0
354.11932	20.0
387.11313	260.0
402.12988	190.0
402.1799	40.0
416.36777	10.0
416.48111	20.0
417.09253	30.0
417.15717	780.0
417.42224	30.0
418.16022	40.0
491.8157	10.0
517.17804	30.0
579.22125	20.0
740.18903	20.0
741.18555	10.0
741.26392	480.0
742.26337	80.0
742.99164	20.0

NAME:  NCGC00180352-03!(2S,3S,4S,5R,6S)-6-(2,4-dihydroxy-3,6-diphenylphenoxy)-3,4,5-trihydroxyoxane-2-carboxylic acid
PRECURSORMZ:  453.11910583583
PRECURSORTYPE:  [M-H]-
FORMULA:  C24H22O9
Ontology: ;;;
INCHIKEY:  QQDLPJHEFJKVHT-UHFFFAOYNA-N
SMILES:  OC1C(O)C(OC2=C(O)C(=C(O)C=C2C2=CC=CC=C2)C2=CC=CC=C2)OC(C1O)C(O)=O
RETENTIONTIME:  
CCS:  220.5285925
IONMODE:  Negative
INSTRUMENTTYPE:  
INSTRUMENT:  Maxis II HD Q-TOF Bruker
COLLISIONENERGY:  
Comment:  DB#=CCMSLIB00000847195; origin=GNPS
Num Peaks:  17
113.02319	20.0
117.03111	20.0
158.23994	10.0
159.04346	20.0
175.02316	40.0
205.10448	20.0
230.0658	10.0
233.09677	20.0
245.12405	20.0
247.07402	20.0
251.12968	20.0
275.06744	10.0
276.08887	40.0
277.08469	1000.0
451.38159	10.0
452.9639	10.0
453.12415	130.0

NAME:  NCGC00179806-02![4,5-diacetyloxy-6-[7-hydroxy-5-methoxy-4-oxo-2-[4-[3,4,5-trihydroxy-6-(hydroxymethyl)oxan-2-yl]oxyphenyl]chromen-6-yl]oxan-3-yl] acetate
PRECURSORMZ:  749.19345224683
PRECURSORTYPE:  [M+FA-H]-
FORMULA:  C33H36O17
Ontology: Kingdom: Organic compounds;Superclass: Phenylpropanoids and polyketides;Class: Flavonoids;Subclass: Flavonoid glycosides
INCHIKEY:  UPTPSJJNEWBOBD-UHFFFAOYNA-N
SMILES:  COC1=C(C2OCC(OC(C)=O)C(OC(C)=O)C2OC(C)=O)C(O)=CC2=C1C(=O)C=C(O2)C1=CC=C(OC2OC(CO)C(O)C(O)C2O)C=C1
RETENTIONTIME:  
CCS:  -1
IONMODE:  Negative
INSTRUMENTTYPE:  
INSTRUMENT:  Maxis II HD Q-TOF Bruker
COLLISIONENERGY:  
Comment:  DB#=CCMSLIB00000847197; origin=GNPS
Num Peaks:  41
117.03333	100.0
266.26352	20.0
271.06155	10.0
280.16568	10.0
283.05377	10.0
292.03329	20.0
305.04242	20.0
307.05377	20.0
310.04013	20.0
319.04315	20.0
333.03757	10.0
333.07956	20.0
337.06726	40.0
346.03958	20.0
347.05746	20.0
349.09491	10.0
363.04959	10.0
389.06686	30.0
397.09137	80.0
398.09125	10.0
421.09848	20.0
439.09567	20.0
451.10776	10.0
466.09366	30.0
480.48358	10.0
480.90524	10.0
481.11395	1000.0
482.11578	90.0
494.14844	10.0
495.12057	10.0
509.12253	10.0
523.13092	20.0
525.14734	10.0
540.44781	20.0
541.13446	600.0
542.1394	30.0
554.14197	10.0
555.14307	10.0
703.18506	10.0
1340.59839	20.0
1995.38843	10.0

NAME:  NCGC00384950-01!19-hydroxy-18-[3,4,5-trihydroxy-6-(hydroxymethyl)oxan-2-yl]oxyicosanoic acid
PRECURSORMZ:  505.33820673783
PRECURSORTYPE:  [M-H]-
FORMULA:  C26H50O9
Ontology: ;;;
INCHIKEY:  GYUCMTKUEQLBJW-UHFFFAOYNA-N
SMILES:  CC(O)C(CCCCCCCCCCCCCCCCC(O)=O)OC1OC(CO)C(O)C(O)C1O
RETENTIONTIME:  
CCS:  -1
IONMODE:  Negative
INSTRUMENTTYPE:  
INSTRUMENT:  Maxis II HD Q-TOF Bruker
COLLISIONENERGY:  
Comment:  DB#=CCMSLIB00000847199; origin=GNPS
Num Peaks:  7
245.93349	20.0
325.27612	30.0
340.98306	10.0
343.28494	60.0
350.99341	10.0
505.34015	1000.0
506.5079	20.0

NAME:  NCGC00384949-01!2-(hydroxymethyl)-6-(2,20,21-trihydroxydocosan-3-yloxy)oxane-3,4,5-triol
PRECURSORMZ:  581.39063593083
PRECURSORTYPE:  [M+FA-H]-
FORMULA:  C28H56O9
Ontology: Kingdom: Organic compounds;Superclass: Lipids and lipid;Class: Fatty Acyls;Subclass: Fatty acyl glycosides
INCHIKEY:  IKQSIKPOUMLPKK-UHFFFAOYNA-N
SMILES:  CC(O)C(O)CCCCCCCCCCCCCCCCC(OC1OC(CO)C(O)C(O)C1O)C(C)O
RETENTIONTIME:  
CCS:  -1
IONMODE:  Negative
INSTRUMENTTYPE:  
INSTRUMENT:  Maxis II HD Q-TOF Bruker
COLLISIONENERGY:  
Comment:  DB#=CCMSLIB00000847201; origin=GNPS
Num Peaks:  10
101.02639	50.0
161.04466	80.0
179.05835	200.0
262.63919	40.0
270.07968	30.0
309.28186	60.0
309.3891	10.0
373.33633	100.0
533.07422	30.0
535.3927	1000.0

NAME:  NCGC00384927-01!8-[4,5-dihydroxy-6-(hydroxymethyl)-3-(3,4,5-trihydroxy-6-methyloxan-2-yl)oxyoxan-2-yl]-5,7-dihydroxy-2-(4-methoxyphenyl)chromen-4-one
PRECURSORMZ:  591.17192925783
PRECURSORTYPE:  [M-H]-
FORMULA:  C28H32O14
Ontology: Kingdom: Organic compounds;Superclass: Phenylpropanoids and polyketides;Class: Flavonoids;Subclass: Flavonoid glycosides
INCHIKEY:  AOXGLIJSZLOQNZ-UHFFFAOYNA-N
SMILES:  COC1=CC=C(C=C1)C1=CC(=O)C2=C(O1)C(C1OC(CO)C(O)C(O)C1OC1OC(C)C(O)C(O)C1O)=C(O)C=C2O
RETENTIONTIME:  
CCS:  232.3539323
IONMODE:  Negative
INSTRUMENTTYPE:  
INSTRUMENT:  Maxis II HD Q-TOF Bruker
COLLISIONENERGY:  
Comment:  DB#=CCMSLIB00000847203; origin=GNPS
Num Peaks:  29
78.5987	30.0
151.03612	30.0
163.06409	30.0
168.92754	40.0
175.14961	50.0
189.01491	20.0
229.5556	30.0
281.04898	110.0
282.05783	70.0
283.0629	60.0
292.03586	110.0
295.05392	30.0
307.06384	690.0
325.08081	190.0
334.04639	30.0
337.07233	140.0
351.0968	20.0
354.07629	30.0
355.07764	170.0
367.08987	80.0
369.09607	90.0
370.10019	30.0
391.08459	20.0
397.09064	70.0
427.10071	120.0
591.1734	1000.0
591.56909	40.0
592.16699	40.0
594.84766	20.0

NAME:  NCGC00384931-01!3-[(2S,3R,4S,5R,6R)-3-[(2S,3R,4R,5S,6S)-3,5-dihydroxy-6-methyl-4-[(2S,3R,4S,5S,6R)-3,4,5-trihydroxy-6-(hydroxymethyl)oxan-2-yl]oxyoxan-2-yl]oxy-4,5-dihydroxy-6-[[(2R,3R,4R,5R,6S)-3,4,5-trihydroxy-6-methyloxan-2-yl]oxymethyl]oxan-2-yl]oxy-2-(3,4-dihydroxyphenyl)-5,7-dihydroxychromen-4-one
PRECURSORMZ:  917.25684065783
PRECURSORTYPE:  [M-H]-
FORMULA:  C39H50O25
Ontology: Kingdom: Organic compounds;Superclass: Phenylpropanoids and polyketides;Class: Flavonoids;Subclass: Flavonoid glycosides
INCHIKEY:  CBSLALAKOKYDBZ-UHFFFAOYNA-N
SMILES:  CC1OC(OCC2OC(OC3=C(OC4=CC(O)=CC(O)=C4C3=O)C3=CC(O)=C(O)C=C3)C(OC3OC(C)C(O)C(OC4OC(CO)C(O)C(O)C4O)C3O)C(O)C2O)C(O)C(O)C1O
RETENTIONTIME:  
CCS:  279.2674338
IONMODE:  Negative
INSTRUMENTTYPE:  
INSTRUMENT:  Maxis II HD Q-TOF Bruker
COLLISIONENERGY:  
Comment:  DB#=CCMSLIB00000847205; origin=GNPS
Num Peaks:  16
151.00012	40.0
169.00954	10.0
178.99791	50.0
227.03844	10.0
243.0262	30.0
255.03023	100.0
257.03976	10.0
271.02417	270.0
272.02957	60.0
299.02087	20.0
300.0275	1000.0
301.03473	210.0
302.04218	10.0
917.25684	600.0
918.26263	160.0
919.2652	10.0

NAME:  NCGC00180397-02!4-(2,4-dihydroxy-3,5-dimethylbenzoyl)oxy-2-hydroxy-3,5-dimethylbenzoic acid
PRECURSORMZ:  345.09797646783
PRECURSORTYPE:  [M-H]-
FORMULA:  C18H18O7
Ontology: ;;;
INCHIKEY:  WKHWTIZYRUWECB-UHFFFAOYSA-N
SMILES:  CC1=CC(C(=O)OC2=C(C)C=C(C(O)=O)C(O)=C2C)=C(O)C(C)=C1O
RETENTIONTIME:  
CCS:  -1
IONMODE:  Negative
INSTRUMENTTYPE:  
INSTRUMENT:  Maxis II HD Q-TOF Bruker
COLLISIONENERGY:  
Comment:  DB#=CCMSLIB00000847207; origin=GNPS
Num Peaks:  7
107.01443	40.0
137.05542	110.0
143.92133	10.0
146.93954	20.0
163.03885	200.0
181.04922	1000.0
496.94482	20.0

NAME:  NCGC00169117-02!3-[(7S,8R)-5-hydroxy-2,2,7,8-tetramethyl-6-oxo-7,8-dihydropyrano[3,2-g]chromen-10-yl]-3-phenylpropanoic acid
PRECURSORMZ:  421.16566210483
PRECURSORTYPE:  [M-H]-
FORMULA:  C25H26O6
Ontology: Kingdom: Organic compounds;Superclass: Organoheterocyclic compounds;Class: Benzopyrans;
INCHIKEY:  CEJSYHIZUAMEQV-UHFFFAOYNA-N
SMILES:  CC1OC2=C(C(=O)C1C)C(O)=C1C=CC(C)(C)OC1=C2C(CC(O)=O)C1=CC=CC=C1
RETENTIONTIME:  
CCS:  208.2058507
IONMODE:  Negative
INSTRUMENTTYPE:  
INSTRUMENT:  Maxis II HD Q-TOF Bruker
COLLISIONENERGY:  
Comment:  DB#=CCMSLIB00000847209; origin=GNPS
Num Peaks:  24
129.08372	40.0
173.0583	20.0
189.05338	30.0
211.04466	50.0
253.12085	60.0
263.07303	20.0
269.11206	60.0
273.11124	50.0
277.12454	50.0
278.13181	20.0
280.03717	20.0
289.12436	30.0
321.11572	30.0
329.09705	30.0
361.14719	10.0
376.44434	20.0
376.629	20.0
376.71274	40.0
377.17892	430.0
377.58078	10.0
403.16785	20.0
420.97629	30.0
421.16562	1000.0
421.83218	10.0

NAME:  NCGC00384524-01!5,7-dihydroxy-2-[4-hydroxy-3-[(2S,3R,4S,5R)-3,4,5-trihydroxyoxan-2-yl]oxyphenyl]-3-methoxychromen-4-one
PRECURSORMZ:  447.09328501183
PRECURSORTYPE:  [M-H]-
FORMULA:  C21H20O11
Ontology: Kingdom: Organic compounds;Superclass: Phenylpropanoids and polyketides;Class: Flavonoids;Subclass: Flavonoid glycosides
INCHIKEY:  ASKKBGQVSVTIAW-UHFFFAOYNA-N
SMILES:  COC1=C(OC2=CC(O)=CC(O)=C2C1=O)C1=CC(OC2OCC(O)C(O)C2O)=C(O)C=C1
RETENTIONTIME:  
CCS:  220.9608295
IONMODE:  Negative
INSTRUMENTTYPE:  
INSTRUMENT:  Maxis II HD Q-TOF Bruker
COLLISIONENERGY:  
Comment:  DB#=CCMSLIB00000847211; origin=GNPS
Num Peaks:  6
155.7803	40.0
209.01248	70.0
300.02896	410.0
315.04926	1000.0
316.05539	40.0
447.09424	180.0

NAME:  NCGC00347854-02!(3R,4S,5R)-4-hydroxy-3,5-bis[(3,4,5-trihydroxybenzoyl)oxy]cyclohexene-1-carboxylic acid
PRECURSORMZ:  477.06746418783
PRECURSORTYPE:  [M-H]-
FORMULA:  C21H18O13
Ontology: ;;;
INCHIKEY:  GASRJYBPBZZTBO-UHFFFAOYNA-N
SMILES:  OC1C(CC(=CC1OC(=O)C1=CC(O)=C(O)C(O)=C1)C(O)=O)OC(=O)C1=CC(O)=C(O)C(O)=C1
RETENTIONTIME:  
CCS:  204.9960442
IONMODE:  Negative
INSTRUMENTTYPE:  
INSTRUMENT:  Maxis II HD Q-TOF Bruker
COLLISIONENERGY:  
Comment:  DB#=CCMSLIB00000847213; origin=GNPS
Num Peaks:  14
110.00286	100.0
124.01898	90.0
125.02464	300.0
137.02541	730.0
168.00529	260.0
169.01543	1000.0
200.06372	110.0
201.05687	250.0
245.04141	50.0
263.05847	780.0
281.0683	130.0
289.03867	840.0
307.04468	140.0
477.06976	890.0

NAME:  NCGC00384835-01![4-[3,4,5-trihydroxy-6-(hydroxymethyl)oxan-2-yl]oxyphenyl]methyl 2,3-dihydroxy-2-[(4-hydroxyphenyl)methyl]butanoate
PRECURSORMZ:  493.17153533383
PRECURSORTYPE:  [M-H]-
FORMULA:  C24H30O11
Ontology: Kingdom: Organic compounds;Superclass: Organic oxygen compounds;Class: Organooxygen compounds;Subclass: Carbohydrates and carbohydrate conjugates
INCHIKEY:  FKMASXTUONWHBB-UHFFFAOYNA-N
SMILES:  CC(O)C(O)(CC1=CC=C(O)C=C1)C(=O)OCC1=CC=C(OC2OC(CO)C(O)C(O)C2O)C=C1
RETENTIONTIME:  
CCS:  -1
IONMODE:  Negative
INSTRUMENTTYPE:  
INSTRUMENT:  Maxis II HD Q-TOF Bruker
COLLISIONENERGY:  
Comment:  DB#=CCMSLIB00000847215; origin=GNPS
Num Peaks:  5
163.0365	170.0
165.05797	80.0
181.0535	70.0
225.07822	1000.0
387.13239	110.0

NAME:  NCGC00384835-01![4-[3,4,5-trihydroxy-6-(hydroxymethyl)oxan-2-yl]oxyphenyl]methyl 2,3-dihydroxy-2-[(4-hydroxyphenyl)methyl]butanoate
PRECURSORMZ:  539.17701433383
PRECURSORTYPE:  [M+FA-H]-
FORMULA:  C24H30O11
Ontology: Kingdom: Organic compounds;Superclass: Organic oxygen compounds;Class: Organooxygen compounds;Subclass: Carbohydrates and carbohydrate conjugates
INCHIKEY:  FKMASXTUONWHBB-UHFFFAOYNA-N
SMILES:  CC(O)C(O)(CC1=CC=C(O)C=C1)C(=O)OCC1=CC=C(OC2OC(CO)C(O)C(O)C2O)C=C1
RETENTIONTIME:  
CCS:  -1
IONMODE:  Negative
INSTRUMENTTYPE:  
INSTRUMENT:  Maxis II HD Q-TOF Bruker
COLLISIONENERGY:  
Comment:  DB#=CCMSLIB00000847217; origin=GNPS
Num Peaks:  10
83.13017	10.0
83.38454	10.0
98.89867	20.0
133.04199	10.0
163.04564	30.0
179.06982	20.0
181.05409	70.0
225.07976	1000.0
387.12292	10.0
493.16949	30.0

NAME:  NCGC00384980-01!5-[5-[3,4-dihydroxy-5-(hydroxymethyl)oxolan-2-yl]oxy-3-hydroxy-6-methyloctanoyl]oxy-3-hydroxy-6-methyloctanoic acid
PRECURSORMZ:  493.26543571983
PRECURSORTYPE:  [M-H]-
FORMULA:  C23H42O11
Ontology: Kingdom: Organic compounds;Superclass: Organic oxygen compounds;Class: Organooxygen compounds;Subclass: Carbohydrates and carbohydrate conjugates
INCHIKEY:  VQFBAKAPQDNJNU-UHFFFAOYNA-N
SMILES:  CCC(C)C(CC(O)CC(=O)OC(CC(O)CC(O)=O)C(C)CC)OC1OC(CO)C(O)C1O
RETENTIONTIME:  
CCS:  -1
IONMODE:  Negative
INSTRUMENTTYPE:  
INSTRUMENT:  Maxis II HD Q-TOF Bruker
COLLISIONENERGY:  
Comment:  DB#=CCMSLIB00000847223; origin=GNPS
Num Peaks:  24
70.16261	10.0
118.34588	10.0
149.04834	20.0
153.09116	60.0
158.56024	30.0
171.10443	450.0
189.11911	200.0
203.69788	10.0
213.12154	30.0
231.12683	140.0
307.19296	20.0
319.64493	10.0
320.59781	20.0
320.70901	20.0
320.78235	50.0
321.15717	1000.0
321.34024	10.0
325.19772	60.0
475.26031	10.0
490.6218	30.0
493.26822	730.0
496.14597	10.0
497.42224	20.0
1219.8623	30.0

NAME:  NCGC00384690-01!
PRECURSORMZ:  661.00845315983
PRECURSORTYPE:  [M-H]-
FORMULA:  C27H22N2O10S4
Ontology: Kingdom: Organic compounds;Superclass: Benzenoids;Class: Benzene and substituted derivatives;Subclass: Diphenylethers
INCHIKEY:  GGRMGMVFFCJIEH-UHFFFAOYNA-N
SMILES:  [H]C12SSSSC3(C(O)C4=COC=CC(OC(=O)C5=CC(OC6=C(O)C=CC(C=O)=C6)=C(OC)C=C5)C4N3C1=O)C(=O)N2C
RETENTIONTIME:  
CCS:  -1
IONMODE:  Negative
INSTRUMENTTYPE:  
INSTRUMENT:  Maxis II HD Q-TOF Bruker
COLLISIONENERGY:  
Comment:  DB#=CCMSLIB00000847226; origin=GNPS
Num Peaks:  40
136.01881	20.0
137.02725	280.0
138.02388	10.0
141.84921	20.0
145.24425	20.0
175.04002	10.0
181.97722	10.0
189.99654	20.0
192.01111	20.0
193.01105	20.0
205.06509	30.0
208.00679	30.0
211.04332	90.0
221.00606	30.0
227.03259	10.0
231.02325	20.0
231.04391	20.0
243.06714	90.0
247.06769	20.0
251.98604	20.0
255.03238	70.0
275.02386	30.0
277.03516	30.0
286.65469	20.0
287.05795	1000.0
288.06335	20.0
300.03293	20.0
308.99716	20.0
338.01828	40.0
401.11148	10.0
503.11829	20.0
519.09485	20.0
522.0152	10.0
546.70111	10.0
547.07343	60.0
547.11395	40.0
547.6839	10.0
563.07672	120.0
597.09644	30.0
889.44635	20.0

NAME:  NCGC00180102-02!(E)-N-[2-[3-acetamido-4,5-dihydroxy-6-(hydroxymethyl)oxan-2-yl]oxy-6-[2-[5-(2,4-dioxopyrimidin-1-yl)-3,4-dihydroxyoxolan-2-yl]-2-hydroxyethyl]-4,5-dihydroxyoxan-3-yl]-13-methyltetradec-2-enamide
PRECURSORMZ:  829.40880547983
PRECURSORTYPE:  [M-H]-
FORMULA:  C38H62N4O16
Ontology: Kingdom: Organic compounds;Superclass: Organic oxygen compounds;Class: Organooxygen compounds;Subclass: Carbohydrates and carbohydrate conjugates
INCHIKEY:  MEYZYGMYMLNUHJ-UHFFFAOYNA-N
SMILES:  CC(C)CCCCCCCCCC=CC(O)=NC1C(OC2OC(CO)C(O)C(O)C2N=C(C)O)OC(CC(O)C2OC(C(O)C2O)N2C=CC(O)=NC2=O)C(O)C1O
RETENTIONTIME:  
CCS:  337.2299287
IONMODE:  Negative
INSTRUMENTTYPE:  
INSTRUMENT:  Maxis II HD Q-TOF Bruker
COLLISIONENERGY:  
Comment:  DB#=CCMSLIB00000847227; origin=GNPS
Num Peaks:  35
111.02354	690.0
112.02844	170.0
113.02414	730.0
115.03854	150.0
119.03445	260.0
127.03804	260.0
138.04063	190.0
143.03072	340.0
145.05075	240.0
152.03452	160.0
176.74384	130.0
181.02237	210.0
189.05798	190.0
202.05174	80.0
212.06122	610.0
241.05351	150.0
280.22989	210.0
308.22214	1000.0
313.0976	290.0
360.25876	140.0
376.28128	200.0
400.25668	230.0
404.1402	180.0
418.24933	190.0
418.27475	250.0
454.29242	130.0
570.59766	150.0
608.2738	230.0
657.36658	300.0
717.37231	260.0
718.36633	130.0
786.37982	230.0
787.24878	110.0
829.4162	280.0
830.44653	200.0

NAME:  NCGC00180102-02!(E)-N-[2-[3-acetamido-4,5-dihydroxy-6-(hydroxymethyl)oxan-2-yl]oxy-6-[2-[5-(2,4-dioxopyrimidin-1-yl)-3,4-dihydroxyoxolan-2-yl]-2-hydroxyethyl]-4,5-dihydroxyoxan-3-yl]-13-methyltetradec-2-enamide
PRECURSORMZ:  875.41428447983
PRECURSORTYPE:  [M+FA-H]-
FORMULA:  C38H62N4O16
Ontology: Kingdom: Organic compounds;Superclass: Organic oxygen compounds;Class: Organooxygen compounds;Subclass: Carbohydrates and carbohydrate conjugates
INCHIKEY:  MEYZYGMYMLNUHJ-UHFFFAOYNA-N
SMILES:  CC(C)CCCCCCCCCC=CC(O)=NC1C(OC2OC(CO)C(O)C(O)C2N=C(C)O)OC(CC(O)C2OC(C(O)C2O)N2C=CC(O)=NC2=O)C(O)C1O
RETENTIONTIME:  
CCS:  -1
IONMODE:  Negative
INSTRUMENTTYPE:  
INSTRUMENT:  Maxis II HD Q-TOF Bruker
COLLISIONENERGY:  
Comment:  DB#=CCMSLIB00000847230; origin=GNPS
Num Peaks:  117
74.37049	10.0
82.27094	10.0
85.03141	80.0
89.02648	20.0
92.81658	10.0
97.03299	30.0
99.04536	20.0
100.04179	120.0
101.02698	90.0
102.0309	10.0
105.01542	10.0
107.02187	10.0
107.03799	10.0
108.04544	30.0
109.02137	20.0
110.02473	90.0
111.02122	1000.0
113.025	530.0
115.04106	20.0
119.0369	120.0
122.02855	20.0
124.04096	60.0
125.02698	20.0
127.04124	80.0
128.03479	40.0
137.02467	50.0
138.01837	10.0
139.03873	50.0
140.03758	100.0
142.05025	90.0
143.0386	70.0
145.0544	50.0
147.80676	10.0
150.05472	10.0
151.05249	40.0
152.03661	360.0
154.05118	40.0
155.03532	140.0
160.0625	50.0
165.03365	10.0
166.06076	10.0
167.32841	40.0
170.04764	70.0
173.05313	40.0
179.03708	30.0
179.08574	10.0
181.02797	120.0
184.06496	10.0
186.06261	20.0
193.99469	10.0
194.04723	10.0
196.06796	10.0
202.07449	70.0
206.04221	20.0
212.05928	310.0
215.05487	10.0
220.08362	130.0
221.06476	10.0
221.19447	30.0
230.07002	90.0
231.04837	10.0
238.217	20.0
241.04086	20.0
250.23436	20.0
250.27632	10.0
262.22388	20.0
264.23334	10.0
267.08246	10.0
280.22922	280.0
281.24878	10.0
290.20981	10.0
295.0918	20.0
295.22717	10.0
308.22546	860.0
308.30585	10.0
309.2269	120.0
313.10608	170.0
314.12198	10.0
316.72919	10.0
327.08694	30.0
332.21646	10.0
343.50912	10.0
348.26675	20.0
360.25537	30.0
376.25345	30.0
394.26132	70.0
395.26404	10.0
400.24979	30.0
416.26749	10.0
418.2663	30.0
436.27383	10.0
486.15469	10.0
487.28394	70.0
488.29443	10.0
496.25125	10.0
496.29398	50.0
556.32452	10.0
565.31787	20.0
572.30682	10.0
608.10083	20.0
608.31616	90.0
609.32123	30.0
615.35071	70.0
616.35571	10.0
657.36334	120.0
675.37762	20.0
699.3739	30.0
703.37689	10.0
717.38263	220.0
718.38147	60.0
751.37646	20.0
786.4118	60.0
787.38141	20.0
829.41235	970.0
830.41528	220.0
831.43091	10.0
1623.89307	10.0

NAME:  NCGC00385631-01!6-[2,3-dihydroxy-3-methyl-1-[(2R,3R,4S,5S,6R)-3,4,5-trihydroxy-6-(hydroxymethyl)oxan-2-yl]oxybutyl]-7-methoxychromen-2-one
PRECURSORMZ:  501.16136426983
PRECURSORTYPE:  [M+FA-H]-
FORMULA:  C21H28O11
Ontology: Kingdom: Organic compounds;Superclass: Lipids and lipid;Class: Fatty Acyls;Subclass: Fatty acyl glycosides
INCHIKEY:  ABOPTWOWDLNBOE-UHFFFAOYNA-N
SMILES:  COC1=C(C=C2C=CC(=O)OC2=C1)C(OC1OC(CO)C(O)C(O)C1O)C(O)C(C)(C)O
RETENTIONTIME:  
CCS:  -1
IONMODE:  Negative
INSTRUMENTTYPE:  
INSTRUMENT:  Maxis II HD Q-TOF Bruker
COLLISIONENERGY:  
Comment:  DB#=CCMSLIB00000847232; origin=GNPS
Num Peaks:  22
85.02869	30.0
132.48378	40.0
152.42839	80.0
161.02391	40.0
179.05838	20.0
191.03468	1000.0
191.56317	20.0
203.03711	110.0
205.04602	40.0
217.04823	20.0
233.05705	40.0
235.06093	40.0
243.05997	90.0
245.0471	300.0
261.07504	160.0
279.08871	50.0
293.10458	30.0
335.0791	240.0
423.13544	150.0
423.53995	10.0
455.15311	110.0
1556.20728	30.0

NAME:  NCGC00385624-01!(2S,3S,4S,5R,6S)-6-[2-(3,4-dihydroxyphenyl)-5-hydroxy-4-oxochromen-7-yl]oxy-3,4,5-trihydroxyoxane-2-carboxylic acid
PRECURSORMZ:  461.07254956783
PRECURSORTYPE:  [M-H]-
FORMULA:  C21H18O12
Ontology: Kingdom: Organic compounds;Superclass: Phenylpropanoids and polyketides;Class: Flavonoids;Subclass: Flavonoid glycosides
INCHIKEY:  VSUOKLTVXQRUSG-UHFFFAOYNA-N
SMILES:  OC1C(O)C(OC2=CC(O)=C3C(=O)C=C(OC3=C2)C2=CC(O)=C(O)C=C2)OC(C1O)C(O)=O
RETENTIONTIME:  
CCS:  200.5530305
IONMODE:  Negative
INSTRUMENTTYPE:  
INSTRUMENT:  Maxis II HD Q-TOF Bruker
COLLISIONENERGY:  
Comment:  DB#=CCMSLIB00000847234; origin=GNPS
Num Peaks:  4
133.02901	60.0
285.04065	1000.0
327.05722	120.0
461.07529	40.0

NAME:  NCGC00385638-01!2,2'-bis(3,4-dihydroxyphenyl)-3',4,5',6-tetrahydroxyspiro[2H-1-benzofuran-3,9'-3,4-dihydro-2H-furo[2,3-h]chromene]-8'-one
PRECURSORMZ:  573.10384969583
PRECURSORTYPE:  [M-H]-
FORMULA:  C30H22O12
Ontology: Kingdom: Organic compounds;Superclass: Phenylpropanoids and polyketides;;
INCHIKEY:  BDMACDVLTOBWFC-UHFFFAOYNA-N
SMILES:  OC1CC2=C(OC1C1=CC(O)=C(O)C=C1)C1=C(OC(=O)C11C(OC3=CC(O)=CC(O)=C13)C1=CC(O)=C(O)C=C1)C=C2O
RETENTIONTIME:  
CCS:  251.0080407
IONMODE:  Negative
INSTRUMENTTYPE:  
INSTRUMENT:  Maxis II HD Q-TOF Bruker
COLLISIONENERGY:  
Comment:  DB#=CCMSLIB00000847235; origin=GNPS
Num Peaks:  56
107.05262	50.0
149.02429	80.0
161.02312	140.0
165.02312	90.0
177.06401	30.0
202.9989	90.0
203.04474	80.0
211.03452	130.0
215.03409	60.0
216.0397	50.0
224.04465	40.0
227.0403	70.0
245.03926	250.0
256.03683	80.0
264.04016	70.0
271.06335	70.0
283.02518	590.0
284.03329	290.0
285.03821	800.0
289.06403	70.0
294.05865	40.0
297.0509	150.0
298.04526	50.0
320.03406	30.0
323.05188	70.0
324.02853	80.0
325.04153	140.0
327.04782	50.0
329.07129	60.0
338.03812	40.0
339.04565	60.0
379.59198	50.0
397.10388	30.0
403.09082	60.0
409.10492	40.0
420.08765	50.0
421.10852	30.0
429.05441	140.0
435.07288	90.0
443.87314	70.0
444.92862	30.0
445.58118	40.0
447.00885	40.0
447.07486	1000.0
447.68985	50.0
448.08502	130.0
448.58716	40.0
451.07443	60.0
463.09348	60.0
525.14606	40.0
529.11505	120.0
529.15784	50.0
545.13098	90.0
555.11224	50.0
573.09161	170.0
573.12	220.0

NAME:  NCGC00385638-01!2,2'-bis(3,4-dihydroxyphenyl)-3',4,5',6-tetrahydroxyspiro[2H-1-benzofuran-3,9'-3,4-dihydro-2H-furo[2,3-h]chromene]-8'-one
PRECURSORMZ:  619.10932869583
PRECURSORTYPE:  [M+FA-H]-
FORMULA:  C30H22O12
Ontology: Kingdom: Organic compounds;Superclass: Phenylpropanoids and polyketides;;
INCHIKEY:  BDMACDVLTOBWFC-UHFFFAOYNA-N
SMILES:  OC1CC2=C(OC1C1=CC(O)=C(O)C=C1)C1=C(OC(=O)C11C(OC3=CC(O)=CC(O)=C13)C1=CC(O)=C(O)C=C1)C=C2O
RETENTIONTIME:  
CCS:  -1
IONMODE:  Negative
INSTRUMENTTYPE:  
INSTRUMENT:  Maxis II HD Q-TOF Bruker
COLLISIONENERGY:  
Comment:  DB#=CCMSLIB00000847238; origin=GNPS
Num Peaks:  96
104.90099	10.0
125.02593	90.0
133.04832	20.0
137.02002	50.0
144.54196	30.0
159.03615	40.0
161.03133	50.0
162.03146	50.0
163.34065	20.0
166.36841	20.0
171.04591	20.0
176.00937	60.0
177.01642	30.0
188.04224	30.0
189.01993	30.0
195.02687	30.0
202.98335	30.0
216.01678	60.0
216.36244	20.0
217.00826	20.0
217.05299	70.0
224.04723	20.0
227.04198	50.0
235.52542	20.0
243.02762	30.0
245.04417	50.0
245.43076	30.0
247.90485	20.0
255.02629	110.0
265.01169	30.0
269.04208	40.0
270.05048	20.0
275.64728	20.0
280.0415	30.0
281.04504	50.0
282.01233	40.0
283.02313	480.0
284.03018	110.0
285.04056	880.0
295.02365	20.0
295.05167	30.0
296.04565	40.0
297.0412	20.0
297.06506	30.0
298.04187	20.0
300.0368	20.0
310.05759	20.0
320.02774	20.0
323.05795	50.0
325.03668	110.0
327.0437	80.0
329.06833	30.0
330.03177	30.0
333.0802	30.0
335.05649	20.0
337.03729	20.0
337.07886	20.0
338.02994	20.0
338.0665	30.0
339.05856	80.0
340.05511	40.0
341.07135	30.0
367.07324	30.0
369.04684	20.0
369.0799	20.0
379.08258	30.0
385.06635	30.0
406.07111	60.0
409.05682	30.0
409.09186	60.0
419.08527	50.0
422.07346	20.0
429.05081	20.0
435.07767	20.0
443.11496	10.0
446.24594	20.0
446.74542	30.0
447.07172	990.0
448.07687	210.0
449.08859	20.0
461.12772	30.0
463.09232	20.0
472.08148	20.0
485.12201	20.0
487.10406	110.0
489.08273	20.0
511.11325	10.0
529.11328	100.0
530.11377	20.0
544.40558	20.0
545.10571	20.0
555.10864	20.0
555.47894	30.0
573.10876	1000.0
574.12616	30.0
677.64441	10.0

NAME:  NCGC00385630-01![6-[(5,7-dihydroxy-4-methyl-1,2,3,4-tetrahydronaphthalen-2-yl)oxy]-4,5-dihydroxy-3-[(E)-3-(4-hydroxyphenyl)prop-2-enoyl]oxyoxan-2-yl]methyl (E)-3-(4-hydroxyphenyl)prop-2-enoate
PRECURSORMZ:  647.21340014683
PRECURSORTYPE:  [M-H]-
FORMULA:  C35H36O12
Ontology: ;;;
INCHIKEY:  HSSDDGQDMDJKGU-UHFFFAOYNA-N
SMILES:  CC1CC(CC2=CC(O)=CC(O)=C12)OC1OC(COC(=O)C=CC2=CC=C(O)C=C2)C(OC(=O)C=CC2=CC=C(O)C=C2)C(O)C1O
RETENTIONTIME:  
CCS:  284.6199947
IONMODE:  Negative
INSTRUMENTTYPE:  
INSTRUMENT:  Maxis II HD Q-TOF Bruker
COLLISIONENERGY:  
Comment:  DB#=CCMSLIB00000847240; origin=GNPS
Num Peaks:  39
89.87061	30.0
117.03878	70.0
119.04862	120.0
143.03694	50.0
145.02843	1000.0
146.03259	30.0
157.06203	30.0
159.04417	30.0
161.05916	20.0
163.03838	690.0
175.07701	480.0
183.08664	30.0
187.03659	170.0
191.07011	40.0
205.04747	100.0
205.18521	20.0
206.05092	30.0
215.5329	30.0
217.04814	40.0
229.04976	20.0
231.07048	30.0
234.86427	30.0
235.05873	100.0
239.79848	20.0
265.07507	140.0
293.05814	20.0
297.22293	30.0
307.08191	40.0
318.34567	10.0
325.08978	50.0
381.10233	50.0
409.1286	20.0
411.10626	100.0
471.13599	210.0
471.91776	40.0
483.16711	30.0
643.17401	10.0
647.21069	630.0
1070.88696	60.0

NAME:  NCGC00385630-01![6-[(5,7-dihydroxy-4-methyl-1,2,3,4-tetrahydronaphthalen-2-yl)oxy]-4,5-dihydroxy-3-[(E)-3-(4-hydroxyphenyl)prop-2-enoyl]oxyoxan-2-yl]methyl (E)-3-(4-hydroxyphenyl)prop-2-enoate
PRECURSORMZ:  685.16928179476
PRECURSORTYPE:  [M+K-2H]-
FORMULA:  C35H36O12
Ontology: Kingdom: Organic compounds;Superclass: Phenylpropanoids and polyketides;Class: Cinnamic acids and derivatives;Subclass: Hydroxycinnamic acids and derivatives
INCHIKEY:  HSSDDGQDMDJKGU-UHFFFAOYNA-N
SMILES:  CC1CC(CC2=CC(O)=CC(O)=C12)OC1OC(COC(=O)C=CC2=CC=C(O)C=C2)C(OC(=O)C=CC2=CC=C(O)C=C2)C(O)C1O
RETENTIONTIME:  
CCS:  -1
IONMODE:  Negative
INSTRUMENTTYPE:  
INSTRUMENT:  Maxis II HD Q-TOF Bruker
COLLISIONENERGY:  
Comment:  DB#=CCMSLIB00000847242; origin=GNPS
Num Peaks:  14
215.8756	170.0
225.05426	130.0
261.70239	110.0
265.46606	140.0
318.02606	50.0
463.0874	60.0
505.09888	390.0
521.09082	350.0
522.09534	670.0
523.10614	1000.0
667.16602	90.0
684.08862	60.0
684.79413	40.0
685.16449	510.0

NAME:  NCGC00385630-01![6-[(5,7-dihydroxy-4-methyl-1,2,3,4-tetrahydronaphthalen-2-yl)oxy]-4,5-dihydroxy-3-[(E)-3-(4-hydroxyphenyl)prop-2-enoyl]oxyoxan-2-yl]methyl (E)-3-(4-hydroxyphenyl)prop-2-enoate
PRECURSORMZ:  693.21887914683
PRECURSORTYPE:  [M+FA-H]-
FORMULA:  C35H36O12
Ontology: Kingdom: Organic compounds;Superclass: Phenylpropanoids and polyketides;Class: Cinnamic acids and derivatives;Subclass: Hydroxycinnamic acids and derivatives
INCHIKEY:  HSSDDGQDMDJKGU-UHFFFAOYNA-N
SMILES:  CC1CC(CC2=CC(O)=CC(O)=C12)OC1OC(COC(=O)C=CC2=CC=C(O)C=C2)C(OC(=O)C=CC2=CC=C(O)C=C2)C(O)C1O
RETENTIONTIME:  
CCS:  -1
IONMODE:  Negative
INSTRUMENTTYPE:  
INSTRUMENT:  Maxis II HD Q-TOF Bruker
COLLISIONENERGY:  
Comment:  DB#=CCMSLIB00000847243; origin=GNPS
Num Peaks:  37
79.90514	30.0
83.65766	20.0
90.67324	30.0
115.58666	20.0
117.0321	50.0
120.05376	60.0
145.0291	1000.0
153.539	40.0
161.06117	80.0
163.03767	700.0
173.0558	50.0
175.07684	690.0
187.04024	470.0
189.05896	40.0
191.07359	110.0
203.0703	20.0
205.05054	120.0
231.06483	30.0
235.0643	250.0
259.06229	40.0
265.07904	160.0
293.06494	50.0
307.08182	140.0
308.76981	40.0
308.80414	30.0
333.03226	20.0
335.88245	30.0
411.11096	150.0
453.13757	40.0
471.13226	370.0
472.13477	50.0
483.16788	80.0
501.16837	40.0
647.2135	970.0
648.09467	20.0
648.22168	60.0
648.27411	70.0

NAME:  NCGC00168846-02!(2R,3S)-2-[(3,4-dihydroxyphenyl)methyl]-3-[(E)-3-(3,4-dihydroxyphenyl)prop-2-enoyl]oxy-2-hydroxybutanedioic acid
PRECURSORMZ:  433.07763494783
PRECURSORTYPE:  [M-H]-
FORMULA:  C20H18O11
Ontology: Kingdom: Organic compounds;Superclass: Phenylpropanoids and polyketides;Class: Cinnamic acids and derivatives;Subclass: Hydroxycinnamic acids and derivatives
INCHIKEY:  ACYXDIZTQDLTCB-UHFFFAOYNA-N
SMILES:  OC(=O)C(OC(=O)C=CC1=CC(O)=C(O)C=C1)C(O)(CC1=CC(O)=C(O)C=C1)C(O)=O
RETENTIONTIME:  
CCS:  225.1752048
IONMODE:  Negative
INSTRUMENTTYPE:  
INSTRUMENT:  Maxis II HD Q-TOF Bruker
COLLISIONENERGY:  
Comment:  DB#=CCMSLIB00000847245; origin=GNPS
Num Peaks:  20
105.51836	20.0
117.0308	30.0
123.04865	110.0
135.04442	430.0
137.06253	100.0
147.04424	50.0
151.03505	140.0
163.04555	70.0
165.0547	160.0
173.02373	60.0
177.02696	100.0
179.03455	1000.0
180.7139	30.0
181.0508	690.0
189.02417	90.0
191.03664	180.0
209.05659	60.0
235.03084	50.0
253.03841	240.0
271.04803	950.0

NAME:  NCGC00385580-01!2-(2,4-dihydroxyphenyl)-5,7-dihydroxy-8-(2-hydroxy-3-methylbut-3-enyl)-3-(3-methylbut-2-enyl)chromen-4-one
PRECURSORMZ:  437.16057672483
PRECURSORTYPE:  [M-H]-
FORMULA:  C25H26O7
Ontology: Kingdom: Organic compounds;Superclass: Phenylpropanoids and polyketides;Class: Flavonoids;Subclass: Flavones
INCHIKEY:  VJZZZWSIXXKVQZ-UHFFFAOYNA-N
SMILES:  CC(C)=CCC1=C(OC2=C(CC(O)C(C)=C)C(O)=CC(O)=C2C1=O)C1=C(O)C=C(O)C=C1
RETENTIONTIME:  
CCS:  -1
IONMODE:  Negative
INSTRUMENTTYPE:  
INSTRUMENT:  Maxis II HD Q-TOF Bruker
COLLISIONENERGY:  
Comment:  DB#=CCMSLIB00000847247; origin=GNPS
Num Peaks:  34
115.05758	40.0
123.08113	90.0
125.05297	70.0
134.99954	60.0
153.75497	20.0
176.01163	90.0
189.0206	50.0
190.77432	40.0
191.07056	490.0
209.08022	100.0
219.09782	40.0
227.0779	60.0
235.06235	60.0
243.06354	60.0
243.11012	70.0
245.08012	830.0
247.12944	60.0
257.08539	60.0
283.01657	40.0
295.0578	60.0
297.0387	90.0
297.11218	80.0
298.05237	250.0
300.47272	10.0
307.08496	40.0
307.41055	50.0
308.27094	20.0
315.12335	250.0
349.07294	50.0
365.08948	60.0
367.13278	90.0
419.16135	40.0
437.16055	1000.0
451.70883	50.0

NAME:  NCGC00095321-06!(1E,4Z,6E)-5-hydroxy-1,7-bis(4-hydroxy-3-methoxyphenyl)hepta-1,4,6-trien-3-one
PRECURSORMZ:  367.11871191183
PRECURSORTYPE:  [M-H]-
FORMULA:  C21H20O6
Ontology: Kingdom: Organic compounds;Superclass: Phenylpropanoids and polyketides;Class: Diarylheptanoids;Subclass: Linear diarylheptanoids
INCHIKEY:  ZIUSSTSXXLLKKK-UHFFFAOYSA-N
SMILES:  COC1=C(O)C=CC(C=CC(O)=CC(=O)C=CC2=CC(OC)=C(O)C=C2)=C1
RETENTIONTIME:  
CCS:  187.7657751
IONMODE:  Negative
INSTRUMENTTYPE:  
INSTRUMENT:  Maxis II HD Q-TOF Bruker
COLLISIONENERGY:  
Comment:  DB#=CCMSLIB00000847250; origin=GNPS
Num Peaks:  12
89.43011	50.0
112.9938	30.0
134.03737	1000.0
149.06416	870.0
158.03777	90.0
160.01843	50.0
161.02272	70.0
173.06215	410.0
175.03793	270.0
191.06905	60.0
217.05339	460.0
367.1239	50.0

NAME:  NCGC00385431-01!2-(1,2-dihydroxyethyl)-3-[(E)-3-(3,4-dihydroxyphenyl)prop-2-enoyl]oxy-4-hydroxy-3,4-dihydro-2H-pyran-6-carboxylic acid
PRECURSORMZ:  427.08819932783
PRECURSORTYPE:  [M+FA-H]-
FORMULA:  C17H18O10
Ontology: Kingdom: Organic compounds;Superclass: Phenylpropanoids and polyketides;Class: Cinnamic acids and derivatives;Subclass: Hydroxycinnamic acids and derivatives
INCHIKEY:  LYTOSEBVFHNSFK-UHFFFAOYNA-N
SMILES:  OCC(O)C1OC(=CC(O)C1OC(=O)C=CC1=CC(O)=C(O)C=C1)C(O)=O
RETENTIONTIME:  
CCS:  -1
IONMODE:  Negative
INSTRUMENTTYPE:  
INSTRUMENT:  Maxis II HD Q-TOF Bruker
COLLISIONENERGY:  
Comment:  DB#=CCMSLIB00000847251; origin=GNPS
Num Peaks:  10
98.67909	50.0
135.04346	130.0
177.96764	20.0
179.03412	1000.0
180.03479	20.0
201.03842	80.0
201.47885	40.0
201.90562	20.0
204.16405	20.0
245.07133	60.0

NAME:  NCGC00385436-01!
PRECURSORMZ:  409.23843312283
PRECURSORTYPE:  [M-H]-
FORMULA:  C26H34O4
Ontology: Kingdom: Organic compounds;Superclass: Benzenoids;Class: Phenols;
INCHIKEY:  KTLZDUANNXLDEG-UHFFFAOYSA-N
SMILES:  OC1=CC(O)=C2C(CCCCCCCCCC=CCCCC3=CC(O)=C2C(O)=C3)=C1
RETENTIONTIME:  
CCS:  -1
IONMODE:  Negative
INSTRUMENTTYPE:  
INSTRUMENT:  Maxis II HD Q-TOF Bruker
COLLISIONENERGY:  
Comment:  DB#=CCMSLIB00000847253; origin=GNPS
Num Peaks:  5
175.08517	90.0
326.18384	70.0
365.24707	60.0
391.23294	60.0
409.24603	1000.0

NAME:  NCGC00385436-01!
PRECURSORMZ:  455.24391212283
PRECURSORTYPE:  [M+FA-H]-
FORMULA:  C26H34O4
Ontology: Kingdom: Organic compounds;Superclass: Benzenoids;Class: Phenols;
INCHIKEY:  KTLZDUANNXLDEG-UHFFFAOYSA-N
SMILES:  OC1=CC(O)=C2C(CCCCCCCCCC=CCCCC3=CC(O)=C2C(O)=C3)=C1
RETENTIONTIME:  
CCS:  -1
IONMODE:  Negative
INSTRUMENTTYPE:  
INSTRUMENT:  Maxis II HD Q-TOF Bruker
COLLISIONENERGY:  
Comment:  DB#=CCMSLIB00000847256; origin=GNPS
Num Peaks:  6
243.17699	80.0
408.45438	30.0
409.24094	1000.0
418.39145	20.0
454.27969	60.0
969.57062	50.0

NAME:  NCGC00385380-02!3-[3,4-dihydroxy-6-(hydroxymethyl)-5-[3,4,5-trihydroxy-6-(hydroxymethyl)oxan-2-yl]oxyoxan-2-yl]oxy-2-(3,4-dihydroxyphenyl)-5,7-dihydroxychromen-4-one
PRECURSORMZ:  625.14102305383
PRECURSORTYPE:  [M-H]-
FORMULA:  C27H30O17
Ontology: Kingdom: Organic compounds;Superclass: Phenylpropanoids and polyketides;Class: Flavonoids;Subclass: Flavonoid glycosides
INCHIKEY:  UTECWQIXBMWRRR-UHFFFAOYNA-N
SMILES:  OCC1OC(OC2C(O)C(O)C(OC3=C(OC4=CC(O)=CC(O)=C4C3=O)C3=CC(O)=C(O)C=C3)OC2CO)C(O)C(O)C1O
RETENTIONTIME:  
CCS:  241.2058397
IONMODE:  Negative
INSTRUMENTTYPE:  
INSTRUMENT:  Maxis II HD Q-TOF Bruker
COLLISIONENERGY:  
Comment:  DB#=CCMSLIB00000847258; origin=GNPS
Num Peaks:  22
135.00848	10.0
148.02231	20.0
150.99728	20.0
163.00893	20.0
175.04176	10.0
179.00072	30.0
183.07053	10.0
189.02293	20.0
209.0163	10.0
229.07063	20.0
243.02664	30.0
254.01779	10.0
255.02866	80.0
270.67682	10.0
271.02292	120.0
297.04044	10.0
300.0285	1000.0
301.03564	450.0
316.26663	20.0
607.15796	10.0
625.14215	890.0
626.12592	20.0

NAME:  NCGC00386028-01!(2S,3S,4S,5R,6S)-6-(5,6-dihydroxy-4-oxo-2-phenylchromen-7-yl)oxy-3,4,5-trihydroxyoxane-2-carboxylic acid
PRECURSORMZ:  445.07763494783
PRECURSORTYPE:  [M-H]-
FORMULA:  C21H18O11
Ontology: Kingdom: Organic compounds;Superclass: Phenylpropanoids and polyketides;Class: Flavonoids;Subclass: Flavonoid glycosides
INCHIKEY:  IKIIZLYTISPENI-UHFFFAOYNA-N
SMILES:  OC1C(O)C(OC2=C(O)C(O)=C3C(=O)C=C(OC3=C2)C2=CC=CC=C2)OC(C1O)C(O)=O
RETENTIONTIME:  
CCS:  198.5176695
IONMODE:  Negative
INSTRUMENTTYPE:  
INSTRUMENT:  Maxis II HD Q-TOF Bruker
COLLISIONENERGY:  
Comment:  DB#=CCMSLIB00000847262; origin=GNPS
Num Peaks:  9
90.83469	20.0
136.98921	50.0
166.99936	60.0
268.04507	20.0
268.47696	10.0
268.91803	20.0
269.04718	1000.0
271.70523	20.0
1074.14026	60.0

NAME:  NCGC00386047-01!3,5-dihydroxy-2-(4-hydroxyphenyl)-7-[(2R,3R,4S,5S,6R)-3,4,5-trihydroxy-6-(hydroxymethyl)oxan-2-yl]oxychromen-4-one
PRECURSORMZ:  447.09328501183
PRECURSORTYPE:  [M-H]-
FORMULA:  C21H20O11
Ontology: ;;;
INCHIKEY:  YPWHZCPMOQGCDQ-UHFFFAOYNA-N
SMILES:  OCC1OC(OC2=CC(O)=C3C(=O)C(O)=C(OC3=C2)C2=CC=C(O)C=C2)C(O)C(O)C1O
RETENTIONTIME:  
CCS:  226.9091295
IONMODE:  Negative
INSTRUMENTTYPE:  
INSTRUMENT:  Maxis II HD Q-TOF Bruker
COLLISIONENERGY:  
Comment:  DB#=CCMSLIB00000847264; origin=GNPS
Num Peaks:  11
70.55985	80.0
150.99928	140.0
185.05136	120.0
216.30728	30.0
284.02847	100.0
285.04425	580.0
286.55411	30.0
313.061	90.0
447.09311	1000.0
1749.56567	80.0
1847.02563	40.0

NAME:  NCGC00385604-02!5,7-dihydroxy-2-(4-hydroxyphenyl)-6,8-bis[3,4,5-trihydroxy-6-(hydroxymethyl)oxan-2-yl]chromen-4-one
PRECURSORMZ:  593.15119381383
PRECURSORTYPE:  [M-H]-
FORMULA:  C27H30O15
Ontology: Kingdom: Organic compounds;Superclass: Phenylpropanoids and polyketides;Class: Flavonoids;Subclass: Flavonoid glycosides
INCHIKEY:  FIAAVMJLAGNUKW-UHFFFAOYNA-N
SMILES:  OCC1OC(C(O)C(O)C1O)C1=C(O)C(C2OC(CO)C(O)C(O)C2O)=C2OC(=CC(=O)C2=C1O)C1=CC=C(O)C=C1
RETENTIONTIME:  
CCS:  233.5403488
IONMODE:  Negative
INSTRUMENTTYPE:  
INSTRUMENT:  Maxis II HD Q-TOF Bruker
COLLISIONENERGY:  
Comment:  DB#=CCMSLIB00000847266; origin=GNPS
Num Peaks:  39
117.0351	20.0
174.91681	10.0
207.03334	20.0
225.89252	10.0
282.05936	20.0
288.9982	20.0
297.07111	30.0
305.72711	20.0
308.0799	20.0
309.07037	20.0
321.0379	10.0
323.05838	30.0
325.07196	70.0
328.06445	10.0
329.08182	20.0
335.06332	20.0
337.07526	10.0
353.07169	340.0
354.0643	20.0
363.06735	30.0
383.07794	240.0
395.07468	10.0
411.08017	20.0
413.07755	10.0
413.11673	20.0
419.06787	20.0
473.11627	310.0
485.10977	20.0
503.12207	90.0
557.1413	10.0
575.12653	30.0
575.35516	30.0
589.91663	20.0
592.25122	20.0
593.15656	1000.0
593.24847	30.0
594.15051	20.0
597.49945	20.0
1158.17029	10.0

NAME:  NCGC00180689-02![(2S,3R,4R,5S,6S)-3,5-dihydroxy-2-[5-hydroxy-2-(4-hydroxyphenyl)-4-oxo-7-[(2S,3R,4R,5R,6S)-3,4,5-trihydroxy-6-methyloxan-2-yl]oxychromen-3-yl]oxy-6-methyloxan-4-yl] acetate
PRECURSORMZ:  619.16684387783
PRECURSORTYPE:  [M-H]-
FORMULA:  C29H32O15
Ontology: Kingdom: Organic compounds;Superclass: Phenylpropanoids and polyketides;Class: Flavonoids;Subclass: Flavonoid glycosides
INCHIKEY:  HDWMNUJZNUJIFF-UHFFFAOYNA-N
SMILES:  CC1OC(OC2=CC(O)=C3C(OC(C4=CC=C(O)C=C4)=C(OC4OC(C)C(O)C(OC(C)=O)C4O)C3=O)=C2)C(O)C(O)C1O
RETENTIONTIME:  
CCS:  250.8246554
IONMODE:  Negative
INSTRUMENTTYPE:  
INSTRUMENT:  Maxis II HD Q-TOF Bruker
COLLISIONENERGY:  
Comment:  DB#=CCMSLIB00000847270; origin=GNPS
Num Peaks:  15
145.42532	10.0
159.38689	30.0
228.5444	30.0
255.03381	60.0
283.02499	1000.0
284.03421	70.0
285.04608	340.0
430.09457	890.0
431.10001	180.0
577.18658	40.0
618.14899	20.0
619.172	750.0
620.18439	20.0
913.89758	10.0
1230.56494	30.0

NAME:  NCGC00180689-02![(2S,3R,4R,5S,6S)-3,5-dihydroxy-2-[5-hydroxy-2-(4-hydroxyphenyl)-4-oxo-7-[(2S,3R,4R,5R,6S)-3,4,5-trihydroxy-6-methyloxan-2-yl]oxychromen-3-yl]oxy-6-methyloxan-4-yl] acetate
PRECURSORMZ:  665.17232287783
PRECURSORTYPE:  [M+FA-H]-
FORMULA:  C29H32O15
Ontology: Kingdom: Organic compounds;Superclass: Phenylpropanoids and polyketides;Class: Flavonoids;Subclass: Flavonoid glycosides
INCHIKEY:  HDWMNUJZNUJIFF-UHFFFAOYNA-N
SMILES:  CC1OC(OC2=CC(O)=C3C(OC(C4=CC=C(O)C=C4)=C(OC4OC(C)C(O)C(OC(C)=O)C4O)C3=O)=C2)C(O)C(O)C1O
RETENTIONTIME:  
CCS:  -1
IONMODE:  Negative
INSTRUMENTTYPE:  
INSTRUMENT:  Maxis II HD Q-TOF Bruker
COLLISIONENERGY:  
Comment:  DB#=CCMSLIB00000847272; origin=GNPS
Num Peaks:  15
143.07118	30.0
151.00221	60.0
255.03442	100.0
283.02588	1000.0
285.04709	210.0
430.08875	660.0
431.09763	130.0
472.10251	60.0
473.13242	50.0
619.06903	20.0
619.17126	450.0
619.4361	40.0
620.16425	40.0
620.22485	40.0
1410.23804	50.0

NAME:  NCGC00347534-02![2-[4-hydroxy-2,5-bis(hydroxymethyl)-3-(2-methylpropanoyloxy)oxolan-2-yl]oxy-6-(hydroxymethyl)-4,5-bis(2-methylpropanoyloxy)oxan-3-yl] decanoate
PRECURSORMZ:  751.37577371583
PRECURSORTYPE:  [M+FA-H]-
FORMULA:  C34H58O15
Ontology: Kingdom: Organic compounds;Superclass: Lipids and lipid;Class: Saccharolipids;
INCHIKEY:  YPZBTERWDWUANF-UHFFFAOYNA-N
SMILES:  CCCCCCCCCC(=O)OC1C(OC2(CO)OC(CO)C(O)C2OC(=O)C(C)C)OC(CO)C(OC(=O)C(C)C)C1OC(=O)C(C)C
RETENTIONTIME:  
CCS:  -1
IONMODE:  Negative
INSTRUMENTTYPE:  
INSTRUMENT:  Maxis II HD Q-TOF Bruker
COLLISIONENERGY:  
Comment:  DB#=CCMSLIB00000847273; origin=GNPS
Num Peaks:  24
87.04173	170.0
99.04383	140.0
107.05012	180.0
125.02187	240.0
141.0127	80.0
143.03935	90.0
171.13708	1000.0
177.07338	130.0
183.146	80.0
199.06317	60.0
231.08269	80.0
323.09518	60.0
341.10635	110.0
393.13629	250.0
411.17062	230.0
412.14908	80.0
463.16232	90.0
481.19138	550.0
495.81631	80.0
551.24213	260.0
635.3894	60.0
705.38434	120.0
751.37891	140.0
1701.45142	130.0

NAME:  NCGC00380743-01!4-[(3-acetyl-2,6-dihydroxy-5-methylphenyl)methyl]-3-hydroxy-2-methyl-2H-furan-5-one
PRECURSORMZ:  291.08741178283
PRECURSORTYPE:  [M-H]-
FORMULA:  C15H16O6
Ontology: Kingdom: Organic compounds;Superclass: Organic oxygen compounds;Class: Organooxygen compounds;Subclass: Carbonyl compounds
INCHIKEY:  YLIUZRWENFNXMA-UHFFFAOYNA-N
SMILES:  CC1OC(=O)C(CC2=C(O)C(C)=CC(C(C)=O)=C2O)=C1O
RETENTIONTIME:  
CCS:  -1
IONMODE:  Negative
INSTRUMENTTYPE:  
INSTRUMENT:  Maxis II HD Q-TOF Bruker
COLLISIONENERGY:  
Comment:  DB#=CCMSLIB00000847276; origin=GNPS
Num Peaks:  6
106.04589	140.0
121.06672	110.0
123.04509	210.0
165.05592	1000.0
177.05383	180.0
976.79865	10.0

NAME:  NCGC00180623-02!(4-hydroxyphenyl)-[2,4,6-trihydroxy-3-[(2S,3R,4R,5S,6R)-3,4,5-trihydroxy-6-(hydroxymethyl)oxan-2-yl]phenyl]methanone
PRECURSORMZ:  407.09837039183
PRECURSORTYPE:  [M-H]-
FORMULA:  C19H20O10
Ontology: ;;;
INCHIKEY:  BZYKNVLTMWYEFA-UHFFFAOYNA-N
SMILES:  OCC1OC(C(O)C(O)C1O)C1=C(O)C=C(O)C(C(=O)C2=CC=C(O)C=C2)=C1O
RETENTIONTIME:  
CCS:  -1
IONMODE:  Negative
INSTRUMENTTYPE:  
INSTRUMENT:  Maxis II HD Q-TOF Bruker
COLLISIONENERGY:  
Comment:  DB#=CCMSLIB00000847278; origin=GNPS
Num Peaks:  7
223.01909	160.0
245.04845	90.0
287.05865	1000.0
290.07416	60.0
317.06348	850.0
389.09061	60.0
407.09174	120.0

NAME:  NCGC00347795-02!4-[3-[(2E)-3,7-dimethylocta-2,6-dienyl]-2,6-dihydroxybenzoyl]-3-formyl-5-hydroxybenzoic acid
PRECURSORMZ:  437.16057672483
PRECURSORTYPE:  [M-H]-
FORMULA:  C25H26O7
Ontology: Kingdom: Organic compounds;Superclass: Benzenoids;Class: Benzene and substituted derivatives;Subclass: Benzophenones
INCHIKEY:  MLSVKXQHUTYXHD-UHFFFAOYSA-N
SMILES:  CC(C)=CCCC(C)=CCC1=C(O)C(C(=O)C2=C(C=O)C=C(C=C2O)C(O)=O)=C(O)C=C1
RETENTIONTIME:  
CCS:  -1
IONMODE:  Negative
INSTRUMENTTYPE:  
INSTRUMENT:  Maxis II HD Q-TOF Bruker
COLLISIONENERGY:  
Comment:  DB#=CCMSLIB00000847280; origin=GNPS
Num Peaks:  37
103.01506	20.0
121.02752	620.0
121.77821	40.0
121.83057	30.0
127.4231	20.0
131.08475	70.0
147.01172	210.0
165.01976	410.0
190.9977	240.0
195.04898	150.0
197.0959	50.0
200.75397	70.0
227.14708	60.0
243.13657	50.0
245.15723	270.0
261.08972	70.0
271.13324	640.0
299.11728	40.0
306.10138	60.0
308.03412	40.0
322.09244	80.0
324.1102	100.0
350.07272	80.0
357.15628	50.0
375.16245	760.0
391.16479	50.0
393.18546	30.0
419.14819	500.0
420.16855	100.0
435.75812	50.0
437.16321	1000.0
437.26578	120.0
438.07538	40.0
439.44861	60.0
441.03122	50.0
703.73145	60.0
1227.47424	50.0

NAME:  NCGC00347795-02!4-[3-[(2E)-3,7-dimethylocta-2,6-dienyl]-2,6-dihydroxybenzoyl]-3-formyl-5-hydroxybenzoic acid
PRECURSORMZ:  483.16605572483
PRECURSORTYPE:  [M+FA-H]-
FORMULA:  C25H26O7
Ontology: Kingdom: Organic compounds;Superclass: Benzenoids;Class: Benzene and substituted derivatives;Subclass: Benzophenones
INCHIKEY:  MLSVKXQHUTYXHD-UHFFFAOYSA-N
SMILES:  CC(C)=CCCC(C)=CCC1=C(O)C(C(=O)C2=C(C=O)C=C(C=C2O)C(O)=O)=C(O)C=C1
RETENTIONTIME:  
CCS:  -1
IONMODE:  Negative
INSTRUMENTTYPE:  
INSTRUMENT:  Maxis II HD Q-TOF Bruker
COLLISIONENERGY:  
Comment:  DB#=CCMSLIB00000847282; origin=GNPS
Num Peaks:  10
105.07509	100.0
145.03017	150.0
205.67351	60.0
247.09734	120.0
280.10995	150.0
305.18942	180.0
349.1839	120.0
393.17197	1000.0
400.7092	40.0
437.17117	340.0

NAME:  NCGC00380738-01!3,5-dihydroxy-4-[3,4,5-trihydroxy-6-[[4-(2-hydroxypropan-2-yl)cyclohexene-1-carbonyl]oxymethyl]oxan-2-yl]oxybenzoic acid
PRECURSORMZ:  497.16644995383
PRECURSORTYPE:  [M-H]-
FORMULA:  C23H30O12
Ontology: Kingdom: Organic compounds;Superclass: Lipids and lipid;Class: Saccharolipids;
INCHIKEY:  PEERGVFNQUXNQA-UHFFFAOYNA-N
SMILES:  CC(C)(O)C1CCC(=CC1)C(=O)OCC1OC(OC2=C(O)C=C(C=C2O)C(O)=O)C(O)C(O)C1O
RETENTIONTIME:  
CCS:  221.1267097
IONMODE:  Negative
INSTRUMENTTYPE:  
INSTRUMENT:  Maxis II HD Q-TOF Bruker
COLLISIONENERGY:  
Comment:  DB#=CCMSLIB00000847284; origin=GNPS
Num Peaks:  5
90.60188	10.0
125.02533	160.0
168.65378	20.0
169.01396	1000.0
497.17355	40.0

NAME:  NCGC00380843-01!5,7-dihydroxy-2-(4-methoxyphenyl)-3-[3,5,7-trihydroxy-2-(4-hydroxyphenyl)-3,4-dihydro-2H-chromen-6-yl]-2,3-dihydrochromen-4-one
PRECURSORMZ:  557.14532058483
PRECURSORTYPE:  [M-H]-
FORMULA:  C31H26O10
Ontology: Kingdom: Organic compounds;Superclass: Phenylpropanoids and polyketides;Class: Isoflavonoids;Subclass: Pyranoisoflavonoids
INCHIKEY:  BKPFUQLDJWNCIK-UHFFFAOYNA-N
SMILES:  COC1=CC=C(C=C1)C1OC2=CC(O)=CC(O)=C2C(=O)C1C1=C(O)C2=C(OC(C(O)C2)C2=CC=C(O)C=C2)C=C1O
RETENTIONTIME:  
CCS:  -1
IONMODE:  Negative
INSTRUMENTTYPE:  
INSTRUMENT:  Maxis II HD Q-TOF Bruker
COLLISIONENERGY:  
Comment:  DB#=CCMSLIB00000847286; origin=GNPS
Num Peaks:  48
84.49522	30.0
125.025	310.0
127.04372	20.0
129.42783	10.0
135.04321	60.0
137.02148	10.0
138.03333	30.0
151.00737	20.0
152.02643	40.0
158.04112	40.0
189.02026	20.0
208.8479	30.0
213.05545	40.0
213.08473	20.0
243.07001	20.0
255.11766	20.0
259.06934	20.0
264.07654	10.0
267.04333	30.0
267.81824	20.0
273.09503	30.0
281.05258	70.0
282.05618	40.0
283.05945	40.0
294.17719	20.0
294.41937	10.0
295.06091	130.0
296.08228	20.0
297.07425	80.0
309.04892	20.0
315.85626	30.0
323.09619	20.0
328.10718	20.0
346.07983	20.0
349.07083	50.0
352.1033	30.0
367.0838	20.0
372.10223	20.0
403.12967	20.0
405.14728	20.0
416.08835	40.0
422.08746	30.0
423.05942	10.0
431.11392	1000.0
436.08566	20.0
471.1445	20.0
556.48315	20.0
557.14343	130.0

NAME:  NCGC00347560-02![3,4,5-trihydroxy-6-(hydroxymethyl)oxan-2-yl] 10-[3-acetamido-6-[[4,5-dihydroxy-3-(3,4,5-trihydroxyoxan-2-yl)oxyoxan-2-yl]oxymethyl]-4,5-dihydroxyoxan-2-yl]oxy-2,2,6a,6b,9,9,12a-heptamethyl-1,3,4,5,6,6a,7,8,8a,10,11,12,13,14b-tetradecahydropicene-4a-carboxylate
PRECURSORMZ:  1130.57526137283
PRECURSORTYPE:  [M+FA-H]-
FORMULA:  C54H87NO21
Ontology: Kingdom: Organic compounds;Superclass: Lipids and lipid;Class: Prenol lipids;Subclass: Terpene glycosides
INCHIKEY:  NFMZRMNYRASNPY-UHFFFAOYNA-N
SMILES:  CC(O)=NC1C(O)C(O)C(COC2OCC(O)C(O)C2OC2OCC(O)C(O)C2O)OC1OC1CCC2(C)C(CCC3(C)C2CC=C2C4CC(C)(C)CCC4(CCC32C)C(=O)OC2OC(CO)C(O)C(O)C2O)C1(C)C
RETENTIONTIME:  
CCS:  -1
IONMODE:  Negative
INSTRUMENTTYPE:  
INSTRUMENT:  Maxis II HD Q-TOF Bruker
COLLISIONENERGY:  
Comment:  DB#=CCMSLIB00000847288; origin=GNPS
Num Peaks:  18
209.06529	20.0
430.88455	10.0
431.4079	40.0
571.12329	20.0
571.19025	20.0
922.51691	1000.0
923.4657	20.0
923.54291	140.0
924.51849	20.0
927.87311	10.0
928.21942	20.0
1084.57019	280.0
1085.5824	50.0
1130.58374	130.0
1131.57922	80.0
1131.71252	20.0
1844.91992	10.0
1858.30334	10.0

NAME:  NCGC00381268-01!6-[4,5-dihydroxy-6-methyl-3-[(2S,3R,4R,5R,6S)-3,4,5-trihydroxy-6-methyloxan-2-yl]oxyoxan-2-yl]-5,7-dihydroxy-2-(4-hydroxyphenyl)chromen-4-one
PRECURSORMZ:  561.16136457383
PRECURSORTYPE:  [M-H]-
FORMULA:  C27H30O13
Ontology: Kingdom: Organic compounds;Superclass: Phenylpropanoids and polyketides;Class: Flavonoids;Subclass: Flavonoid glycosides
INCHIKEY:  ZUUPZDSDPDQRJK-UHFFFAOYNA-N
SMILES:  CC1OC(OC2C(O)C(O)C(C)OC2C2=C(O)C3=C(OC(=CC3=O)C3=CC=C(O)C=C3)C=C2O)C(O)C(O)C1O
RETENTIONTIME:  
CCS:  -1
IONMODE:  Negative
INSTRUMENTTYPE:  
INSTRUMENT:  Maxis II HD Q-TOF Bruker
COLLISIONENERGY:  
Comment:  DB#=CCMSLIB00000847290; origin=GNPS
Num Peaks:  33
112.24113	20.0
120.92078	20.0
148.71222	20.0
160.62192	20.0
191.95424	30.0
192.11159	10.0
267.77094	10.0
269.0473	40.0
278.33234	20.0
282.05228	40.0
290.80573	20.0
293.04678	360.0
307.05881	20.0
310.07147	30.0
311.05682	80.0
314.04205	10.0
323.05518	20.0
323.07794	20.0
335.06406	20.0
340.62469	20.0
341.06763	50.0
353.07306	20.0
369.07382	20.0
379.08603	30.0
395.9194	10.0
397.09235	630.0
398.10065	30.0
400.55951	10.0
457.10107	20.0
561.16095	1000.0
564.32288	20.0
909.94672	30.0
1368.34607	20.0

NAME:  NCGC00385129-01!5,7-dihydroxy-2-(4-hydroxyphenyl)-6-[(2S,3R,4R,5S,6R)-3,4,5-trihydroxy-6-(hydroxymethyl)oxan-2-yl]-8-[(2S,3R,4R,5R,6S)-3,4,5-trihydroxy-6-methyloxan-2-yl]chromen-4-one
PRECURSORMZ:  577.15627919383
PRECURSORTYPE:  [M-H]-
FORMULA:  C27H30O14
Ontology: Kingdom: Organic compounds;Superclass: Phenylpropanoids and polyketides;Class: Flavonoids;Subclass: Flavonoid glycosides
INCHIKEY:  MVOUGOXRXQDXDC-UHFFFAOYNA-N
SMILES:  CC1OC(C(O)C(O)C1O)C1=C2OC(=CC(=O)C2=C(O)C(C2OC(CO)C(O)C(O)C2O)=C1O)C1=CC=C(O)C=C1
RETENTIONTIME:  
CCS:  231.4533678
IONMODE:  Negative
INSTRUMENTTYPE:  
INSTRUMENT:  Maxis II HD Q-TOF Bruker
COLLISIONENERGY:  
Comment:  DB#=CCMSLIB00000847291; origin=GNPS
Num Peaks:  40
121.02708	10.0
161.02118	30.0
169.02792	20.0
173.01424	10.0
179.04169	20.0
191.04079	30.0
221.04175	40.0
268.07358	10.0
295.05606	20.0
296.0665	20.0
297.07303	20.0
307.06427	10.0
311.0517	20.0
314.04346	10.0
323.05081	20.0
324.06461	20.0
325.06805	40.0
335.06216	40.0
337.07532	10.0
339.08542	10.0
341.06442	30.0
353.06653	210.0
354.07831	10.0
355.08401	10.0
356.06003	20.0
365.06689	30.0
382.0643	10.0
383.07571	170.0
395.07516	30.0
413.09085	50.0
421.09253	20.0
455.08505	20.0
457.11545	190.0
458.13971	10.0
473.10468	50.0
487.12323	70.0
559.12622	10.0
576.88263	10.0
577.15668	1000.0
578.17133	10.0

NAME:  NCGC00381267-01![(2S,3S,4R,5R,6R)-3,5-dihydroxy-2-methyl-6-[[(2R,3S,4S,5R,6S)-3,4,5-trihydroxy-6-[(E)-3-phenylprop-2-enoyl]oxyoxan-2-yl]methoxy]oxan-4-yl] (E)-3-phenylprop-2-enoate
PRECURSORMZ:  623.15363173076
PRECURSORTYPE:  [M+K-2H]-
FORMULA:  C30H34O12
Ontology: Kingdom: Organic compounds;Superclass: Phenylpropanoids and polyketides;Class: Cinnamic acids and derivatives;Subclass: Cinnamic acid esters
INCHIKEY:  CEYGYPUVRXNKQV-UHFFFAOYNA-N
SMILES:  CC1OC(OCC2OC(OC(=O)C=CC3=CC=CC=C3)C(O)C(O)C2O)C(O)C(OC(=O)C=CC2=CC=CC=C2)C1O
RETENTIONTIME:  
CCS:  -1
IONMODE:  Negative
INSTRUMENTTYPE:  
INSTRUMENT:  Maxis II HD Q-TOF Bruker
COLLISIONENERGY:  
Comment:  DB#=CCMSLIB00000847294; origin=GNPS
Num Peaks:  15
137.02365	120.0
167.92761	60.0
221.04755	50.0
221.79559	40.0
276.69064	80.0
299.05789	770.0
327.05341	1000.0
339.05264	80.0
357.061	420.0
358.27209	80.0
365.06183	110.0
429.08649	190.0
577.13416	580.0
577.31787	40.0
622.24554	140.0

NAME:  NCGC00381267-01![(2S,3S,4R,5R,6R)-3,5-dihydroxy-2-methyl-6-[[(2R,3S,4S,5R,6S)-3,4,5-trihydroxy-6-[(E)-3-phenylprop-2-enoyl]oxyoxan-2-yl]methoxy]oxan-4-yl] (E)-3-phenylprop-2-enoate
PRECURSORMZ:  631.20322908283
PRECURSORTYPE:  [M+FA-H]-
FORMULA:  C30H34O12
Ontology: Kingdom: Organic compounds;Superclass: Phenylpropanoids and polyketides;Class: Cinnamic acids and derivatives;Subclass: Cinnamic acid esters
INCHIKEY:  CEYGYPUVRXNKQV-UHFFFAOYNA-N
SMILES:  CC1OC(OCC2OC(OC(=O)C=CC3=CC=CC=C3)C(O)C(O)C2O)C(O)C(OC(=O)C=CC2=CC=CC=C2)C1O
RETENTIONTIME:  
CCS:  -1
IONMODE:  Negative
INSTRUMENTTYPE:  
INSTRUMENT:  Maxis II HD Q-TOF Bruker
COLLISIONENERGY:  
Comment:  DB#=CCMSLIB00000847296; origin=GNPS
Num Peaks:  17
105.8105	10.0
115.05517	20.0
125.02637	30.0
127.06451	20.0
131.03069	30.0
131.04875	20.0
146.12354	20.0
147.04514	1000.0
147.60208	20.0
148.05302	20.0
156.86705	10.0
161.07762	10.0
163.06493	20.0
175.08054	20.0
189.05643	60.0
205.06973	50.0
291.11142	10.0

NAME:  NCGC00347722-02!(2Z)-2-[(E)-6-(hydroxymethyl)-2,4,8,10-tetramethyldodec-2-enylidene]-4-methylpentanedioic acid
PRECURSORMZ:  395.28029793583
PRECURSORTYPE:  [M-H]-
FORMULA:  C23H40O5
Ontology: Kingdom: Organic compounds;Superclass: Lipids and lipid;Class: Prenol lipids;Subclass: Diterpenoids
INCHIKEY:  NNPPLRJHBQPBAQ-UHFFFAOYNA-N
SMILES:  CCC(C)CC(C)CC(CO)CC(C)C=C(C)C=C(CC(C)C(O)=O)C(O)=O
RETENTIONTIME:  
CCS:  230.3296494
IONMODE:  Negative
INSTRUMENTTYPE:  
INSTRUMENT:  Maxis II HD Q-TOF Bruker
COLLISIONENERGY:  
Comment:  DB#=CCMSLIB00000847298; origin=GNPS
Num Peaks:  5
177.15709	110.0
275.27417	140.0
307.30328	240.0
351.28937	640.0
395.28976	1000.0

NAME:  NCGC00095300-04!5-hydroxy-9-(4-hydroxy-3,5-dimethoxyphenyl)-5a,6,8a,9-tetrahydro-5H-[2]benzofuro[5,6-f][1,3]benzodioxol-8-one
PRECURSORMZ:  445.11402015183
PRECURSORTYPE:  [M+FA-H]-
FORMULA:  C21H20O8
Ontology: Kingdom: Organic compounds;Superclass: Lignans;Class: Lignan lactones;Subclass: Podophyllotoxins
INCHIKEY:  YVCVYCSAAZQOJI-UHFFFAOYNA-N
SMILES:  COC1=CC(=CC(OC)=C1O)C1C2C(COC2=O)C(O)C2=CC3=C(OCO3)C=C12
RETENTIONTIME:  
CCS:  -1
IONMODE:  Negative
INSTRUMENTTYPE:  
INSTRUMENT:  Maxis II HD Q-TOF Bruker
COLLISIONENERGY:  
Comment:  DB#=CCMSLIB00000847300; origin=GNPS
Num Peaks:  16
139.00235	80.0
141.67339	80.0
173.05603	60.0
244.0341	60.0
257.05005	70.0
271.05441	50.0
298.03662	40.0
300.064	40.0
325.07025	30.0
369.05341	100.0
371.14844	60.0
384.08694	420.0
396.65671	10.0
399.10733	1000.0
399.21014	10.0
1198.64575	40.0

NAME:  NCGC00385604-01!5,7-dihydroxy-2-(4-hydroxyphenyl)-6,8-bis[3,4,5-trihydroxy-6-(hydroxymethyl)oxan-2-yl]chromen-4-one
PRECURSORMZ:  593.15119381383
PRECURSORTYPE:  [M-H]-
FORMULA:  C27H30O15
Ontology: Kingdom: Organic compounds;Superclass: Phenylpropanoids and polyketides;Class: Flavonoids;Subclass: Flavonoid glycosides
INCHIKEY:  FIAAVMJLAGNUKW-UHFFFAOYNA-N
SMILES:  OCC1OC(C(O)C(O)C1O)C1=C(O)C(C2OC(CO)C(O)C(O)C2O)=C2OC(=CC(=O)C2=C1O)C1=CC=C(O)C=C1
RETENTIONTIME:  
CCS:  233.5403488
IONMODE:  Negative
INSTRUMENTTYPE:  
INSTRUMENT:  Maxis II HD Q-TOF Bruker
COLLISIONENERGY:  
Comment:  DB#=CCMSLIB00000847302; origin=GNPS
Num Peaks:  13
293.04974	1000.0
295.39255	70.0
325.05997	130.0
341.84897	70.0
383.07962	230.0
395.81845	60.0
413.04929	160.0
413.09204	580.0
473.08435	200.0
592.49646	70.0
593.15222	650.0
597.38953	120.0
935.25769	70.0

NAME:  NCGC00385604-01!5,7-dihydroxy-2-(4-hydroxyphenyl)-6,8-bis[3,4,5-trihydroxy-6-(hydroxymethyl)oxan-2-yl]chromen-4-one
PRECURSORMZ:  639.15667281383
PRECURSORTYPE:  [M+FA-H]-
FORMULA:  C27H30O15
Ontology: Kingdom: Organic compounds;Superclass: Phenylpropanoids and polyketides;Class: Flavonoids;Subclass: Flavonoid glycosides
INCHIKEY:  FIAAVMJLAGNUKW-UHFFFAOYNA-N
SMILES:  OCC1OC(C(O)C(O)C1O)C1=C(O)C(C2OC(CO)C(O)C(O)C2O)=C2OC(=CC(=O)C2=C1O)C1=CC=C(O)C=C1
RETENTIONTIME:  
CCS:  -1
IONMODE:  Negative
INSTRUMENTTYPE:  
INSTRUMENT:  Maxis II HD Q-TOF Bruker
COLLISIONENERGY:  
Comment:  DB#=CCMSLIB00000847304; origin=GNPS
Num Peaks:  24
85.02821	20.0
95.01746	20.0
119.03598	20.0
164.64062	10.0
173.02054	30.0
175.01192	20.0
200.21483	10.0
269.03632	30.0
293.04443	620.0
293.49222	10.0
294.05539	20.0
309.0322	30.0
310.05246	20.0
311.06018	80.0
314.04507	20.0
323.07117	30.0
335.05814	30.0
341.06186	40.0
411.48355	10.0
413.09119	1000.0
473.11884	40.0
593.14948	640.0
593.49005	10.0
594.15118	30.0

NAME:  NCGC00180619-02!5,7-dihydroxy-2-[4-[(2S,3R,4S,5S,6R)-3,4,5-trihydroxy-6-(hydroxymethyl)oxan-2-yl]oxyphenyl]chromen-4-one
PRECURSORMZ:  477.10384939183
PRECURSORTYPE:  [M+FA-H]-
FORMULA:  C21H20O10
Ontology: Kingdom: Organic compounds;Superclass: Phenylpropanoids and polyketides;Class: Flavonoids;Subclass: Flavonoid glycosides
INCHIKEY:  ICLVCWSZHUZEFT-UHFFFAOYNA-N
SMILES:  OCC1OC(OC2=CC=C(C=C2)C2=CC(=O)C3=C(O)C=C(O)C=C3O2)C(O)C(O)C1O
RETENTIONTIME:  
CCS:  -1
IONMODE:  Negative
INSTRUMENTTYPE:  
INSTRUMENT:  Maxis II HD Q-TOF Bruker
COLLISIONENERGY:  
Comment:  DB#=CCMSLIB00000847310; origin=GNPS
Num Peaks:  6
240.04628	70.0
268.03842	180.0
269.04507	910.0
269.13651	20.0
282.31573	30.0
431.09973	1000.0

NAME:  NCGC00381195-01!(2E,6E,12E)-19-(2-amino-2-oxoethyl)-9,11-dihydroxy-8-methoxy-10,12,14-trimethyl-15-oxohenicosa-2,6,12-trienedioic acid
PRECURSORMZ:  524.28650551683
PRECURSORTYPE:  [M-H]-
FORMULA:  C27H43NO9
Ontology: Kingdom: Organic compounds;Superclass: Lipids and lipid;Class: Fatty Acyls;Subclass: Fatty acids and conjugates
INCHIKEY:  IZBWUVKNXOGJSA-UHFFFAOYNA-N
SMILES:  COC(C=CCCC=CC(O)=O)C(O)C(C)C(O)C(C)=CC(C)C(=O)CCCC(CC(O)=N)CC(O)=O
RETENTIONTIME:  
CCS:  -1
IONMODE:  Negative
INSTRUMENTTYPE:  
INSTRUMENT:  Maxis II HD Q-TOF Bruker
COLLISIONENERGY:  
Comment:  DB#=CCMSLIB00000847312; origin=GNPS
Num Peaks:  40
97.07108	20.0
111.08015	30.0
123.17538	50.0
133.1019	20.0
134.51413	70.0
134.56876	40.0
137.56895	40.0
154.0835	30.0
156.10258	20.0
184.12918	20.0
188.14407	10.0
197.06999	30.0
198.0831	50.0
210.114	40.0
224.16206	40.0
231.1456	40.0
233.11856	20.0
234.15071	20.0
249.15335	30.0
250.14111	150.0
260.13168	70.0
266.13367	10.0
266.46231	10.0
268.1579	650.0
268.26648	10.0
278.14032	40.0
279.12979	20.0
290.17471	60.0
296.1416	50.0
308.19028	180.0
448.26425	40.0
462.28787	120.0
474.24664	20.0
480.29205	200.0
506.27527	100.0
523.4856	20.0
524.28558	1000.0
533.16431	10.0
546.49994	10.0
1050.39587	40.0

NAME:  NCGC00381195-01!(2E,6E,12E)-19-(2-amino-2-oxoethyl)-9,11-dihydroxy-8-methoxy-10,12,14-trimethyl-15-oxohenicosa-2,6,12-trienedioic acid
PRECURSORMZ:  506.27594083683
PRECURSORTYPE:  [M-H2O-H]-
FORMULA:  C27H43NO9
Ontology: ;;;
INCHIKEY:  IZBWUVKNXOGJSA-UHFFFAOYNA-N
SMILES:  COC(C=CCCC=CC(O)=O)C(O)C(C)C(O)C(C)=CC(C)C(=O)CCCC(CC(O)=N)CC(O)=O
RETENTIONTIME:  
CCS:  -1
IONMODE:  Negative
INSTRUMENTTYPE:  
INSTRUMENT:  Maxis II HD Q-TOF Bruker
COLLISIONENERGY:  
Comment:  DB#=CCMSLIB00000847314; origin=GNPS
Num Peaks:  20
154.83228	40.0
166.1235	50.0
197.07777	40.0
245.54219	20.0
247.17076	110.0
247.54425	40.0
250.14577	50.0
264.19846	70.0
290.17371	270.0
291.16559	120.0
291.19763	40.0
305.50885	40.0
308.18594	1000.0
308.40057	10.0
430.26251	70.0
462.29105	100.0
474.24847	30.0
476.23248	60.0
488.26971	40.0
506.27078	1000.0

NAME:  NCGC00180518-02!2-(3,4-dihydroxyphenyl)-5-hydroxy-7-[(2S,3R,4S,5S,6R)-3,4,5-trihydroxy-6-[[(2R,3R,4R,5R,6S)-3,4,5-trihydroxy-6-methyloxan-2-yl]oxymethyl]oxan-2-yl]oxy-2,3-dihydrochromen-4-one
PRECURSORMZ:  595.16684387783
PRECURSORTYPE:  [M-H]-
FORMULA:  C27H32O15
Ontology: Kingdom: Organic compounds;Superclass: Phenylpropanoids and polyketides;Class: Flavonoids;Subclass: Flavonoid glycosides
INCHIKEY:  OMQADRGFMLGFJF-UHFFFAOYNA-N
SMILES:  CC1OC(OCC2OC(OC3=CC(O)=C4C(=O)CC(OC4=C3)C3=CC(O)=C(O)C=C3)C(O)C(O)C2O)C(O)C(O)C1O
RETENTIONTIME:  
CCS:  224.6318465
IONMODE:  Negative
INSTRUMENTTYPE:  
INSTRUMENT:  Maxis II HD Q-TOF Bruker
COLLISIONENERGY:  
Comment:  DB#=CCMSLIB00000847315; origin=GNPS
Num Peaks:  33
83.01627	10.0
107.01299	20.0
109.03051	20.0
125.00848	10.0
125.02271	10.0
131.01192	10.0
135.04431	270.0
151.00401	650.0
165.02692	10.0
169.01418	10.0
175.0024	40.0
177.02209	10.0
193.01445	20.0
201.05833	20.0
269.05557	40.0
286.05051	10.0
287.05847	80.0
294.03122	20.0
295.05093	30.0
303.54657	10.0
311.04745	10.0
339.06744	30.0
339.08612	30.0
441.07391	10.0
448.11731	10.0
458.47089	10.0
459.11588	630.0
460.11295	10.0
577.14569	10.0
591.97327	10.0
594.25897	20.0
595.16577	1000.0
596.17413	20.0

NAME:  NCGC00180154-02![6-[[1a-(hydroxymethyl)-2-[3,4,5-trihydroxy-6-(hydroxymethyl)oxan-2-yl]oxy-2,5a,6,6a-tetrahydro-1bH-oxireno[5,6]cyclopenta[1,3-c]pyran-6-yl]oxy]-4,5-dihydroxy-2-methyloxan-3-yl] (E)-3-(4-methoxyphenyl)prop-2-enoate
PRECURSORMZ:  713.22983775583
PRECURSORTYPE:  [M+FA-H]-
FORMULA:  C31H40O16
Ontology: ;;;
INCHIKEY:  RTCISXKUWWQSRF-UHFFFAOYNA-N
SMILES:  COC1=CC=C(C=CC(=O)OC2C(C)OC(OC3C4OC4(CO)C4C3C=COC4OC3OC(CO)C(O)C(O)C3O)C(O)C2O)C=C1
RETENTIONTIME:  
CCS:  -1
IONMODE:  Negative
INSTRUMENTTYPE:  
INSTRUMENT:  Maxis II HD Q-TOF Bruker
COLLISIONENERGY:  
Comment:  DB#=CCMSLIB00000847317; origin=GNPS
Num Peaks:  42
85.02791	90.0
92.13255	80.0
101.02275	40.0
107.04973	30.0
108.019	30.0
113.02282	70.0
119.05143	30.0
133.06546	40.0
135.04382	30.0
139.03439	30.0
145.04121	30.0
151.03761	130.0
153.05789	50.0
161.05862	90.0
163.03853	170.0
167.03285	30.0
177.05586	1000.0
177.22121	30.0
179.07465	40.0
180.04201	40.0
181.0502	90.0
182.05544	10.0
205.04929	80.0
217.08298	30.0
219.06711	20.0
235.06479	30.0
245.08206	100.0
268.09866	20.0
271.08731	20.0
273.08258	20.0
295.09842	30.0
299.4465	10.0
341.10684	180.0
343.10611	70.0
379.12039	30.0
391.13205	160.0
419.12143	30.0
475.16058	30.0
488.17014	30.0
505.18176	50.0
529.16388	20.0
667.2431	10.0

NAME:  NCGC00178802-07!N-[5-[[4-[5-[acetyl(hydroxy)amino]pentylamino]-4-oxobutanoyl]-hydroxyamino]pentyl]-N'-(5-aminopentyl)-N'-hydroxybutanediamide
PRECURSORMZ:  559.34608607783
PRECURSORTYPE:  [M-H]-
FORMULA:  C25H48N6O8
Ontology: ;;;
INCHIKEY:  UBQYURCVBFRUQT-UHFFFAOYSA-N
SMILES:  CC(=O)N(O)CCCCCN=C(O)CCC(=O)N(O)CCCCCN=C(O)CCC(=O)N(O)CCCCCN
RETENTIONTIME:  
CCS:  222.7074909
IONMODE:  Negative
INSTRUMENTTYPE:  
INSTRUMENT:  Maxis II HD Q-TOF Bruker
COLLISIONENERGY:  
Comment:  DB#=CCMSLIB00000847319; origin=GNPS
Num Peaks:  26
89.37057	50.0
98.02583	420.0
153.10042	260.0
155.12105	230.0
163.0921	170.0
171.11311	100.0
180.87598	110.0
181.09776	1000.0
181.19049	50.0
181.46004	40.0
183.0368	30.0
183.11862	170.0
199.10648	850.0
217.11157	60.0
223.11127	90.0
241.12057	680.0
243.13268	40.0
259.13147	630.0
317.22046	840.0
363.20319	100.0
384.22195	70.0
441.23462	260.0
459.23999	140.0
499.31598	80.0
559.29596	90.0
559.34583	330.0

NAME:  NCGC00385370-01!8-[(2S,3R,4R,5S,6R)-3,4-dihydroxy-6-(hydroxymethyl)-5-[(2S,3R,4S,5S,6R)-3,4,5-trihydroxy-6-(hydroxymethyl)oxan-2-yl]oxyoxan-2-yl]-5,7-dihydroxy-2-(4-hydroxyphenyl)chromen-4-one
PRECURSORMZ:  639.15667281383
PRECURSORTYPE:  [M+FA-H]-
FORMULA:  C27H30O15
Ontology: ;;;
INCHIKEY:  NDSUKTASTPEKBX-UHFFFAOYNA-N
SMILES:  OCC1OC(OC2C(O)C(O)C(OC2CO)C2=C(O)C=C(O)C3=C2OC(=CC3=O)C2=CC=C(O)C=C2)C(O)C(O)C1O
RETENTIONTIME:  
CCS:  -1
IONMODE:  Negative
INSTRUMENTTYPE:  
INSTRUMENT:  Maxis II HD Q-TOF Bruker
COLLISIONENERGY:  
Comment:  DB#=CCMSLIB00000847322; origin=GNPS
Num Peaks:  19
174.99893	20.0
201.13155	10.0
269.04614	10.0
283.05371	10.0
293.0463	610.0
297.03604	20.0
311.05417	50.0
335.05762	50.0
337.07104	20.0
349.06607	10.0
413.08588	950.0
414.09485	20.0
473.1163	40.0
588.19531	10.0
593.15143	1000.0
594.14978	20.0
596.71759	20.0
990.80347	10.0
1512.90295	10.0

NAME:  NCGC00385381-01!2-(3,4-dihydroxyphenyl)-5,7-dihydroxy-3-[(2S,3R,4S,5S,6R)-3,4,5-trihydroxy-6-[[(2S,3R,4S,5R)-3,4,5-trihydroxyoxan-2-yl]oxymethyl]oxan-2-yl]oxychromen-4-one
PRECURSORMZ:  595.13045836983
PRECURSORTYPE:  [M-H]-
FORMULA:  C26H28O16
Ontology: ;;;
INCHIKEY:  YNMFDPCLPIMRFD-UHFFFAOYNA-N
SMILES:  OC1COC(OCC2OC(OC3=C(OC4=CC(O)=CC(O)=C4C3=O)C3=CC(O)=C(O)C=C3)C(O)C(O)C2O)C(O)C1O
RETENTIONTIME:  
CCS:  241.0849696
IONMODE:  Negative
INSTRUMENTTYPE:  
INSTRUMENT:  Maxis II HD Q-TOF Bruker
COLLISIONENERGY:  
Comment:  DB#=CCMSLIB00000847324; origin=GNPS
Num Peaks:  22
89.0233	20.0
156.26646	10.0
162.99893	10.0
178.99745	20.0
192.00253	10.0
226.02271	10.0
243.02885	20.0
255.03009	90.0
271.026	110.0
293.04477	40.0
294.04504	50.0
300.02835	1000.0
301.03403	80.0
311.06705	30.0
321.03775	20.0
344.5076	60.0
355.05331	20.0
445.08804	30.0
594.16235	10.0
595.0686	20.0
595.1347	420.0
1598.22998	60.0

NAME:  NCGC00380362-01!1,7-bis(3,4-dihydroxyphenyl)-6-hydroxyheptan-3-one
PRECURSORMZ:  345.13436197583
PRECURSORTYPE:  [M-H]-
FORMULA:  C19H22O6
Ontology: ;;;
INCHIKEY:  NOFGKTVEZONBCG-UHFFFAOYNA-N
SMILES:  OC(CCC(=O)CCC1=CC(O)=C(O)C=C1)CC1=CC(O)=C(O)C=C1
RETENTIONTIME:  
CCS:  -1
IONMODE:  Negative
INSTRUMENTTYPE:  
INSTRUMENT:  Maxis II HD Q-TOF Bruker
COLLISIONENERGY:  
Comment:  DB#=CCMSLIB00000847325; origin=GNPS
Num Peaks:  7
165.05383	910.0
179.07245	430.0
204.07179	190.0
223.09164	120.0
225.53242	80.0
234.15193	80.0
345.13431	1000.0

NAME:  NCGC00179769-02!7-[(2S,3R,4S,5S,6R)-4,5-dihydroxy-6-(hydroxymethyl)-3-[(2S,3R,4R,5R,6S)-3,4,5-trihydroxy-6-methyloxan-2-yl]oxyoxan-2-yl]oxy-5-hydroxy-6-methoxy-2-(4-methoxyphenyl)chromen-4-one
PRECURSORMZ:  667.18797294283
PRECURSORTYPE:  [M+FA-H]-
FORMULA:  C29H34O15
Ontology: ;;;
INCHIKEY:  QSFNHAFPXWQTGZ-UHFFFAOYNA-N
SMILES:  COC1=CC=C(C=C1)C1=CC(=O)C2=C(O)C(OC)=C(OC3OC(CO)C(O)C(O)C3OC3OC(C)C(O)C(O)C3O)C=C2O1
RETENTIONTIME:  
CCS:  -1
IONMODE:  Negative
INSTRUMENTTYPE:  
INSTRUMENT:  Maxis II HD Q-TOF Bruker
COLLISIONENERGY:  
Comment:  DB#=CCMSLIB00000847328; origin=GNPS
Num Peaks:  8
116.73007	10.0
283.02176	80.0
294.04572	10.0
297.04221	10.0
298.04727	190.0
313.07028	1000.0
475.12003	10.0
621.18408	30.0

NAME:  NCGC00380361-01![(2R,3S,4S,5R,6R)-6-[1,7-bis(4-hydroxyphenyl)-5-oxoheptan-3-yl]oxy-3,4,5-trihydroxyoxan-2-yl]methyl (E)-3-(4-hydroxyphenyl)prop-2-enoate
PRECURSORMZ:  621.23413559183
PRECURSORTYPE:  [M-H]-
FORMULA:  C34H38O11
Ontology: ;;;
INCHIKEY:  MHWAHKIDOYBXCN-UHFFFAOYNA-N
SMILES:  OC1C(COC(=O)C=CC2=CC=C(O)C=C2)OC(OC(CCC2=CC=C(O)C=C2)CC(=O)CCC2=CC=C(O)C=C2)C(O)C1O
RETENTIONTIME:  
CCS:  273.8706407
IONMODE:  Negative
INSTRUMENTTYPE:  
INSTRUMENT:  Maxis II HD Q-TOF Bruker
COLLISIONENERGY:  
Comment:  DB#=CCMSLIB00000847329; origin=GNPS
Num Peaks:  26
104.83017	10.0
117.03416	50.0
119.05249	30.0
145.02885	190.0
161.06079	110.0
162.02736	20.0
163.03873	460.0
177.05196	100.0
180.71712	10.0
184.44333	20.0
189.0896	100.0
191.0659	30.0
205.05038	320.0
206.05685	20.0
217.05045	20.0
235.06131	430.0
256.99634	30.0
265.07138	1000.0
266.07727	10.0
276.72852	20.0
295.1384	40.0
307.08395	20.0
314.04102	10.0
325.09	250.0
329.06842	40.0
621.21594	20.0

NAME:  NCGC00380361-01![(2R,3S,4S,5R,6R)-6-[1,7-bis(4-hydroxyphenyl)-5-oxoheptan-3-yl]oxy-3,4,5-trihydroxyoxan-2-yl]methyl (E)-3-(4-hydroxyphenyl)prop-2-enoate
PRECURSORMZ:  667.23961459183
PRECURSORTYPE:  [M+FA-H]-
FORMULA:  C34H38O11
Ontology: ;;;
INCHIKEY:  MHWAHKIDOYBXCN-UHFFFAOYNA-N
SMILES:  OC1C(COC(=O)C=CC2=CC=C(O)C=C2)OC(OC(CCC2=CC=C(O)C=C2)CC(=O)CCC2=CC=C(O)C=C2)C(O)C1O
RETENTIONTIME:  
CCS:  -1
IONMODE:  Negative
INSTRUMENTTYPE:  
INSTRUMENT:  Maxis II HD Q-TOF Bruker
COLLISIONENERGY:  
Comment:  DB#=CCMSLIB00000847332; origin=GNPS
Num Peaks:  24
113.02011	10.0
117.03252	30.0
119.05038	60.0
121.02829	10.0
133.06479	30.0
145.02805	160.0
161.06032	80.0
163.03917	350.0
163.08148	10.0
173.05678	10.0
177.05536	90.0
187.04016	40.0
189.09053	90.0
191.04378	10.0
205.04919	460.0
235.05991	390.0
247.06158	20.0
265.07034	1000.0
295.1337	100.0
307.08258	30.0
325.09467	340.0
325.15109	20.0
326.08191	10.0
621.23816	50.0

NAME:  NCGC00380364-01!
PRECURSORMZ:  811.44854473283
PRECURSORTYPE:  [M+FA-H]-
FORMULA:  C41H66O13
Ontology: Kingdom: Organic compounds;Superclass: Lipids and lipid;Class: Prenol lipids;Subclass: Triterpenoids
INCHIKEY:  RCDRNOBFNNSZNW-UHFFFAOYNA-N
SMILES:  CC(CCC(OC1OCC(O)C(O)C1O)C(C)(C)OC1OC(CO)C(O)C(O)C1O)C1CCC2(C)C3C(O)CC4C5(CC35CCC12C)C(=O)C=CC4(C)C
RETENTIONTIME:  
CCS:  -1
IONMODE:  Negative
INSTRUMENTTYPE:  
INSTRUMENT:  Maxis II HD Q-TOF Bruker
COLLISIONENERGY:  
Comment:  DB#=CCMSLIB00000847334; origin=GNPS
Num Peaks:  27
71.0136	10.0
85.0296	10.0
89.02235	50.0
100.01459	10.0
101.02235	40.0
102.25626	10.0
113.02399	110.0
119.03497	20.0
140.00581	20.0
143.03392	30.0
149.04463	20.0
159.02921	40.0
161.04564	160.0
179.05791	20.0
191.05284	30.0
300.83878	20.0
394.16129	10.0
454.39035	10.0
615.40991	20.0
633.39844	550.0
634.39935	80.0
664.55627	10.0
677.38666	20.0
764.58264	10.0
765.44452	1000.0
766.45142	110.0
811.43896	10.0

NAME:  NCGC00380127-01!5,6-dibenzoyloxy-7-methyl-1-[3,4,5-trihydroxy-6-(hydroxymethyl)oxan-2-yl]oxy-1,4a,5,6,7,7a-hexahydrocyclopenta[c]pyran-4-carboxylic acid
PRECURSORMZ:  645.18249363783
PRECURSORTYPE:  [M+FA-H]-
FORMULA:  C30H32O13
Ontology: ;;;
INCHIKEY:  KNKHXYYGNZZSEJ-UHFFFAOYNA-N
SMILES:  CC1C(OC(=O)C2=CC=CC=C2)C(OC(=O)C2=CC=CC=C2)C2C1C(OC1OC(CO)C(O)C(O)C1O)OC=C2C(O)=O
RETENTIONTIME:  
CCS:  -1
IONMODE:  Negative
INSTRUMENTTYPE:  
INSTRUMENT:  Maxis II HD Q-TOF Bruker
COLLISIONENERGY:  
Comment:  DB#=CCMSLIB00000847336; origin=GNPS
Num Peaks:  26
121.02827	1000.0
131.05081	190.0
133.23759	10.0
133.29387	20.0
143.03159	40.0
149.0603	60.0
151.51607	20.0
165.019	20.0
175.04059	90.0
181.78972	20.0
190.8429	30.0
190.98247	10.0
191.05087	30.0
191.27928	20.0
193.05299	40.0
287.04593	30.0
315.08691	130.0
316.1011	10.0
316.9324	20.0
355.10355	40.0
432.38513	20.0
433.17328	20.0
434.15451	10.0
437.12079	20.0
477.13974	30.0
599.18054	160.0

NAME:  NCGC00380530-01!3-(1,3-benzodioxol-5-yl)-7-[6-[[3,4-dihydroxy-4-(hydroxymethyl)oxolan-2-yl]oxymethyl]-3,4,5-trihydroxyoxan-2-yl]oxy-5,6-dimethoxychromen-4-one
PRECURSORMZ:  681.16723749783
PRECURSORTYPE:  [M+FA-H]-
FORMULA:  C29H32O16
Ontology: ;;;
INCHIKEY:  LXGTXWCOSLFWKC-UHFFFAOYNA-N
SMILES:  COC1=C(OC2OC(COC3OCC(O)(CO)C3O)C(O)C(O)C2O)C=C2OC=C(C(=O)C2=C1OC)C1=CC2=C(OCO2)C=C1
RETENTIONTIME:  
CCS:  -1
IONMODE:  Negative
INSTRUMENTTYPE:  
INSTRUMENT:  Maxis II HD Q-TOF Bruker
COLLISIONENERGY:  
Comment:  DB#=CCMSLIB00000847338; origin=GNPS
Num Peaks:  6
210.03998	10.0
248.12273	10.0
311.01846	290.0
326.04294	60.0
341.06595	1000.0
342.06848	10.0

NAME:  NCGC00380125-01![3-methyl-1-[3-methyl-1-[3-methyl-1-[3-methyl-1-oxo-1-(2,3,4,5,6-pentahydroxyhexoxy)pentan-2-yl]oxy-1-oxopentan-2-yl]oxy-1-oxopentan-2-yl]oxy-1-oxopentan-2-yl] 2-acetyloxy-3-methylpentanoate
PRECURSORMZ:  839.42820321283
PRECURSORTYPE:  [M+FA-H]-
FORMULA:  C38H66O17
Ontology: ;;;
INCHIKEY:  VLOGACFISZMMCN-UHFFFAOYNA-N
SMILES:  CCC(C)C(OC(=O)C(OC(=O)C(OC(=O)C(OC(=O)C(OC(C)=O)C(C)CC)C(C)CC)C(C)CC)C(C)CC)C(=O)OCC(O)C(O)C(O)C(O)CO
RETENTIONTIME:  
CCS:  -1
IONMODE:  Negative
INSTRUMENTTYPE:  
INSTRUMENT:  Maxis II HD Q-TOF Bruker
COLLISIONENERGY:  
Comment:  DB#=CCMSLIB00000847340; origin=GNPS
Num Peaks:  11
113.06056	50.0
131.07103	450.0
173.08073	1000.0
245.13794	10.0
287.14917	870.0
288.15494	40.0
401.21762	620.0
402.22348	60.0
515.28833	260.0
516.28723	40.0
629.34509	20.0

NAME:  NCGC00380544-01![5-hydroxy-6-[6-[[14-hydroxy-10,13-dimethyl-17-[1-[3,4,5-trihydroxy-6-[[3,4,5-trihydroxy-6-[[3,4,5-trihydroxy-6-(hydroxymethyl)oxan-2-yl]oxymethyl]oxan-2-yl]oxymethyl]oxan-2-yl]oxyethyl]-1,2,3,4,7,8,9,11,12,15,16,17-dodecahydrocyclopenta[a]phenanthren-3-yl]oxy]-4-methoxy-2-methyloxan-3-yl]oxy-4-methoxy-2-methyloxan-3-yl] (E)-2-methylbut-2-enoate
PRECURSORMZ:  1251.60153569483
PRECURSORTYPE:  [M+FA-H]-
FORMULA:  C58H94O26
Ontology: Kingdom: Organic compounds;Superclass: Lipids and lipid;Class: Steroids and steroid derivatives;Subclass: Steroidal glycosides
INCHIKEY:  LNHNOBYJWYNHSB-UHFFFAOYNA-N
SMILES:  COC1CC(OC2CCC3(C)C4CCC5(C)C(CCC5(O)C4CC=C3C2)C(C)OC2OC(COC3OC(COC4OC(CO)C(O)C(O)C4O)C(O)C(O)C3O)C(O)C(O)C2O)OC(C)C1OC1OC(C)C(OC(=O)C(C)=CC)C(OC)C1O
RETENTIONTIME:  
CCS:  -1
IONMODE:  Negative
INSTRUMENTTYPE:  
INSTRUMENT:  Maxis II HD Q-TOF Bruker
COLLISIONENERGY:  
Comment:  DB#=CCMSLIB00000847342; origin=GNPS
Num Peaks:  105
73.03512	10.0
73.39751	10.0
78.82857	10.0
83.01601	10.0
84.76783	40.0
85.02928	70.0
89.02436	200.0
95.01593	10.0
97.02954	20.0
99.04465	160.0
101.02284	310.0
101.328	20.0
107.15639	10.0
109.02905	20.0
111.00611	20.0
111.04427	30.0
113.02557	400.0
114.0295	20.0
115.04046	20.0
119.03376	230.0
124.01215	10.0
124.77946	20.0
125.02373	240.0
127.03743	50.0
129.02071	20.0
131.03838	50.0
139.04095	20.0
143.03511	120.0
145.04762	30.0
149.04539	20.0
155.03227	20.0
158.01942	10.0
159.02788	60.0
159.06947	20.0
161.04449	430.0
162.04079	10.0
173.04172	10.0
179.05414	450.0
179.15117	10.0
179.18828	10.0
180.06055	20.0
181.06096	10.0
185.04372	10.0
186.02658	10.0
197.0464	10.0
203.05801	30.0
221.06662	360.0
222.07095	10.0
233.07008	20.0
245.06648	150.0
263.07782	180.0
281.08878	30.0
287.0766	10.0
305.0936	10.0
306.0889	20.0
323.10028	110.0
341.11606	20.0
342.10736	10.0
355.16794	20.0
383.11917	120.0
384.12082	20.0
397.1395	30.0
407.1145	80.0
425.12851	50.0
425.17618	20.0
426.1394	20.0
485.15039	10.0
486.1337	10.0
547.55988	10.0
559.3725	10.0
561.487	20.0
567.1991	10.0
571.64716	10.0
637.34204	10.0
637.39594	30.0
650.06256	20.0
677.3985	10.0
799.45032	20.0
800.46753	10.0
881.50238	20.0
943.47931	30.0
944.4538	20.0
944.51556	10.0
961.49353	10.0
1043.54089	120.0
1044.55408	20.0
1044.61096	10.0
1061.42029	10.0
1077.52869	20.0
1104.56262	10.0
1105.54236	290.0
1106.54968	210.0
1107.53479	10.0
1123.5592	60.0
1124.55664	70.0
1125.55969	20.0
1151.59778	10.0
1205.59668	1000.0
1206.36096	10.0
1206.59521	440.0
1207.60657	90.0
1208.5946	20.0
1212.38257	10.0
1251.57959	20.0
1817.86523	10.0

NAME:  NCGC00385342-01!3-[3-[(2E)-3,7-dimethylocta-2,6-dienyl]-4-hydroxyphenyl]-7-hydroxychromen-4-one
PRECURSORMZ:  389.17583286483
PRECURSORTYPE:  [M-H]-
FORMULA:  C25H26O4
Ontology: ;;;
INCHIKEY:  ZBHUUXLHDOUMKM-UHFFFAOYSA-N
SMILES:  CC(C)=CCCC(C)=CCC1=C(O)C=CC(=C1)C1=COC2=C(C=CC(O)=C2)C1=O
RETENTIONTIME:  
CCS:  222.2332953
IONMODE:  Negative
INSTRUMENTTYPE:  
INSTRUMENT:  Maxis II HD Q-TOF Bruker
COLLISIONENERGY:  
Comment:  DB#=CCMSLIB00000847344; origin=GNPS
Num Peaks:  6
266.05423	70.0
298.05258	60.0
305.09457	70.0
320.11197	80.0
389.17627	1000.0
1152.32629	80.0

NAME:  NCGC00347584-02!5-chloro-2,4-dihydroxy-3-[(E)-4-hydroxy-3-methyl-5-(1,2,6-trimethyl-3-oxocyclohexyl)pent-2-enyl]-6-methylbenzaldehyde
PRECURSORMZ:  421.17872534783
PRECURSORTYPE:  [M-H]-
FORMULA:  C23H31ClO5
Ontology: Kingdom: Organic compounds;Superclass: Organic oxygen compounds;Class: Organooxygen compounds;Subclass: Carbonyl compounds
INCHIKEY:  XFTFIFNAWKMLKL-UHFFFAOYNA-N
SMILES:  CC1CCC(=O)C(C)C1(C)CC(O)C(C)=CCC1=C(O)C(Cl)=C(C)C(C=O)=C1O
RETENTIONTIME:  
CCS:  215.0191324
IONMODE:  Negative
INSTRUMENTTYPE:  
INSTRUMENT:  Maxis II HD Q-TOF Bruker
COLLISIONENERGY:  
Comment:  DB#=CCMSLIB00000847346; origin=GNPS
Num Peaks:  7
193.03995	30.0
203.06976	40.0
229.08627	30.0
229.99474	30.0
239.04727	340.0
263.05551	40.0
421.18408	1000.0

NAME:  NCGC00385348-01!7-[3-[(2R,3R,4R)-3,4-dihydroxy-4-(hydroxymethyl)oxolan-2-yl]oxy-4,5-dihydroxy-6-(hydroxymethyl)oxan-2-yl]oxy-3-(4-methoxyphenyl)chromen-4-one
PRECURSORMZ:  607.16684357383
PRECURSORTYPE:  [M+FA-H]-
FORMULA:  C27H30O13
Ontology: Kingdom: Organic compounds;Superclass: Phenylpropanoids and polyketides;Class: Isoflavonoids;Subclass: Isoflavonoid O
INCHIKEY:  TUUBGLDJKKCMRH-UHFFFAOYNA-N
SMILES:  COC1=CC=C(C=C1)C1=COC2=C(C=CC(OC3OC(CO)C(O)C(O)C3OC3OCC(O)(CO)C3O)=C2)C1=O
RETENTIONTIME:  
CCS:  -1
IONMODE:  Negative
INSTRUMENTTYPE:  
INSTRUMENT:  Maxis II HD Q-TOF Bruker
COLLISIONENERGY:  
Comment:  DB#=CCMSLIB00000847347; origin=GNPS
Num Peaks:  2
252.04262	120.0
267.06644	1000.0

NAME:  NCGC00385338-01!4-[3,4,5-trihydroxy-6-(hydroxymethyl)oxan-2-yl]oxy-9-(3,4,5-trimethoxyphenyl)-5a,6,8a,9-tetrahydro-5H-[2]benzofuro[6,5-f][1,3]benzodioxol-8-one
PRECURSORMZ:  621.18249363783
PRECURSORTYPE:  [M+FA-H]-
FORMULA:  C28H32O13
Ontology: Kingdom: Organic compounds;Superclass: Lignans;Class: Lignan glycosides;
INCHIKEY:  PAIASCMUTMHGHU-UHFFFAOYNA-N
SMILES:  COC1=CC(=CC(OC)=C1OC)C1C2C(COC2=O)CC2=C(OC3OC(CO)C(O)C(O)C3O)C3=C(OCO3)C=C12
RETENTIONTIME:  
CCS:  -1
IONMODE:  Negative
INSTRUMENTTYPE:  
INSTRUMENT:  Maxis II HD Q-TOF Bruker
COLLISIONENERGY:  
Comment:  DB#=CCMSLIB00000847350; origin=GNPS
Num Peaks:  26
109.03058	30.0
149.02563	20.0
173.06345	30.0
195.04782	20.0
197.01714	20.0
207.04918	20.0
217.68637	20.0
228.04326	20.0
236.39552	10.0
281.04233	10.0
299.05832	30.0
313.07867	30.0
339.08459	30.0
341.13284	20.0
353.15396	20.0
355.08676	40.0
369.13083	10.0
383.07611	50.0
384.11279	10.0
385.13852	40.0
395.10834	90.0
395.14725	20.0
396.11667	20.0
398.11716	20.0
413.12589	1000.0
413.21393	20.0

NAME:  NCGC00179760-02!4,5-dihydroxy-9,10-dioxo-3-propylanthracene-2-carboxylic acid
PRECURSORMZ:  325.07176171883
PRECURSORTYPE:  [M-H]-
FORMULA:  C18H14O6
Ontology: Kingdom: Organic compounds;Superclass: Benzenoids;Class: Anthracenes;Subclass: Anthracenecarboxylic acids and derivatives
INCHIKEY:  GBEKAVKMYUMWQR-UHFFFAOYSA-N
SMILES:  CCCC1=C(O)C2=C(C=C1C(O)=O)C(=O)C1=C(C(O)=CC=C1)C2=O
RETENTIONTIME:  
CCS:  -1
IONMODE:  Negative
INSTRUMENTTYPE:  
INSTRUMENT:  Maxis II HD Q-TOF Bruker
COLLISIONENERGY:  
Comment:  DB#=CCMSLIB00000847352; origin=GNPS
Num Peaks:  9
224.05424	150.0
252.04108	110.0
281.08646	1000.0
284.03275	60.0
324.49057	30.0
324.79257	20.0
324.8949	50.0
325.07767	300.0
687.09589	20.0

NAME:  NCGC00385567-01!6,8-dimethoxy-7-[(2S,3R,4S,5S,6R)-3,4,5-trihydroxy-6-(hydroxymethyl)oxan-2-yl]oxychromen-2-one
PRECURSORMZ:  429.10384939183
PRECURSORTYPE:  [M+FA-H]-
FORMULA:  C17H20O10
Ontology: Kingdom: Organic compounds;Superclass: Phenylpropanoids and polyketides;Class: Coumarins and derivatives;Subclass: Coumarin glycosides
INCHIKEY:  IKUQEFGEUOOPGY-UHFFFAOYNA-N
SMILES:  COC1=C(OC2OC(CO)C(O)C(O)C2O)C(OC)=C2OC(=O)C=CC2=C1
RETENTIONTIME:  
CCS:  -1
IONMODE:  Negative
INSTRUMENTTYPE:  
INSTRUMENT:  Maxis II HD Q-TOF Bruker
COLLISIONENERGY:  
Comment:  DB#=CCMSLIB00000847354; origin=GNPS
Num Peaks:  5
75.98568	70.0
123.99294	30.0
163.00421	90.0
206.02094	500.0
221.04446	1000.0

NAME:  NCGC00384835-02![4-[3,4,5-trihydroxy-6-(hydroxymethyl)oxan-2-yl]oxyphenyl]methyl 2,3-dihydroxy-2-[(4-hydroxyphenyl)methyl]butanoate
PRECURSORMZ:  493.17153533383
PRECURSORTYPE:  [M-H]-
FORMULA:  C24H30O11
Ontology: Kingdom: Organic compounds;Superclass: Organic oxygen compounds;Class: Organooxygen compounds;Subclass: Carbohydrates and carbohydrate conjugates
INCHIKEY:  FKMASXTUONWHBB-UHFFFAOYNA-N
SMILES:  CC(O)C(O)(CC1=CC=C(O)C=C1)C(=O)OCC1=CC=C(OC2OC(CO)C(O)C(O)C2O)C=C1
RETENTIONTIME:  
CCS:  -1
IONMODE:  Negative
INSTRUMENTTYPE:  
INSTRUMENT:  Maxis II HD Q-TOF Bruker
COLLISIONENERGY:  
Comment:  DB#=CCMSLIB00000847356; origin=GNPS
Num Peaks:  10
114.63424	20.0
123.9666	30.0
135.04456	40.0
163.03926	30.0
181.05188	90.0
207.06364	30.0
225.07629	1000.0
225.1376	30.0
227.78836	30.0
654.15143	30.0

NAME:  NCGC00384835-02![4-[3,4,5-trihydroxy-6-(hydroxymethyl)oxan-2-yl]oxyphenyl]methyl 2,3-dihydroxy-2-[(4-hydroxyphenyl)methyl]butanoate
PRECURSORMZ:  539.17701433383
PRECURSORTYPE:  [M+FA-H]-
FORMULA:  C24H30O11
Ontology: Kingdom: Organic compounds;Superclass: Organic oxygen compounds;Class: Organooxygen compounds;Subclass: Carbohydrates and carbohydrate conjugates
INCHIKEY:  FKMASXTUONWHBB-UHFFFAOYNA-N
SMILES:  CC(O)C(O)(CC1=CC=C(O)C=C1)C(=O)OCC1=CC=C(OC2OC(CO)C(O)C(O)C2O)C=C1
RETENTIONTIME:  
CCS:  -1
IONMODE:  Negative
INSTRUMENTTYPE:  
INSTRUMENT:  Maxis II HD Q-TOF Bruker
COLLISIONENERGY:  
Comment:  DB#=CCMSLIB00000847358; origin=GNPS
Num Peaks:  5
107.05077	20.0
163.04456	10.0
181.05315	80.0
225.07808	1000.0
493.17377	30.0

NAME:  NCGC00381302-01![5-(3-acetyloxy-4,5-dihydroxy-6-methyloxan-2-yl)oxy-2-[4-[4,5-dihydroxy-3-(3,4,5-trihydroxy-6-methyloxan-2-yl)oxyoxan-2-yl]-3,5-dihydroxy-2-[3-(4-hydroxyphenyl)propanoyl]phenoxy]-4-hydroxy-6-methyloxan-3-yl] (E)-3-(4-hydroxyphenyl)prop-2-enoate
PRECURSORMZ:  1031.34017635983
PRECURSORTYPE:  [M-H]-
FORMULA:  C49H60O24
Ontology: Kingdom: Organic compounds;Superclass: Phenylpropanoids and polyketides;Class: Flavonoids;Subclass: Flavonoid glycosides
INCHIKEY:  ZCDMPZRGEBDHMG-UHFFFAOYNA-N
SMILES:  CC1OC(OC2C(O)C(O)COC2C2=C(O)C(C(=O)CCC3=CC=C(O)C=C3)=C(OC3OC(C)C(OC4OC(C)C(O)C(O)C4OC(C)=O)C(O)C3OC(=O)C=CC3=CC=C(O)C=C3)C=C2O)C(O)C(O)C1O
RETENTIONTIME:  
CCS:  -1
IONMODE:  Negative
INSTRUMENTTYPE:  
INSTRUMENT:  Maxis II HD Q-TOF Bruker
COLLISIONENERGY:  
Comment:  DB#=CCMSLIB00000847363; origin=GNPS
Num Peaks:  72
105.03624	20.0
119.04843	70.0
123.04252	10.0
125.02435	20.0
137.02376	30.0
147.04596	20.0
149.02452	40.0
151.03969	20.0
161.05508	10.0
163.03967	80.0
163.07527	10.0
166.02728	20.0
177.01974	10.0
177.05513	30.0
179.03484	90.0
181.05061	20.0
189.05441	40.0
190.02545	40.0
191.03584	80.0
193.04691	20.0
203.03304	40.0
204.04407	20.0
205.01842	20.0
205.04851	70.0
217.0144	20.0
217.04761	30.0
218.01508	10.0
219.03069	20.0
221.0453	90.0
232.03798	50.0
233.04576	560.0
234.04973	10.0
235.06017	20.0
245.04509	90.0
259.05792	10.0
277.07523	40.0
289.07025	20.0
295.05566	10.0
311.09772	10.0
325.06723	10.0
327.08884	100.0
338.07861	60.0
339.08777	1000.0
340.0903	70.0
365.10196	20.0
383.11523	90.0
469.13397	10.0
487.1431	10.0
511.14178	40.0
523.14368	10.0
533.16522	10.0
533.22485	10.0
589.19525	90.0
590.19366	10.0
590.22406	10.0
605.19061	40.0
617.18738	310.0
618.19476	50.0
635.20831	10.0
661.2157	50.0
679.21643	20.0
761.25006	20.0
807.26801	10.0
811.26367	110.0
812.258	30.0
825.30054	30.0
867.29376	540.0
868.29688	90.0
869.28748	20.0
885.30078	110.0
886.3045	30.0
1031.32727	30.0

NAME:  NCGC00380440-01!2-[[(E)-3-[2-(4-hydroxy-3-methoxyphenyl)-3-(hydroxymethyl)-7-methoxy-2,3-dihydro-1-benzofuran-5-yl]prop-2-enoyl]amino]pentanedioic acid
PRECURSORMZ:  500.15621962083
PRECURSORTYPE:  [M-H]-
FORMULA:  C25H27NO10
Ontology: Kingdom: Organic compounds;Superclass: Phenylpropanoids and polyketides;;
INCHIKEY:  VWYFHPLNVVPMNO-UHFFFAOYNA-N
SMILES:  COC1=CC(C=CC(O)=NC(CCC(O)=O)C(O)=O)=CC2=C1OC(C2CO)C1=CC(OC)=C(O)C=C1
RETENTIONTIME:  
CCS:  -1
IONMODE:  Negative
INSTRUMENTTYPE:  
INSTRUMENT:  Maxis II HD Q-TOF Bruker
COLLISIONENERGY:  
Comment:  DB#=CCMSLIB00000847366; origin=GNPS
Num Peaks:  29
128.02939	120.0
129.01596	80.0
146.04388	710.0
148.05086	220.0
172.02377	160.0
190.06265	80.0
239.08141	40.0
243.08577	70.0
282.09311	290.0
294.09515	80.0
295.09692	80.0
297.1153	480.0
309.07672	50.0
309.1022	80.0
323.07269	170.0
323.10342	160.0
327.13779	130.0
337.09537	90.0
353.11096	540.0
379.14093	50.0
381.15103	50.0
423.13068	160.0
426.16965	120.0
436.35919	110.0
456.16385	100.0
470.14087	640.0
482.12372	80.0
500.15997	1000.0
515.72998	70.0

NAME:  NCGC00380480-01![(2R,3S,4S,5R,6R)-6-[1,7-bis(4-hydroxyphenyl)-5-oxoheptan-3-yl]oxy-3,4,5-trihydroxyoxan-2-yl]methyl (E)-3-(3,4-dimethoxyphenyl)prop-2-enoate
PRECURSORMZ:  711.26582933983
PRECURSORTYPE:  [M+FA-H]-
FORMULA:  C36H42O12
Ontology: Kingdom: Organic compounds;Superclass: Phenylpropanoids and polyketides;Class: Diarylheptanoids;Subclass: Linear diarylheptanoids
INCHIKEY:  FRZOQPPWSKEZAA-UHFFFAOYNA-N
SMILES:  COC1=C(OC)C=C(C=CC(=O)OCC2OC(OC(CCC3=CC=C(O)C=C3)CC(=O)CCC3=CC=C(O)C=C3)C(O)C(O)C2O)C=C1
RETENTIONTIME:  
CCS:  -1
IONMODE:  Negative
INSTRUMENTTYPE:  
INSTRUMENT:  Maxis II HD Q-TOF Bruker
COLLISIONENERGY:  
Comment:  DB#=CCMSLIB00000847367; origin=GNPS
Num Peaks:  33
83.05189	10.0
116.51762	10.0
145.06674	10.0
149.02226	10.0
149.05966	60.0
164.04834	10.0
172.05289	10.0
177.01874	10.0
177.05496	20.0
187.07045	10.0
189.05463	10.0
189.09152	870.0
190.06441	20.0
191.03203	20.0
192.04573	10.0
201.03009	10.0
205.08618	150.0
206.05768	190.0
207.06607	380.0
217.08882	10.0
221.08258	420.0
222.07855	10.0
247.10826	10.0
248.75383	20.0
249.0757	370.0
250.0807	20.0
275.08667	10.0
295.13376	1000.0
296.12878	20.0
309.09927	40.0
359.17877	10.0
650.6059	40.0
1841.64453	20.0

NAME:  NCGC00384856-01![(E,2R)-5-(3-chloro-5-formyl-2,6-dihydroxy-4-methylphenyl)-3-methyl-1-[(1S,2R,6R)-1,2,6-trimethyl-3-oxocyclohexyl]pent-3-en-2-yl] 3-methylbutanoate
PRECURSORMZ:  505.23624024783
PRECURSORTYPE:  [M-H]-
FORMULA:  C28H39ClO6
Ontology: Kingdom: Organic compounds;Superclass: Organic oxygen compounds;Class: Organooxygen compounds;Subclass: Carbonyl compounds
INCHIKEY:  CJUHWKPMXGYAGR-UHFFFAOYNA-N
SMILES:  CC(C)CC(=O)OC(CC1(C)C(C)CCC(=O)C1C)C(C)=CCC1=C(O)C(Cl)=C(C)C(C=O)=C1O
RETENTIONTIME:  
CCS:  242.6926235
IONMODE:  Negative
INSTRUMENTTYPE:  
INSTRUMENT:  Maxis II HD Q-TOF Bruker
COLLISIONENERGY:  
Comment:  DB#=CCMSLIB00000847370; origin=GNPS
Num Peaks:  13
101.0617	50.0
186.075	10.0
199.0793	20.0
205.3071	20.0
209.0042	20.0
237.07089	10.0
264.05807	60.0
265.05878	10.0
317.10559	20.0
401.15265	20.0
403.16931	1000.0
404.18076	30.0
505.23233	40.0

NAME:  NCGC00384863-01![(E)-3-[4-[1-hydroxy-1-(4-hydroxy-3-methoxyphenyl)-3-[(E)-3-(4-hydroxyphenyl)prop-2-enoyl]oxypropan-2-yl]oxy-3,5-dimethoxyphenyl]prop-2-enyl] (E)-3-(4-hydroxyphenyl)prop-2-enoate
PRECURSORMZ:  697.22905021183
PRECURSORTYPE:  [M-H]-
FORMULA:  C39H38O12
Ontology: ;;;
INCHIKEY:  IKHAPHPJWABCCU-UHFFFAOYNA-N
SMILES:  COC1=CC(C=CCOC(=O)C=CC2=CC=C(O)C=C2)=CC(OC)=C1OC(COC(=O)C=CC1=CC=C(O)C=C1)C(O)C1=CC(OC)=C(O)C=C1
RETENTIONTIME:  
CCS:  275.6923956
IONMODE:  Negative
INSTRUMENTTYPE:  
INSTRUMENT:  Maxis II HD Q-TOF Bruker
COLLISIONENERGY:  
Comment:  DB#=CCMSLIB00000847372; origin=GNPS
Num Peaks:  18
77.67647	30.0
89.02411	30.0
108.71434	10.0
117.03465	50.0
119.05065	300.0
145.03082	440.0
145.10985	20.0
149.0217	20.0
162.03177	70.0
163.00528	20.0
163.04059	1000.0
195.06894	30.0
297.12448	20.0
327.08664	20.0
355.13208	20.0
551.1969	70.0
653.27954	20.0
697.23499	310.0

NAME:  NCGC00384896-01!3-[6,12,22-tris(2-amino-2-oxoethyl)-19-(hydroxymethyl)-9-[(4-hydroxyphenyl)methyl]-16-(11-methyltridecyl)-2,5,8,11,14,18,21,24-octaoxo-1,4,7,10,13,17,20,23-octazabicyclo[23.3.0]octacosan-3-yl]propanamide
PRECURSORMZ:  1083.58441885183
PRECURSORTYPE:  [M-H]-
FORMULA:  C51H80N12O14
Ontology: Kingdom: Organic compounds;Superclass: Organic acids and derivatives;Class: Carboxylic acids and derivatives;Subclass: Amino acids
INCHIKEY:  SYWSRNVDWIDEAD-UHFFFAOYNA-N
SMILES:  CCC(C)CCCCCCCCCCC1CC(O)=NC(CC(O)=N)C(O)=NC(CC2=CC=C(O)C=C2)C(O)=NC(CC(O)=N)C(O)=NC(CCC(O)=N)C(=O)N2CCCC2C(O)=NC(CC(O)=N)C(O)=NC(CO)C(O)=N1
RETENTIONTIME:  
CCS:  -1
IONMODE:  Negative
INSTRUMENTTYPE:  
INSTRUMENT:  Maxis II HD Q-TOF Bruker
COLLISIONENERGY:  
Comment:  DB#=CCMSLIB00000847374; origin=GNPS
Num Peaks:  182
96.01229	160.0
98.02693	80.0
99.02395	100.0
102.19977	70.0
109.0454	280.0
110.02926	250.0
111.02333	120.0
113.03541	320.0
127.05095	370.0
134.06165	100.0
137.07106	120.0
138.05502	50.0
141.03113	40.0
141.16742	20.0
141.21175	80.0
144.08009	90.0
152.05382	260.0
153.03044	270.0
153.08028	20.0
162.05849	70.0
162.53374	40.0
163.08382	70.0
166.06485	90.0
167.0472	70.0
170.05704	770.0
170.09441	750.0
171.0984	20.0
174.05174	70.0
177.07175	60.0
179.08295	170.0
180.07915	390.0
181.05803	90.0
181.09804	60.0
182.06682	40.0
182.09637	30.0
184.11751	80.0
186.0856	80.0
195.07672	150.0
196.06996	70.0
198.08397	40.0
205.06633	50.0
206.09093	70.0
207.07901	150.0
211.08641	70.0
213.10698	60.0
215.08606	50.0
217.05722	80.0
223.11639	60.0
223.4935	50.0
223.95677	20.0
224.07045	800.0
224.10764	90.0
225.06909	90.0
226.08173	130.0
227.07674	60.0
227.09686	70.0
227.12256	90.0
233.09956	40.0
235.09384	100.0
237.10133	40.0
239.13416	30.0
241.10477	120.0
241.12624	170.0
262.20996	30.0
264.08096	20.0
266.0918	30.0
267.07211	70.0
270.10681	70.0
276.09897	1000.0
278.13879	50.0
280.09561	30.0
280.13498	120.0
281.12558	230.0
284.13306	240.0
290.12598	60.0
292.26035	50.0
293.12985	190.0
295.15179	60.0
295.172	70.0
298.11658	60.0
298.15509	60.0
319.33789	40.0
321.11411	60.0
321.25519	120.0
324.12344	150.0
334.13867	160.0
335.15555	40.0
335.26868	50.0
352.15521	180.0
355.11255	40.0
358.10907	40.0
362.29489	100.0
363.26968	150.0
377.15472	150.0
380.29105	300.0
381.29907	150.0
392.2962	40.0
394.18521	120.0
395.17056	790.0
396.17896	150.0
407.16486	150.0
412.16171	60.0
421.17468	60.0
425.18671	190.0
431.5838	40.0
453.01825	60.0
477.31128	40.0
484.34949	50.0
493.34146	40.0
494.3656	40.0
501.18869	50.0
501.61801	20.0
502.15665	60.0
509.21875	260.0
510.22986	50.0
510.85318	30.0
514.35834	30.0
521.20886	60.0
525.3703	50.0
539.22974	70.0
543.34021	60.0
543.37408	80.0
544.35785	30.0
551.39014	120.0
557.24316	50.0
566.23071	30.0
575.24872	40.0
577.36932	150.0
598.21753	40.0
599.24658	50.0
605.27869	50.0
612.2547	60.0
655.27454	40.0
656.40106	60.0
656.83368	20.0
657.38855	40.0
658.40057	40.0
672.27179	130.0
673.28296	50.0
678.51788	60.0
684.28131	40.0
702.2807	90.0
715.26172	70.0
719.31274	60.0
758.45471	50.0
769.41962	50.0
776.46442	200.0
777.47217	130.0
780.31464	50.0
785.44788	30.0
786.30597	40.0
787.31506	110.0
806.47546	30.0
816.33032	30.0
823.50458	40.0
828.49567	40.0
831.48169	60.0
864.5224	50.0
873.47589	30.0
883.49249	30.0
921.50586	60.0
925.52979	40.0
955.51672	30.0
970.54877	30.0
995.86273	10.0
1010.57098	30.0
1032.72595	20.0
1035.54871	90.0
1045.42969	20.0
1047.57312	60.0
1048.59741	30.0
1053.56348	840.0
1054.56384	340.0
1055.56616	110.0
1056.24341	40.0
1058.52905	20.0
1065.5564	210.0
1066.55334	80.0
1083.58569	620.0
1084.58594	400.0
1084.76245	30.0
1089.61499	70.0

NAME:  NCGC00384896-01!3-[6,12,22-tris(2-amino-2-oxoethyl)-19-(hydroxymethyl)-9-[(4-hydroxyphenyl)methyl]-16-(11-methyltridecyl)-2,5,8,11,14,18,21,24-octaoxo-1,4,7,10,13,17,20,23-octazabicyclo[23.3.0]octacosan-3-yl]propanamide
PRECURSORMZ:  1129.58989785183
PRECURSORTYPE:  [M+FA-H]-
FORMULA:  C51H80N12O14
Ontology: Kingdom: Organic compounds;Superclass: Organic acids and derivatives;Class: Carboxylic acids and derivatives;Subclass: Amino acids
INCHIKEY:  SYWSRNVDWIDEAD-UHFFFAOYNA-N
SMILES:  CCC(C)CCCCCCCCCCC1CC(O)=NC(CC(O)=N)C(O)=NC(CC2=CC=C(O)C=C2)C(O)=NC(CC(O)=N)C(O)=NC(CCC(O)=N)C(=O)N2CCCC2C(O)=NC(CC(O)=N)C(O)=NC(CO)C(O)=N1
RETENTIONTIME:  
CCS:  -1
IONMODE:  Negative
INSTRUMENTTYPE:  
INSTRUMENT:  Maxis II HD Q-TOF Bruker
COLLISIONENERGY:  
Comment:  DB#=CCMSLIB00000847376; origin=GNPS
Num Peaks:  239
82.03012	20.0
95.02969	30.0
96.01047	230.0
97.04236	60.0
98.02733	90.0
99.02512	20.0
109.04506	100.0
110.0253	60.0
111.02071	90.0
111.06066	30.0
112.02711	10.0
113.03699	340.0
113.07417	30.0
113.7815	10.0
114.02248	20.0
114.87093	10.0
125.03664	120.0
127.05107	240.0
127.45612	20.0
129.89059	10.0
134.06151	20.0
137.07103	30.0
137.50441	20.0
138.06113	40.0
139.0486	20.0
144.08162	40.0
151.07658	10.0
152.04523	280.0
152.64003	10.0
153.02963	290.0
153.06693	40.0
154.06207	20.0
155.04544	20.0
162.0564	80.0
163.08479	20.0
166.05537	10.0
167.04745	70.0
169.07648	20.0
170.05756	390.0
170.09431	580.0
171.04424	40.0
172.07652	10.0
172.62042	10.0
173.78072	20.0
177.06424	10.0
179.04434	40.0
179.08052	90.0
180.0806	70.0
181.06216	60.0
182.05472	20.0
182.09235	80.0
184.0713	30.0
184.11098	30.0
187.08435	20.0
189.071	10.0
190.08914	10.0
193.09726	20.0
195.07382	100.0
196.07513	40.0
196.11331	20.0
198.08224	10.0
201.09975	40.0
204.07693	10.0
206.06042	40.0
207.03732	20.0
207.07866	20.0
208.0896	10.0
210.05266	30.0
213.06404	20.0
215.08632	20.0
217.0943	10.0
223.10344	10.0
223.12563	30.0
224.06822	760.0
224.10376	130.0
225.07281	50.0
226.08321	80.0
227.07542	20.0
227.11552	80.0
231.07433	30.0
233.09814	30.0
234.69336	10.0
237.09859	10.0
239.12038	30.0
241.09401	100.0
241.13704	40.0
242.09026	10.0
250.08328	30.0
253.14029	20.0
258.09009	50.0
259.06583	20.0
261.08255	10.0
263.11636	30.0
264.1124	10.0
264.14694	10.0
266.13	20.0
267.10687	10.0
267.1387	10.0
271.10959	10.0
275.10831	10.0
276.09845	690.0
277.10446	20.0
280.13669	20.0
281.08798	30.0
281.12936	80.0
284.13867	80.0
288.10132	20.0
293.12683	80.0
295.11276	20.0
295.14127	30.0
296.11038	10.0
296.13708	30.0
298.15414	100.0
303.23541	10.0
307.10593	10.0
309.12787	10.0
309.25903	10.0
310.14813	10.0
317.25653	10.0
319.27222	20.0
321.2594	50.0
324.1326	100.0
325.13428	10.0
329.13211	10.0
334.15775	20.0
334.29233	10.0
335.26779	10.0
336.18024	10.0
338.14862	60.0
341.1553	20.0
345.11484	10.0
346.17459	10.0
350.1398	10.0
352.15707	50.0
362.27563	50.0
363.26764	20.0
369.45499	20.0
372.31277	10.0
373.11469	30.0
377.15543	50.0
378.14264	10.0
380.29373	300.0
381.31137	20.0
386.4577	10.0
392.16495	10.0
395.16867	670.0
396.17856	50.0
407.17099	30.0
412.19669	20.0
412.2334	10.0
421.18655	30.0
425.17426	40.0
426.18512	10.0
435.13608	20.0
437.31787	10.0
448.19812	10.0
477.31699	10.0
491.20374	30.0
492.19275	60.0
496.41162	10.0
501.17267	20.0
502.16684	20.0
503.21014	10.0
503.51151	10.0
503.64569	10.0
509.20944	220.0
510.20062	20.0
521.21265	10.0
523.08002	10.0
525.35406	10.0
536.38452	10.0
539.21442	20.0
540.21869	20.0
543.37305	60.0
544.40289	10.0
551.3963	50.0
558.17206	20.0
561.36774	10.0
575.26447	80.0
576.25635	10.0
605.26324	40.0
612.24255	30.0
639.38312	10.0
640.37109	20.0
654.2514	30.0
655.25958	10.0
656.26367	20.0
657.39661	130.0
658.41693	30.0
672.28204	120.0
673.27557	30.0
674.30719	10.0
679.45306	10.0
684.28516	20.0
702.28809	40.0
712.26874	10.0
719.31885	10.0
755.15387	10.0
758.45746	10.0
768.42035	20.0
769.43085	10.0
776.47662	160.0
777.46082	40.0
786.32867	30.0
828.49426	50.0
840.48419	30.0
841.495	20.0
842.48376	10.0
858.50031	10.0
882.47345	20.0
882.52795	30.0
883.50201	30.0
939.52368	50.0
956.55981	10.0
957.55927	20.0
969.56018	10.0
986.56635	20.0
1035.57056	30.0
1036.55786	50.0
1051.68054	10.0
1052.78149	20.0
1053.14575	20.0
1053.57031	890.0
1053.70886	10.0
1053.88586	10.0
1054.58679	280.0
1055.56287	20.0
1065.57971	180.0
1066.57483	80.0
1082.46375	10.0
1083.58105	1000.0
1084.49573	10.0
1084.58545	410.0
1084.69678	10.0
1084.8634	10.0
1085.59729	70.0
1085.66907	20.0
1092.55945	10.0
1437.14978	10.0

NAME:  NCGC00381139-01!6-benzyl-3-butan-2-yl-9-(7-hydroxy-6-oxooctyl)-1,4,7,10-tetrazabicyclo[10.4.0]hexadecane-2,5,8,11-tetrone
PRECURSORMZ:  615.33993776483
PRECURSORTYPE:  [M+FA-H]-
FORMULA:  C31H46N4O6
Ontology: ;;;
INCHIKEY:  RWTAMSAIOGWNBT-UHFFFAOYNA-N
SMILES:  CCC(C)C1N=C(O)C(CC2=CC=CC=C2)N=C(O)C(CCCCCC(=O)C(C)O)N=C(O)C2CCCCN2C1=O
RETENTIONTIME:  
CCS:  -1
IONMODE:  Negative
INSTRUMENTTYPE:  
INSTRUMENT:  Maxis II HD Q-TOF Bruker
COLLISIONENERGY:  
Comment:  DB#=CCMSLIB00000847378; origin=GNPS
Num Peaks:  17
118.06783	10.0
125.10515	10.0
127.08876	10.0
140.06969	20.0
223.1456	60.0
241.12088	60.0
242.11557	20.0
254.13272	10.0
270.7879	20.0
294.17688	10.0
308.19946	50.0
309.17239	10.0
317.19144	10.0
326.21078	80.0
345.18387	20.0
569.33466	1000.0
570.33771	30.0

NAME:  NCGC00385770-01!2-(3,4-dihydroxyphenyl)-5-hydroxy-7-[(2S,3R,4S,5S,6R)-3,4,5-trihydroxy-6-[(3,4,5-trihydroxyoxan-2-yl)oxymethyl]oxan-2-yl]oxychromen-4-one
PRECURSORMZ:  579.13554374983
PRECURSORTYPE:  [M-H]-
FORMULA:  C26H28O15
Ontology: ;;;
INCHIKEY:  QOYOSTICCWYNER-UHFFFAOYNA-N
SMILES:  OC1COC(OCC2OC(OC3=CC(O)=C4C(=O)C=C(OC4=C3)C3=CC(O)=C(O)C=C3)C(O)C(O)C2O)C(O)C1O
RETENTIONTIME:  
CCS:  244.3614624
IONMODE:  Negative
INSTRUMENTTYPE:  
INSTRUMENT:  Maxis II HD Q-TOF Bruker
COLLISIONENERGY:  
Comment:  DB#=CCMSLIB00000847380; origin=GNPS
Num Peaks:  13
175.03996	20.0
238.72684	30.0
271.18155	20.0
278.91797	20.0
279.10843	10.0
284.03253	90.0
284.80261	30.0
284.92859	20.0
285.04126	1000.0
286.04718	20.0
447.08694	20.0
489.9707	20.0
579.13391	910.0

NAME:  NCGC00385756-01!(2S)-2-[4-[(2S,3R,4S,5S,6R)-3-[(2S,3R,4R)-3,4-dihydroxy-4-(hydroxymethyl)oxolan-2-yl]oxy-4,5-dihydroxy-6-(hydroxymethyl)oxan-2-yl]oxyphenyl]-7-[(2S,3R,4S,5S,6R)-3,4,5-trihydroxy-6-(hydroxymethyl)oxan-2-yl]oxy-2,3-dihydrochromen-4-one
PRECURSORMZ:  711.21418799583
PRECURSORTYPE:  [M-H]-
FORMULA:  C32H40O18
Ontology: Kingdom: Organic compounds;Superclass: Phenylpropanoids and polyketides;Class: Flavonoids;Subclass: Flavonoid glycosides
INCHIKEY:  JUYBMOHJXUXKDN-UHFFFAOYNA-N
SMILES:  OCC1OC(OC2=CC3=C(C=C2)C(=O)CC(O3)C2=CC=C(OC3OC(CO)C(O)C(O)C3OC3OCC(O)(CO)C3O)C=C2)C(O)C(O)C1O
RETENTIONTIME:  
CCS:  286.3477156
IONMODE:  Negative
INSTRUMENTTYPE:  
INSTRUMENT:  Maxis II HD Q-TOF Bruker
COLLISIONENERGY:  
Comment:  DB#=CCMSLIB00000847381; origin=GNPS
Num Peaks:  18
82.83623	190.0
119.0547	70.0
127.83262	20.0
135.00862	230.0
143.86436	80.0
145.02538	70.0
153.0191	50.0
201.00677	30.0
254.07504	60.0
255.06784	640.0
255.15155	20.0
297.08334	30.0
357.09821	50.0
549.04608	30.0
549.16449	1000.0
549.30042	80.0
550.17499	50.0
711.24695	90.0

NAME:  NCGC00385756-01!(2S)-2-[4-[(2S,3R,4S,5S,6R)-3-[(2S,3R,4R)-3,4-dihydroxy-4-(hydroxymethyl)oxolan-2-yl]oxy-4,5-dihydroxy-6-(hydroxymethyl)oxan-2-yl]oxyphenyl]-7-[(2S,3R,4S,5S,6R)-3,4,5-trihydroxy-6-(hydroxymethyl)oxan-2-yl]oxy-2,3-dihydrochromen-4-one
PRECURSORMZ:  757.21966699583
PRECURSORTYPE:  [M+FA-H]-
FORMULA:  C32H40O18
Ontology: Kingdom: Organic compounds;Superclass: Phenylpropanoids and polyketides;Class: Flavonoids;Subclass: Flavonoid glycosides
INCHIKEY:  JUYBMOHJXUXKDN-UHFFFAOYNA-N
SMILES:  OCC1OC(OC2=CC3=C(C=C2)C(=O)CC(O3)C2=CC=C(OC3OC(CO)C(O)C(O)C3OC3OCC(O)(CO)C3O)C=C2)C(O)C(O)C1O
RETENTIONTIME:  
CCS:  -1
IONMODE:  Negative
INSTRUMENTTYPE:  
INSTRUMENT:  Maxis II HD Q-TOF Bruker
COLLISIONENERGY:  
Comment:  DB#=CCMSLIB00000847384; origin=GNPS
Num Peaks:  10
119.04959	30.0
135.00768	90.0
153.01796	90.0
253.04405	10.0
255.06714	460.0
297.07733	10.0
417.12131	30.0
549.16345	1000.0
550.16742	60.0
711.22516	10.0

NAME:  NCGC00180849-02!methyl 2-[[4-hydroxy-3-(3-methylbut-2-enyl)phenyl]methyl]-3-(4-hydroxyphenyl)-4-methoxy-5-oxofuran-2-carboxylate
PRECURSORMZ:  483.16605572483
PRECURSORTYPE:  [M+FA-H]-
FORMULA:  C25H26O7
Ontology: Kingdom: Organic compounds;Superclass: Lipids and lipid;Class: Fatty Acyls;Subclass: Fatty acid esters
INCHIKEY:  FCSKUNOKIVAIKK-UHFFFAOYNA-N
SMILES:  COC(=O)C1(CC2=CC(CC=C(C)C)=C(O)C=C2)OC(=O)C(OC)=C1C1=CC=C(O)C=C1
RETENTIONTIME:  
CCS:  -1
IONMODE:  Negative
INSTRUMENTTYPE:  
INSTRUMENT:  Maxis II HD Q-TOF Bruker
COLLISIONENERGY:  
Comment:  DB#=CCMSLIB00000847385; origin=GNPS
Num Peaks:  9
133.02864	40.0
160.52998	10.0
205.01302	570.0
247.97899	10.0
248.03313	580.0
263.05719	1000.0
263.12994	20.0
265.07315	10.0
437.16092	30.0

NAME:  NCGC00381093-01!(2S,3S)-2-[(2S,4R,5R,6R)-4-[(4R,5S,6R)-4-[(2S,4S,5R,6R)-4,5-dihydroxy-4,6-dimethyloxan-2-yl]oxy-5-hydroxy-6-methyloxan-2-yl]oxy-5-hydroxy-6-methyloxan-2-yl]oxy-3-[(1S,3S,4R)-3,4-dihydroxy-1-methoxy-2-oxopentyl]-6-[(2S,4R,5R,6R)-4-[(2S,4R,5S,6R)-4,5-dihydroxy-6-methyloxan-2-yl]oxy-5-methoxy-6-methyloxan-2-yl]oxy-8,9-dihydroxy-7-methyl-3,4-dihydro-2H-anthracen-1-one
PRECURSORMZ:  1097.48102693983
PRECURSORTYPE:  [M-H]-
FORMULA:  C53H78O24
Ontology: Kingdom: Organic compounds;Superclass: Organic oxygen compounds;Class: Organooxygen compounds;Subclass: Carbohydrates and carbohydrate conjugates
INCHIKEY:  GRZRQKSQIMICPO-UHFFFAOYNA-N
SMILES:  COC(C1CC2=CC3=CC(OC4CC(OC5CC(O)C(O)C(C)O5)C(OC)C(C)O4)=C(C)C(O)=C3C(O)=C2C(=O)C1OC1CC(OC2CC(OC3CC(C)(O)C(O)C(C)O3)C(O)C(C)O2)C(O)C(C)O1)C(=O)C(O)C(C)O
RETENTIONTIME:  
CCS:  -1
IONMODE:  Negative
INSTRUMENTTYPE:  
INSTRUMENT:  Maxis II HD Q-TOF Bruker
COLLISIONENERGY:  
Comment:  DB#=CCMSLIB00000847388; origin=GNPS
Num Peaks:  17
188.93321	10.0
259.79422	20.0
464.89166	20.0
675.27325	10.0
676.15466	10.0
949.40631	180.0
950.39771	20.0
954.08588	10.0
959.47662	30.0
1053.45764	20.0
1097.48315	1000.0
1097.58667	30.0
1098.47119	210.0
1099.50061	10.0
1099.64014	10.0
1323.0448	20.0
1586.3844	10.0

NAME:  NCGC00381097-01![(2R,3R,4S,6S)-6-[(2R,3S,4R)-6-[(2R,3R,4R,6S)-6-[[(2S,3S)-3-[(1S,3S,4R)-3,4-dihydroxy-1-methoxy-2-oxopentyl]-6-[(2S,4R,5R,6R)-4-[(2S,4R,5S,6R)-4,5-dihydroxy-6-methyloxan-2-yl]oxy-5-methoxy-6-methyloxan-2-yl]oxy-8,9-dihydroxy-7-methyl-1-oxo-3,4-dihydro-2H-anthracen-2-yl]oxy]-3-hydroxy-2-methyloxan-4-yl]oxy-3-hydroxy-2-methyloxan-4-yl]oxy-4-hydroxy-2,4-dimethyloxan-3-yl] acetate
PRECURSORMZ:  1139.49159162383
PRECURSORTYPE:  [M-H]-
FORMULA:  C55H80O25
Ontology: Kingdom: Organic compounds;Superclass: Organic oxygen compounds;Class: Organooxygen compounds;Subclass: Carbohydrates and carbohydrate conjugates
INCHIKEY:  DWKUSIQEYCEKNA-UHFFFAOYNA-N
SMILES:  COC(C1CC2=CC3=CC(OC4CC(OC5CC(O)C(O)C(C)O5)C(OC)C(C)O4)=C(C)C(O)=C3C(O)=C2C(=O)C1OC1CC(OC2CC(OC3CC(C)(O)C(OC(C)=O)C(C)O3)C(O)C(C)O2)C(O)C(C)O1)C(=O)C(O)C(C)O
RETENTIONTIME:  
CCS:  -1
IONMODE:  Negative
INSTRUMENTTYPE:  
INSTRUMENT:  Maxis II HD Q-TOF Bruker
COLLISIONENERGY:  
Comment:  DB#=CCMSLIB00000847390; origin=GNPS
Num Peaks:  48
180.06027	10.0
213.05679	10.0
215.0782	20.0
241.05099	20.0
253.0488	10.0
255.05978	30.0
267.06708	10.0
268.08997	20.0
269.04593	1000.0
270.05435	180.0
271.05933	110.0
274.03894	10.0
283.06415	20.0
285.09045	20.0
297.07608	20.0
324.06369	60.0
325.06729	20.0
341.06564	170.0
342.06091	20.0
369.09265	10.0
373.07608	20.0
429.10144	10.0
527.19232	20.0
536.97626	10.0
544.19305	160.0
545.20197	100.0
548.19977	20.0
558.21069	10.0
569.21301	20.0
599.21033	60.0
616.21014	20.0
692.27106	20.0
716.25421	10.0
717.2746	40.0
718.28198	10.0
789.31903	20.0
931.40491	20.0
991.4151	330.0
991.80939	10.0
992.42432	150.0
993.4176	20.0
1063.43152	10.0
1064.44055	20.0
1095.47534	20.0
1096.48682	10.0
1139.41809	20.0
1139.49072	170.0
1140.48901	80.0

NAME:  NCGC00381094-01![(2R,3R,4R,6S)-6-[[(6S,7S)-6-[(2S,4R,5R,6R)-4-[(4R,5S,6R)-4-[(2S,4S,5R,6R)-5-acetyloxy-4-hydroxy-4,6-dimethyloxan-2-yl]oxy-5-hydroxy-6-methyloxan-2-yl]oxy-5-hydroxy-6-methyloxan-2-yl]oxy-7-[(1S,3S,4R)-3,4-dihydroxy-1-methoxy-2-oxopentyl]-4,10-dihydroxy-3-methyl-5-oxo-7,8-dihydro-6H-anthracen-2-yl]oxy]-4-[(2S,4R,5S,6R)-4-hydroxy-5-methoxy-6-methyloxan-2-yl]oxy-2-methyloxan-3-yl] acetate
PRECURSORMZ:  1181.50215630783
PRECURSORTYPE:  [M-H]-
FORMULA:  C57H82O26
Ontology: Kingdom: Organic compounds;Superclass: Organic oxygen compounds;Class: Organooxygen compounds;Subclass: Carbohydrates and carbohydrate conjugates
INCHIKEY:  ZYVSOIYQKUDENJ-UHFFFAOYNA-N
SMILES:  COC(C1CC2=CC3=CC(OC4CC(OC5CC(O)C(OC)C(C)O5)C(OC(C)=O)C(C)O4)=C(C)C(O)=C3C(O)=C2C(=O)C1OC1CC(OC2CC(OC3CC(C)(O)C(OC(C)=O)C(C)O3)C(O)C(C)O2)C(O)C(C)O1)C(=O)C(O)C(C)O
RETENTIONTIME:  
CCS:  283.8464665
IONMODE:  Negative
INSTRUMENTTYPE:  
INSTRUMENT:  Maxis II HD Q-TOF Bruker
COLLISIONENERGY:  
Comment:  DB#=CCMSLIB00000847392; origin=GNPS
Num Peaks:  35
71.01866	10.0
214.06679	10.0
225.0584	10.0
241.0482	30.0
242.05731	50.0
253.05237	20.0
254.05838	20.0
255.06052	20.0
267.06705	10.0
268.07053	10.0
269.0459	1000.0
270.05087	140.0
271.06134	100.0
282.05142	10.0
283.05951	30.0
295.05869	20.0
299.05783	20.0
324.06445	50.0
325.07394	20.0
341.06372	110.0
342.06494	10.0
356.09735	20.0
373.09512	20.0
586.20593	180.0
587.21283	180.0
588.22333	10.0
641.21075	50.0
658.22406	30.0
717.26892	10.0
734.28931	10.0
1033.42896	330.0
1034.43066	100.0
1105.45093	10.0
1181.50037	140.0
1182.49829	60.0

NAME:  NCGC00381096-01![(2R,3R,4S,6S)-6-[(2R,3S,4R)-6-[(2R,3R,4R,6S)-6-[[(2S,3S)-6-[(2S,4R,5R,6R)-4-[(2S,4R,5S,6R)-5-acetyloxy-4-hydroxy-6-methyloxan-2-yl]oxy-5-methoxy-6-methyloxan-2-yl]oxy-3-[(1S,3S,4R)-3,4-dihydroxy-1-methoxy-2-oxopentyl]-8,9-dihydroxy-7-methyl-1-oxo-3,4-dihydro-2H-anthracen-2-yl]oxy]-3-hydroxy-2-methyloxan-4-yl]oxy-3-hydroxy-2-methyloxan-4-yl]oxy-4-hydroxy-2,4-dimethyloxan-3-yl] 2-methylpropanoate
PRECURSORMZ:  1209.53345643683
PRECURSORTYPE:  [M-H]-
FORMULA:  C59H86O26
Ontology: Kingdom: Organic compounds;Superclass: Organic oxygen compounds;Class: Organooxygen compounds;Subclass: Carbohydrates and carbohydrate conjugates
INCHIKEY:  ARRRKSYGKYIGBH-UHFFFAOYNA-N
SMILES:  COC(C1CC2=CC3=CC(OC4CC(OC5CC(O)C(OC(C)=O)C(C)O5)C(OC)C(C)O4)=C(C)C(O)=C3C(O)=C2C(=O)C1OC1CC(OC2CC(OC3CC(C)(O)C(OC(=O)C(C)C)C(C)O3)C(O)C(C)O2)C(O)C(C)O1)C(=O)C(O)C(C)O
RETENTIONTIME:  
CCS:  -1
IONMODE:  Negative
INSTRUMENTTYPE:  
INSTRUMENT:  Maxis II HD Q-TOF Bruker
COLLISIONENERGY:  
Comment:  DB#=CCMSLIB00000847394; origin=GNPS
Num Peaks:  33
241.05307	30.0
242.05754	20.0
253.04938	20.0
255.06677	20.0
267.06494	40.0
268.0372	10.0
269.04669	1000.0
270.05283	110.0
271.05981	90.0
283.05682	20.0
295.06033	10.0
301.06921	10.0
306.05286	10.0
324.06546	20.0
325.06961	30.0
341.06833	90.0
586.20422	160.0
587.21472	120.0
588.21899	10.0
641.1936	10.0
641.22528	10.0
658.24377	20.0
734.2713	20.0
745.33716	10.0
1061.36792	10.0
1061.46008	260.0
1062.45959	110.0
1063.45703	10.0
1165.51587	20.0
1166.50537	10.0
1209.53918	150.0
1210.5387	60.0
1211.53613	10.0

NAME:  NCGC00381446-01!6,7-dihydroxy-5-[3-hydroxy-2-(methoxymethyl)-5-methylphenoxy]-4-methyl-3H-2-benzofuran-1-one
PRECURSORMZ:  345.09797646783
PRECURSORTYPE:  [M-H]-
FORMULA:  C18H18O7
Ontology: Kingdom: Organic compounds;Superclass: Organic oxygen compounds;Class: Organooxygen compounds;Subclass: Ethers
INCHIKEY:  LQEYIIJYBJCNKH-UHFFFAOYSA-N
SMILES:  COCC1=C(O)C=C(C)C=C1OC1=C(O)C(O)=C2C(=O)OCC2=C1C
RETENTIONTIME:  
CCS:  -1
IONMODE:  Negative
INSTRUMENTTYPE:  
INSTRUMENT:  Maxis II HD Q-TOF Bruker
COLLISIONENERGY:  
Comment:  DB#=CCMSLIB00000847396; origin=GNPS
Num Peaks:  12
149.03578	150.0
175.04144	140.0
177.01653	130.0
179.02748	160.0
197.10616	150.0
199.07388	100.0
218.01476	130.0
225.09222	80.0
269.08466	290.0
285.07507	270.0
313.06961	1000.0
345.09479	60.0

NAME:  NCGC00384578-01!5-[5-(acetyloxymethyl)-1,2,4a-trimethyl-7-oxo-3,4,8,8a-tetrahydro-2H-naphthalen-1-yl]-3-methylpentanoic acid
PRECURSORMZ:  423.23882674283
PRECURSORTYPE:  [M+FA-H]-
FORMULA:  C22H34O5
Ontology: ;;;
INCHIKEY:  OLDFOHABNQZMKB-UHFFFAOYNA-N
SMILES:  CC(CCC1(C)C(C)CCC2(C)C1CC(=O)C=C2COC(C)=O)CC(O)=O
RETENTIONTIME:  
CCS:  -1
IONMODE:  Negative
INSTRUMENTTYPE:  
INSTRUMENT:  Maxis II HD Q-TOF Bruker
COLLISIONENERGY:  
Comment:  DB#=CCMSLIB00000847398; origin=GNPS
Num Peaks:  6
122.36074	60.0
317.21249	320.0
375.54825	50.0
377.23193	1000.0
377.34927	20.0
431.23306	100.0

NAME:  NCGC00385434-02!8-[4,5-dihydroxy-6-(hydroxymethyl)-3-[3,4,5-trihydroxy-6-(hydroxymethyl)oxan-2-yl]oxyoxan-2-yl]-5,7-dihydroxy-2-(4-hydroxyphenyl)chromen-4-one
PRECURSORMZ:  593.15119381383
PRECURSORTYPE:  [M-H]-
FORMULA:  C27H30O15
Ontology: Kingdom: Organic compounds;Superclass: Phenylpropanoids and polyketides;Class: Flavonoids;Subclass: Flavonoid glycosides
INCHIKEY:  FYTOTHFWELWOCG-UHFFFAOYNA-N
SMILES:  OCC1OC(OC2C(O)C(O)C(CO)OC2C2=C(O)C=C(O)C3=C2OC(=CC3=O)C2=CC=C(O)C=C2)C(O)C(O)C1O
RETENTIONTIME:  
CCS:  232.8819117
IONMODE:  Negative
INSTRUMENTTYPE:  
INSTRUMENT:  Maxis II HD Q-TOF Bruker
COLLISIONENERGY:  
Comment:  DB#=CCMSLIB00000847400; origin=GNPS
Num Peaks:  36
117.03412	20.0
119.03247	20.0
159.04912	30.0
161.02249	20.0
175.00198	10.0
175.02336	40.0
221.05594	40.0
269.04718	240.0
270.0513	80.0
280.89081	20.0
281.04071	30.0
283.05753	20.0
292.5813	10.0
292.79678	10.0
293.04599	1000.0
294.06805	40.0
295.05145	10.0
310.04779	20.0
310.87167	20.0
311.05334	140.0
312.05536	20.0
312.42514	20.0
314.04126	20.0
314.38593	10.0
321.08347	20.0
323.05542	20.0
325.06024	10.0
340.05692	20.0
353.06329	40.0
413.08676	600.0
414.08884	30.0
473.10956	170.0
585.5011	10.0
592.073	10.0
592.14722	50.0
593.15552	420.0

NAME:  NCGC00385434-02!8-[4,5-dihydroxy-6-(hydroxymethyl)-3-[3,4,5-trihydroxy-6-(hydroxymethyl)oxan-2-yl]oxyoxan-2-yl]-5,7-dihydroxy-2-(4-hydroxyphenyl)chromen-4-one
PRECURSORMZ:  639.15667281383
PRECURSORTYPE:  [M+FA-H]-
FORMULA:  C27H30O15
Ontology: Kingdom: Organic compounds;Superclass: Phenylpropanoids and polyketides;Class: Flavonoids;Subclass: Flavonoid glycosides
INCHIKEY:  FYTOTHFWELWOCG-UHFFFAOYNA-N
SMILES:  OCC1OC(OC2C(O)C(O)C(CO)OC2C2=C(O)C=C(O)C3=C2OC(=CC3=O)C2=CC=C(O)C=C2)C(O)C(O)C1O
RETENTIONTIME:  
CCS:  -1
IONMODE:  Negative
INSTRUMENTTYPE:  
INSTRUMENT:  Maxis II HD Q-TOF Bruker
COLLISIONENERGY:  
Comment:  DB#=CCMSLIB00000847402; origin=GNPS
Num Peaks:  9
293.04791	510.0
293.41562	90.0
311.05298	250.0
323.06342	60.0
412.61676	40.0
413.09238	910.0
593.14453	1000.0
593.21381	50.0
1682.69678	90.0

NAME:  NCGC00381070-01![(6R)-6-[(2S,3S,9R,13R,14S,16R)-2,16-dihydroxy-4,4,9,13,14-pentamethyl-11-oxo-3-[(2R,3R,4S,5S,6R)-3,4,5-trihydroxy-6-(hydroxymethyl)oxan-2-yl]oxy-1,2,3,7,8,10,12,15,16,17-decahydrocyclopenta[a]phenanthren-17-yl]-6-hydroxy-2-methyl-5-oxoheptan-2-yl] acetate
PRECURSORMZ:  769.40159453983
PRECURSORTYPE:  [M+FA-H]-
FORMULA:  C38H60O13
Ontology: Kingdom: Organic compounds;Superclass: Lipids and lipid;Class: Steroids and steroid derivatives;Subclass: Steroidal glycosides
INCHIKEY:  NRRXDXZXLJSBPH-UHFFFAOYNA-N
SMILES:  CC(=O)OC(C)(C)CCC(=O)C(C)(O)C1C(O)CC2(C)C3CC=C4C(CC(O)C(OC5OC(CO)C(O)C(O)C5O)C4(C)C)C3(C)C(=O)CC12C
RETENTIONTIME:  
CCS:  -1
IONMODE:  Negative
INSTRUMENTTYPE:  
INSTRUMENT:  Maxis II HD Q-TOF Bruker
COLLISIONENERGY:  
Comment:  DB#=CCMSLIB00000847408; origin=GNPS
Num Peaks:  83
85.02882	20.0
85.9996	20.0
89.02534	20.0
95.01054	20.0
99.04796	10.0
101.02518	50.0
113.02357	40.0
115.07719	20.0
119.04696	20.0
122.0351	10.0
131.07475	20.0
137.05891	10.0
148.05061	20.0
149.06061	20.0
153.09473	20.0
155.10597	50.0
159.0287	40.0
161.04636	170.0
236.66701	10.0
251.13448	10.0
255.57442	20.0
271.16516	20.0
309.1893	30.0
315.60379	20.0
317.79813	30.0
320.72873	20.0
327.19498	80.0
335.0654	40.0
335.21051	10.0
339.18622	10.0
345.20886	90.0
362.21518	20.0
371.22427	20.0
386.6821	20.0
465.20001	20.0
483.31015	60.0
489.27063	20.0
501.3107	10.0
501.34497	10.0
503.27011	20.0
505.29343	10.0
507.26547	90.0
521.26703	20.0
531.24622	20.0
533.26831	20.0
547.29205	20.0
565.30701	60.0
575.29279	20.0
576.27277	20.0
597.30518	20.0
601.33044	40.0
603.34564	10.0
608.28204	60.0
611.30457	440.0
611.94141	10.0
612.3288	30.0
612.3703	30.0
619.31848	10.0
622.60693	10.0
644.31085	20.0
645.36633	500.0
646.37207	60.0
647.34723	30.0
662.80133	10.0
663.17358	10.0
663.37396	1000.0
664.38208	130.0
681.36279	40.0
682.36615	10.0
705.38361	730.0
706.39111	100.0
707.37152	30.0
721.3844	10.0
723.39569	300.0
723.46594	20.0
723.89575	20.0
724.38092	10.0
755.60114	20.0
765.06873	10.0
769.40131	440.0
770.39966	70.0
774.12372	10.0
1421.83142	20.0

NAME:  NCGC00381288-01!2-[2-[19-acetamido-6-(3,4-dicarboxybutanoyloxy)-16,18-dihydroxy-5,9-dimethylicosan-7-yl]oxy-2-oxoethyl]butanedioic acid
PRECURSORMZ:  746.39684381583
PRECURSORTYPE:  [M-H]-
FORMULA:  C36H61NO15
Ontology: Kingdom: Organic compounds;Superclass: Organic acids and derivatives;Class: Carboxylic acids and derivatives;Subclass: Fumonisins
INCHIKEY:  GQCJWFPDXATUKS-UHFFFAOYNA-N
SMILES:  CCCCC(C)C(OC(=O)CC(CC(O)=O)C(O)=O)C(CC(C)CCCCCCC(O)CC(O)C(C)N=C(C)O)OC(=O)CC(CC(O)=O)C(O)=O
RETENTIONTIME:  
CCS:  296.1107024
IONMODE:  Negative
INSTRUMENTTYPE:  
INSTRUMENT:  Maxis II HD Q-TOF Bruker
COLLISIONENERGY:  
Comment:  DB#=CCMSLIB00000847410; origin=GNPS
Num Peaks:  9
113.02347	90.0
131.03331	20.0
157.01421	1000.0
175.0269	40.0
588.3772	240.0
589.37244	30.0
728.39465	20.0
746.39575	230.0
747.3996	20.0

NAME:  NCGC00179797-03!2-(3,4-dihydroxyphenyl)-5,7-dihydroxy-3-[(2S,3R,4S,5S,6R)-3,4,5-trihydroxy-6-(hydroxymethyl)oxan-2-yl]oxychromen-4-one
PRECURSORMZ:  463.08819963183
PRECURSORTYPE:  [M-H]-
FORMULA:  C21H20O12
Ontology: Kingdom: Organic compounds;Superclass: Phenylpropanoids and polyketides;Class: Flavonoids;Subclass: Flavonoid glycosides
INCHIKEY:  OVSQVDMCBVZWGM-UHFFFAOYNA-N
SMILES:  OCC1OC(OC2=C(OC3=CC(O)=CC(O)=C3C2=O)C2=CC(O)=C(O)C=C2)C(O)C(O)C1O
RETENTIONTIME:  
CCS:  201.8799825
IONMODE:  Negative
INSTRUMENTTYPE:  
INSTRUMENT:  Maxis II HD Q-TOF Bruker
COLLISIONENERGY:  
Comment:  DB#=CCMSLIB00000847412; origin=GNPS
Num Peaks:  12
100.60893	30.0
144.86284	50.0
151.00505	50.0
227.0323	40.0
255.02742	100.0
255.18898	90.0
271.02609	230.0
300.02582	1000.0
301.0351	870.0
463.0889	980.0
463.17297	50.0
1801.91772	40.0

NAME:  NCGC00381247-01!3-ethenyl-4-[2-(3,4,5-trihydroxybenzoyl)oxyethyl]-2-[3,4,5-trihydroxy-6-(hydroxymethyl)oxan-2-yl]oxy-3,4-dihydro-2H-pyran-5-carboxylic acid
PRECURSORMZ:  527.14062912983
PRECURSORTYPE:  [M-H]-
FORMULA:  C23H28O14
Ontology: Kingdom: Organic compounds;Superclass: Lipids and lipid;Class: Prenol lipids;Subclass: Terpene glycosides
INCHIKEY:  UGWAFWFSLCHCJD-UHFFFAOYNA-N
SMILES:  OCC1OC(OC2OC=C(C(CCOC(=O)C3=CC(O)=C(O)C(O)=C3)C2C=C)C(O)=O)C(O)C(O)C1O
RETENTIONTIME:  
CCS:  211.6924239
IONMODE:  Negative
INSTRUMENTTYPE:  
INSTRUMENT:  Maxis II HD Q-TOF Bruker
COLLISIONENERGY:  
Comment:  DB#=CCMSLIB00000847414; origin=GNPS
Num Peaks:  20
78.01157	30.0
91.66724	20.0
95.01079	20.0
113.02417	20.0
116.82721	10.0
125.02835	150.0
151.07318	50.0
169.0146	1000.0
169.0881	20.0
179.0571	20.0
179.08319	30.0
179.50604	30.0
195.06241	90.0
213.07709	20.0
251.05553	20.0
303.09122	20.0
321.10376	30.0
375.13397	170.0
526.48572	30.0
527.14258	440.0

NAME:  NCGC00385120-01!7-[(2S,3R,4S,5S,6R)-4,5-dihydroxy-6-(hydroxymethyl)-3-[(2S,3R,4R,5R,6S)-3,4,5-trihydroxy-6-methyloxan-2-yl]oxyoxan-2-yl]oxy-5-hydroxy-2-(4-hydroxy-3-methoxyphenyl)chromen-4-one
PRECURSORMZ:  607.16684387783
PRECURSORTYPE:  [M-H]-
FORMULA:  C28H32O15
Ontology: Kingdom: Organic compounds;Superclass: Phenylpropanoids and polyketides;Class: Flavonoids;Subclass: Flavonoid glycosides
INCHIKEY:  LGOQXEQWOCSLEC-UHFFFAOYNA-N
SMILES:  COC1=C(O)C=CC(=C1)C1=CC(=O)C2=C(O)C=C(OC3OC(CO)C(O)C(O)C3OC3OC(C)C(O)C(O)C3O)C=C2O1
RETENTIONTIME:  
CCS:  252.4631586
IONMODE:  Negative
INSTRUMENTTYPE:  
INSTRUMENT:  Maxis II HD Q-TOF Bruker
COLLISIONENERGY:  
Comment:  DB#=CCMSLIB00000847416; origin=GNPS
Num Peaks:  11
166.33655	30.0
229.99455	20.0
284.0368	260.0
284.88162	40.0
299.05713	1000.0
300.05716	20.0
317.26486	10.0
341.06198	20.0
443.09848	20.0
607.16223	190.0
608.17395	20.0

NAME:  NCGC00385120-01!7-[(2S,3R,4S,5S,6R)-4,5-dihydroxy-6-(hydroxymethyl)-3-[(2S,3R,4R,5R,6S)-3,4,5-trihydroxy-6-methyloxan-2-yl]oxyoxan-2-yl]oxy-5-hydroxy-2-(4-hydroxy-3-methoxyphenyl)chromen-4-one
PRECURSORMZ:  653.17232287783
PRECURSORTYPE:  [M+FA-H]-
FORMULA:  C28H32O15
Ontology: Kingdom: Organic compounds;Superclass: Phenylpropanoids and polyketides;Class: Flavonoids;Subclass: Flavonoid glycosides
INCHIKEY:  LGOQXEQWOCSLEC-UHFFFAOYNA-N
SMILES:  COC1=C(O)C=CC(=C1)C1=CC(=O)C2=C(O)C=C(OC3OC(CO)C(O)C(O)C3OC3OC(C)C(O)C(O)C3O)C=C2O1
RETENTIONTIME:  
CCS:  -1
IONMODE:  Negative
INSTRUMENTTYPE:  
INSTRUMENT:  Maxis II HD Q-TOF Bruker
COLLISIONENERGY:  
Comment:  DB#=CCMSLIB00000847418; origin=GNPS
Num Peaks:  20
144.71411	60.0
255.0313	90.0
283.02374	210.0
283.28592	40.0
283.82391	40.0
284.0304	50.0
285.04547	40.0
298.05594	100.0
298.14111	40.0
298.75043	20.0
298.92862	40.0
299.05661	880.0
300.04315	90.0
369.08469	40.0
447.09286	30.0
592.15063	50.0
607.16779	1000.0
609.15833	30.0
611.2937	20.0
834.64294	40.0

NAME:  NCGC00169960-03!(2E,4E)-12-[(10E,12E)-13-carboxy-3-hydroxy-2-(hydroxymethyl)-8,10,12-trimethyltrideca-10,12-dienoyl]oxy-13-(hydroxymethyl)-3,5,7-trimethyltetradeca-2,4-dienedioic acid
PRECURSORMZ:  665.39063623583
PRECURSORTYPE:  [M-H]-
FORMULA:  C36H58O11
Ontology: Kingdom: Organic compounds;Superclass: Lipids and lipid;Class: Fatty Acyls;Subclass: Fatty acid esters
INCHIKEY:  DQBXBQIOPVLJEV-UHFFFAOYNA-N
SMILES:  CC(CCCCC(O)C(CO)C(=O)OC(CCCCC(C)CC(C)=CC(C)=CC(O)=O)C(CO)C(O)=O)CC(C)=CC(C)=CC(O)=O
RETENTIONTIME:  
CCS:  -1
IONMODE:  Negative
INSTRUMENTTYPE:  
INSTRUMENT:  Maxis II HD Q-TOF Bruker
COLLISIONENERGY:  
Comment:  DB#=CCMSLIB00000847420; origin=GNPS
Num Peaks:  12
207.1752	40.0
249.18628	50.0
251.16447	100.0
267.17331	10.0
279.21274	30.0
297.20493	20.0
311.18649	10.0
323.18631	50.0
339.17413	10.0
341.19699	1000.0
342.19901	10.0
665.40479	20.0

NAME:  NCGC00380168-01!3-[2-(2-hydroxy-4-methoxy-6-methylphenoxy)-4-methoxy-6-methylphenoxy]-5-methylbenzene-1,2-diol
PRECURSORMZ:  411.14492666083
PRECURSORTYPE:  [M-H]-
FORMULA:  C23H24O7
Ontology: Kingdom: Organic compounds;Superclass: Benzenoids;Class: Benzene and substituted derivatives;Subclass: Diphenylethers
INCHIKEY:  CGEQZXRFQKBBQJ-UHFFFAOYSA-N
SMILES:  COC1=CC(O)=C(OC2=C(OC3=CC(C)=CC(O)=C3O)C(C)=CC(OC)=C2)C(C)=C1
RETENTIONTIME:  
CCS:  -1
IONMODE:  Negative
INSTRUMENTTYPE:  
INSTRUMENT:  Maxis II HD Q-TOF Bruker
COLLISIONENERGY:  
Comment:  DB#=CCMSLIB00000847421; origin=GNPS
Num Peaks:  15
122.04195	460.0
134.43135	210.0
137.02229	450.0
137.05901	190.0
138.03009	620.0
142.02765	130.0
152.04872	60.0
153.05507	1000.0
159.08199	150.0
244.07045	430.0
258.66559	210.0
259.06375	190.0
259.09344	560.0
274.08408	300.0
411.14111	400.0

NAME:  NCGC00347503-02!8-[2-(3,4-dihydroxy-2,5-dimethoxyoxolan-3-yl)ethyl]-4a,7,8-trimethylspiro[2,3,5,6,7,8a-hexahydro-1H-naphthalene-4,2'-oxirane]-2,3-diol
PRECURSORMZ:  475.25487073183
PRECURSORTYPE:  [M+FA-H]-
FORMULA:  C22H38O8
Ontology: Kingdom: Organic compounds;Superclass: Organic oxygen compounds;Class: Organooxygen compounds;Subclass: Carbohydrates and carbohydrate conjugates
INCHIKEY:  RLYPFWBODVDUHT-UHFFFAOYNA-N
SMILES:  COC1OC(OC)C(O)(CCC2(C)C(C)CCC3(C)C2CC(O)C(O)C32CO2)C1O
RETENTIONTIME:  
CCS:  -1
IONMODE:  Negative
INSTRUMENTTYPE:  
INSTRUMENT:  Maxis II HD Q-TOF Bruker
COLLISIONENERGY:  
Comment:  DB#=CCMSLIB00000847423; origin=GNPS
Num Peaks:  8
184.08562	60.0
186.62469	50.0
323.18472	70.0
327.21759	70.0
409.18362	60.0
411.24753	30.0
429.25143	1000.0
475.24991	100.0

NAME:  NCGC00380568-01!2-(hydroxymethyl)-6-[[3,4,5-trihydroxy-6-(4-prop-2-enylphenoxy)oxan-2-yl]methoxy]oxane-3,4,5-triol
PRECURSORMZ:  503.17701433383
PRECURSORTYPE:  [M+FA-H]-
FORMULA:  C21H30O11
Ontology: Kingdom: Organic compounds;Superclass: Organic oxygen compounds;Class: Organooxygen compounds;Subclass: Carbohydrates and carbohydrate conjugates
INCHIKEY:  OLRLUJCFUDJRGB-UHFFFAOYNA-N
SMILES:  OCC1OC(OCC2OC(OC3=CC=C(CC=C)C=C3)C(O)C(O)C2O)C(O)C(O)C1O
RETENTIONTIME:  
CCS:  -1
IONMODE:  Negative
INSTRUMENTTYPE:  
INSTRUMENT:  Maxis II HD Q-TOF Bruker
COLLISIONENERGY:  
Comment:  DB#=CCMSLIB00000847425; origin=GNPS
Num Peaks:  17
111.01173	60.0
113.02277	100.0
120.59058	20.0
125.02345	160.0
127.08598	20.0
131.03493	60.0
133.06473	320.0
137.61501	30.0
161.04861	70.0
179.05341	200.0
179.63937	40.0
219.35301	30.0
220.7245	50.0
221.06444	490.0
263.07297	80.0
323.0972	1000.0
457.18652	20.0

NAME:  NCGC00180665-02!tris[[4-[(2S,3R,4S,5S,6R)-3,4,5-trihydroxy-6-(hydroxymethyl)oxan-2-yl]oxyphenyl]methyl] 2-hydroxypropane-1,2,3-tricarboxylate
PRECURSORMZ:  995.30379085083
PRECURSORTYPE:  [M-H]-
FORMULA:  C45H56O25
Ontology: Kingdom: Organic compounds;Superclass: Organic oxygen compounds;Class: Organooxygen compounds;Subclass: Carbohydrates and carbohydrate conjugates
INCHIKEY:  WYKQPGOKTKQHQG-UHFFFAOYNA-N
SMILES:  OCC1OC(OC2=CC=C(COC(=O)CC(O)(CC(=O)OCC3=CC=C(OC4OC(CO)C(O)C(O)C4O)C=C3)C(=O)OCC3=CC=C(OC4OC(CO)C(O)C(O)C4O)C=C3)C=C2)C(O)C(O)C1O
RETENTIONTIME:  
CCS:  297.3365173
IONMODE:  Negative
INSTRUMENTTYPE:  
INSTRUMENT:  Maxis II HD Q-TOF Bruker
COLLISIONENERGY:  
Comment:  DB#=CCMSLIB00000847428; origin=GNPS
Num Peaks:  55
85.02832	60.0
101.02184	60.0
104.22484	10.0
109.9995	30.0
111.00761	380.0
112.98872	170.0
113.02366	20.0
114.39114	10.0
115.08183	10.0
129.01784	320.0
129.75121	70.0
147.07764	30.0
149.0578	50.0
154.99722	20.0
155.38315	20.0
155.43805	10.0
159.0307	20.0
161.04404	780.0
162.05154	40.0
173.00275	30.0
179.07697	30.0
217.0545	70.0
221.07129	20.0
249.06203	30.0
255.08965	30.0
258.59015	10.0
263.07394	40.0
278.73553	10.0
311.11285	40.0
345.16577	20.0
368.63327	10.0
369.12344	220.0
369.32428	20.0
370.68445	10.0
375.44534	30.0
379.1105	100.0
397.11603	400.0
398.11826	20.0
399.09076	100.0
400.67599	10.0
415.09027	30.0
423.09155	790.0
424.09225	120.0
437.11853	20.0
441.09424	180.0
459.11261	80.0
460.10379	40.0
492.29193	10.0
535.15308	30.0
727.20532	1000.0
728.20477	150.0
728.41272	20.0
729.20166	10.0
760.54443	10.0
833.23236	50.0

NAME:  NCGC00180665-02!tris[[4-[(2S,3R,4S,5S,6R)-3,4,5-trihydroxy-6-(hydroxymethyl)oxan-2-yl]oxyphenyl]methyl] 2-hydroxypropane-1,2,3-tricarboxylate
PRECURSORMZ:  1041.30926985083
PRECURSORTYPE:  [M+FA-H]-
FORMULA:  C45H56O25
Ontology: Kingdom: Organic compounds;Superclass: Organic oxygen compounds;Class: Organooxygen compounds;Subclass: Carbohydrates and carbohydrate conjugates
INCHIKEY:  WYKQPGOKTKQHQG-UHFFFAOYNA-N
SMILES:  OCC1OC(OC2=CC=C(COC(=O)CC(O)(CC(=O)OCC3=CC=C(OC4OC(CO)C(O)C(O)C4O)C=C3)C(=O)OCC3=CC=C(OC4OC(CO)C(O)C(O)C4O)C=C3)C=C2)C(O)C(O)C1O
RETENTIONTIME:  
CCS:  -1
IONMODE:  Negative
INSTRUMENTTYPE:  
INSTRUMENT:  Maxis II HD Q-TOF Bruker
COLLISIONENERGY:  
Comment:  DB#=CCMSLIB00000847430; origin=GNPS
Num Peaks:  37
85.02914	70.0
87.00794	30.0
99.0059	10.0
101.02381	40.0
110.00739	10.0
111.00788	240.0
112.98672	100.0
113.02618	30.0
123.04267	40.0
129.01836	180.0
136.9872	50.0
154.14775	10.0
154.99802	20.0
159.03162	20.0
161.04405	500.0
173.02025	10.0
173.058	10.0
217.05119	30.0
217.08324	10.0
221.06703	30.0
249.06291	40.0
263.07578	100.0
369.11914	120.0
370.12115	20.0
379.10147	10.0
397.11429	230.0
398.11755	20.0
399.0957	70.0
423.091	440.0
424.0961	30.0
441.10583	120.0
442.10001	20.0
459.11359	40.0
727.20752	1000.0
728.20984	230.0
729.2204	20.0
995.29779	20.0

NAME:  NCGC00169067-03!
PRECURSORMZ:  445.11402015183
PRECURSORTYPE:  [M+FA-H]-
FORMULA:  C21H20O8
Ontology: Kingdom: Organic compounds;Superclass: Organoheterocyclic compounds;Class: Benzopyrans;
INCHIKEY:  MTCOVRSZCNNQLP-UHFFFAOYNA-N
SMILES:  COC1=C(O)C=CC2=C1C(=O)C1=C(O)C3=C(OC4(C)CCCC3O4)C(OC)=C1O2
RETENTIONTIME:  
CCS:  -1
IONMODE:  Negative
INSTRUMENTTYPE:  
INSTRUMENT:  Maxis II HD Q-TOF Bruker
COLLISIONENERGY:  
Comment:  DB#=CCMSLIB00000847432; origin=GNPS
Num Peaks:  10
200.84949	50.0
239.03191	40.0
284.03317	70.0
297.09741	80.0
311.02643	40.0
314.05576	110.0
341.06537	100.0
369.06232	150.0
384.08597	480.0
399.10837	1000.0

NAME:  NCGC00380460-01!5-hydroxy-3-(5-hydroxy-2,4-dimethoxyphenyl)-6-methoxy-7-[3,4,5-trihydroxy-6-(hydroxymethyl)oxan-2-yl]oxychromen-4-one
PRECURSORMZ:  567.13554344483
PRECURSORTYPE:  [M+FA-H]-
FORMULA:  C24H26O13
Ontology: Kingdom: Organic compounds;Superclass: Phenylpropanoids and polyketides;Class: Isoflavonoids;Subclass: Isoflavonoid O
INCHIKEY:  CVEQISBYHSILGF-UHFFFAOYNA-N
SMILES:  COC1=CC(OC)=C(O)C=C1C1=COC2=CC(OC3OC(CO)C(O)C(O)C3O)=C(OC)C(O)=C2C1=O
RETENTIONTIME:  
CCS:  -1
IONMODE:  Negative
INSTRUMENTTYPE:  
INSTRUMENT:  Maxis II HD Q-TOF Bruker
COLLISIONENERGY:  
Comment:  DB#=CCMSLIB00000847434; origin=GNPS
Num Peaks:  15
228.03529	50.0
273.0387	50.0
285.02921	30.0
312.99826	20.0
328.02771	140.0
329.03253	140.0
343.04718	200.0
344.04715	80.0
345.05734	50.0
359.07672	1000.0
371.08041	50.0
506.08041	20.0
506.11871	30.0
521.13263	540.0
911.24524	70.0

NAME:  NCGC00380464-01!3-[(2S,3R,4S,5R,6S)-3,4-dihydroxy-6-methyl-5-[(2S,3R,4S,5S,6R)-3,4,5-trihydroxy-6-(hydroxymethyl)oxan-2-yl]oxyoxan-2-yl]oxy-2-(3,4-dihydroxyphenyl)-5-hydroxy-7-[3,4,5-trihydroxy-6-(hydroxymethyl)oxan-2-yl]oxychromen-4-one
PRECURSORMZ:  771.19893185583
PRECURSORTYPE:  [M-H]-
FORMULA:  C33H40O21
Ontology: Kingdom: Organic compounds;Superclass: Phenylpropanoids and polyketides;Class: Flavonoids;Subclass: Flavonoid glycosides
INCHIKEY:  KVODFZNXODDECO-UHFFFAOYNA-N
SMILES:  CC1OC(OC2=C(OC3=CC(OC4OC(CO)C(O)C(O)C4O)=CC(O)=C3C2=O)C2=CC(O)=C(O)C=C2)C(O)C(O)C1OC1OC(CO)C(O)C(O)C1O
RETENTIONTIME:  
CCS:  271.0792384
IONMODE:  Negative
INSTRUMENTTYPE:  
INSTRUMENT:  Maxis II HD Q-TOF Bruker
COLLISIONENERGY:  
Comment:  DB#=CCMSLIB00000847436; origin=GNPS
Num Peaks:  40
125.02142	20.0
143.04333	10.0
146.93626	10.0
151.0042	30.0
163.04222	10.0
175.00253	20.0
179.00134	30.0
189.01497	10.0
226.02945	10.0
228.03722	20.0
229.05531	10.0
242.0341	20.0
245.03799	10.0
251.29454	10.0
254.01375	10.0
255.03174	20.0
257.05209	30.0
271.02814	90.0
272.03372	10.0
273.04886	20.0
285.0394	20.0
299.02097	560.0
300.02722	160.0
301.03625	1000.0
312.0318	20.0
313.03476	20.0
343.02884	40.0
372.11179	20.0
391.11728	10.0
444.08612	10.0
462.08237	290.0
462.29514	10.0
463.01794	10.0
463.08899	380.0
464.09253	40.0
609.14673	160.0
770.42188	10.0
771.19745	1000.0
772.19971	130.0
772.27576	10.0

NAME:  NCGC00380654-01_C21H28O13_(2E)-3-[4-({2-O-[(2S,3R,4R)-3,4-Dihydroxy-4-(hydroxymethyl)tetrahydro-2-furanyl]-beta-D-glucopyranosyl}oxy)-3-methoxyphenyl]acrylic acid
PRECURSORMZ:  487.14571450983
PRECURSORTYPE:  [M-H]-
FORMULA:  C21H28O13
Ontology: Kingdom: Organic compounds;Superclass: Organic oxygen compounds;Class: Organooxygen compounds;Subclass: Carbohydrates and carbohydrate conjugates
INCHIKEY:  WJKBOZUMKGXZHT-UHFFFAOYNA-N
SMILES:  COC1=C(OC2OC(CO)C(O)C(O)C2OC2OCC(O)(CO)C2O)C=CC(C=CC(O)=O)=C1
RETENTIONTIME:  
CCS:  -1
IONMODE:  Negative
INSTRUMENTTYPE:  
INSTRUMENT:  Maxis II HD Q-TOF Bruker
COLLISIONENERGY:  
Comment:  DB#=CCMSLIB00000850260; origin=GNPS
Num Peaks:  15
134.0399	90.0
143.03496	10.0
149.05806	70.0
163.03677	10.0
178.02386	110.0
191.06552	10.0
193.05095	360.0
215.07903	20.0
251.86349	10.0
254.38351	10.0
337.10623	20.0
355.10153	10.0
443.15027	20.0
487.03482	20.0
487.14542	1000.0

NAME:  NCGC00380855-01_C42H66O19_7'-Hydroxy-8',12'-dimethyl-5-oxodihydrospiro[furan-3,5'-[6]oxapentacyclo[9.8.0.0~1,7~.0~4,8~.0~12,17~]nonadecan]-15'-yl hexopyranosyl-(1->4)hexopyranosyl-(1->4)-6-deoxy-3-O-methylhexopyranoside
PRECURSORMZ:  919.41803245283
PRECURSORTYPE:  [M+FA-H]-
FORMULA:  C42H66O19
Ontology: Kingdom: Organic compounds;Superclass: Organic oxygen compounds;Class: Organooxygen compounds;Subclass: Carbohydrates and carbohydrate conjugates
INCHIKEY:  NJYMCMBDFMRROK-UHFFFAOYNA-N
SMILES:  COC1C(O)C(OC2CCC3(C)C(CCC45CCC6C(C)(CCC34)C5(O)OC63COC(=O)C3)C2)OC(C)C1OC1OC(CO)C(OC2OC(CO)C(O)C(O)C2O)C(O)C1O
RETENTIONTIME:  
CCS:  -1
IONMODE:  Negative
INSTRUMENTTYPE:  
INSTRUMENT:  Maxis II HD Q-TOF Bruker
COLLISIONENERGY:  
Comment:  DB#=CCMSLIB00000850630; origin=GNPS
Num Peaks:  28
85.03078	20.0
89.02531	10.0
95.01434	20.0
101.02422	50.0
113.02406	110.0
119.03368	20.0
125.02377	30.0
127.039	10.0
143.03506	30.0
159.0305	10.0
161.04614	100.0
179.05708	70.0
221.06717	40.0
245.06415	10.0
263.07758	40.0
323.09814	50.0
505.27899	60.0
667.33313	120.0
668.34497	20.0
733.362	20.0
811.38055	100.0
812.38257	20.0
827.36774	20.0
828.37885	10.0
829.388	1000.0
830.39166	220.0
873.4129	40.0
874.42639	10.0

NAME:  Pesticide3_Forchlorfenuron_C12H10ClN3O_Urea, N-(2-chloro-4-pyridinyl)-N'-phenyl-
PRECURSORMZ:  292.04944224783
PRECURSORTYPE:  [M+FA-H]-
FORMULA:  C12H10ClN3O
Ontology: Kingdom: Organic compounds;Superclass: Organoheterocyclic compounds;Class: Pyridines and derivatives;Subclass: Halopyridines
INCHIKEY:  GPXLRLUVLMHHIK-UHFFFAOYSA-N
SMILES:  OC(NC1=CC(Cl)=NC=C1)=NC1=CC=CC=C1
RETENTIONTIME:  
CCS:  -1
IONMODE:  Negative
INSTRUMENTTYPE:  
INSTRUMENT:  Q-Exactive Plus Orbitrap Res 70k
COLLISIONENERGY:  
Comment:  DB#=CCMSLIB00001058251; origin=GNPS
Num Peaks:  3
91.03014	40.0
127.00693	1000.0
246.04382	40.0

NAME:  NCGC00385705-01_C43H68O14_(3beta,5xi,9xi,16beta,18xi,21beta,22alpha)-28-Acetoxy-16,22,23-trihydroxy-21-[(2-methylbutanoyl)oxy]olean-12-en-3-yl beta-D-glucopyranosiduronic acid
PRECURSORMZ:  807.45363041783
PRECURSORTYPE:  [M-H]-
FORMULA:  C43H68O14
Ontology: Kingdom: Organic compounds;Superclass: Lipids and lipid;Class: Prenol lipids;Subclass: Terpene glycosides
INCHIKEY:  IWLKKMZNFBKYCF-UHFFFAOYNA-N
SMILES:  CCC(C)C(=O)OC1C(O)C2(COC(C)=O)C(O)CC3(C)C(=CCC4C5(C)CCC(OC6OC(C(O)C(O)C6O)C(O)=O)C(C)(CO)C5CCC34C)C2CC1(C)C
RETENTIONTIME:  
CCS:  279.6222179
IONMODE:  Negative
INSTRUMENTTYPE:  
INSTRUMENT:  Maxis II HD Q-TOF Bruker
COLLISIONENERGY:  
Comment:  DB#=CCMSLIB00000850325; origin=GNPS
Num Peaks:  9
85.03056	20.0
101.06206	30.0
113.02444	60.0
281.93631	10.0
523.95453	20.0
543.96161	10.0
805.98889	50.0
807.45526	1000.0
808.4585	140.0

NAME:  NCGC00381000-01_C30H46O16_
PRECURSORMZ:  707.27678794883
PRECURSORTYPE:  [M+FA-H]-
FORMULA:  C30H46O16
Ontology: Kingdom: Organic compounds;Superclass: Lipids and lipid;Class: Saccharolipids;
INCHIKEY:  BZNOZGOVIXEHMX-UHFFFAOYNA-N
SMILES:  CC=C(C)C(=O)OC1C(OC2(COC(=O)CC(C)C)OC(COC(=O)C(C)C)C(OC(C)=O)C2O)OC(COC(C)=O)C(O)C1O
RETENTIONTIME:  
CCS:  -1
IONMODE:  Negative
INSTRUMENTTYPE:  
INSTRUMENT:  Maxis II HD Q-TOF Bruker
COLLISIONENERGY:  
Comment:  DB#=CCMSLIB00000850775; origin=GNPS
Num Peaks:  28
99.04491	750.0
138.05582	230.0
141.06276	270.0
143.02956	210.0
218.01138	330.0
222.99121	150.0
226.99438	190.0
253.05382	180.0
263.10742	190.0
303.11194	150.0
309.21637	370.0
329.00726	120.0
365.10434	1000.0
385.01456	510.0
395.98517	140.0
396.70514	200.0
396.92563	220.0
416.98648	160.0
425.12576	980.0
426.12198	170.0
465.17953	170.0
502.01068	180.0
507.17197	400.0
517.21033	260.0
535.23615	220.0
537.20966	160.0
706.03113	140.0
1270.0094	230.0

NAME:  NCGC00381101-01_C22H40O11_(3E)-7-Hydroxy-3,7-dimethyl-3-octen-1-yl 6-O-(6-deoxy-alpha-L-mannopyranosyl)-beta-D-glucopyranoside
PRECURSORMZ:  525.25526465583
PRECURSORTYPE:  [M+FA-H]-
FORMULA:  C22H40O11
Ontology: Kingdom: Organic compounds;Superclass: Lipids and lipid;Class: Fatty Acyls;Subclass: Fatty acyl glycosides
INCHIKEY:  VUGMGEQWBOCMAV-UHFFFAOYNA-N
SMILES:  CC1OC(OCC2OC(OCCC(C)=CCCC(C)(C)O)C(O)C(O)C2O)C(O)C(O)C1O
RETENTIONTIME:  
CCS:  -1
IONMODE:  Negative
INSTRUMENTTYPE:  
INSTRUMENT:  Maxis II HD Q-TOF Bruker
COLLISIONENERGY:  
Comment:  DB#=CCMSLIB00000849554; origin=GNPS
Num Peaks:  26
70.82275	20.0
89.01855	20.0
115.04597	50.0
119.03793	20.0
125.0181	10.0
131.03513	110.0
143.03712	160.0
145.05206	20.0
161.04909	20.0
161.40521	10.0
163.06149	1000.0
171.06664	20.0
179.05527	50.0
188.32802	10.0
205.07323	510.0
223.10623	30.0
235.08136	40.0
265.09525	330.0
295.09204	10.0
325.11108	40.0
333.19641	30.0
413.85626	30.0
435.25998	40.0
479.24762	770.0
525.26672	90.0
1520.75244	20.0

NAME:  NCGC00169096-02_C36H58O10_beta-D-Glucopyranose, 1-O-[(2alpha,3beta,5xi,9xi,18xi)-2,3,19-trihydroxy-28-oxours-12-en-28-yl]-
PRECURSORMZ:  695.40120061583
PRECURSORTYPE:  [M+FA-H]-
FORMULA:  C36H58O10
Ontology: Kingdom: Organic compounds;Superclass: Lipids and lipid;Class: Prenol lipids;Subclass: Terpene glycosides
INCHIKEY:  MLKQAGPAYHTNQQ-UHFFFAOYNA-N
SMILES:  CC1CCC2(CCC3(C)C(=CCC4C5(C)CC(O)C(O)C(C)(C)C5CCC34C)C2C1(C)O)C(=O)OC1OC(CO)C(O)C(O)C1O
RETENTIONTIME:  
CCS:  -1
IONMODE:  Negative
INSTRUMENTTYPE:  
INSTRUMENT:  Maxis II HD Q-TOF Bruker
COLLISIONENERGY:  
Comment:  DB#=CCMSLIB00000849368; origin=GNPS
Num Peaks:  6
207.05148	40.0
467.31781	10.0
469.33746	40.0
487.34219	1000.0
649.38593	20.0
695.4118	50.0

NAME:  NCGC00169179-04_C23H32O7_(5R,9aS,9bS)-9b-Hydroxy-6,6,9a-trimethyl-1-oxo-1,3,5,5a,6,7,8,9,9a,9b-decahydronaphtho[1,2-c]furan-5-yl (2E,4E)-6,7-dihydroxy-2,4-octadienoate
PRECURSORMZ:  465.21300591783
PRECURSORTYPE:  [M+FA-H]-
FORMULA:  C23H32O7
Ontology: Kingdom: Organic compounds;Superclass: Organoheterocyclic compounds;Class: Naphthofurans;
INCHIKEY:  AVBLSPPEZPLINV-UHFFFAOYNA-N
SMILES:  CC(O)C(O)C=CC=CC(=O)OC1C=C2COC(=O)C2(O)C2(C)CCCC(C)(C)C12
RETENTIONTIME:  
CCS:  -1
IONMODE:  Negative
INSTRUMENTTYPE:  
INSTRUMENT:  Maxis II HD Q-TOF Bruker
COLLISIONENERGY:  
Comment:  DB#=CCMSLIB00000849692; origin=GNPS
Num Peaks:  24
89.68044	30.0
90.95312	40.0
127.0787	40.0
130.9371	10.0
152.92725	10.0
153.05611	1000.0
169.05525	30.0
171.06683	800.0
204.11642	40.0
217.06564	20.0
219.14346	30.0
221.15511	20.0
231.13771	70.0
247.13261	130.0
255.00072	20.0
265.146	30.0
295.17273	30.0
331.20126	50.0
347.23331	30.0
366.98669	20.0
375.17825	160.0
380.98608	20.0
419.20761	190.0
464.2139	20.0

NAME:  NCGC00179940-02_C39H64O13_beta-D-Glucopyranoside, 3,23-dihydroxyspirostan-6-yl 6-deoxy-4-O-(6-deoxy-alpha-L-mannopyranosyl)-
PRECURSORMZ:  785.43289466883
PRECURSORTYPE:  [M+FA-H]-
FORMULA:  C39H64O13
Ontology: Kingdom: Organic compounds;Superclass: Lipids and lipid;Class: Steroids and steroid derivatives;Subclass: Steroidal glycosides
INCHIKEY:  FLSPBPZSXFDRFE-UHFFFAOYNA-N
SMILES:  CC1C2C(CC3C4CC(OC5OC(C)C(OC6OC(C)C(O)C(O)C6O)C(O)C5O)C5CC(O)CCC5(C)C4CCC23C)OC11OCC(C)CC1O
RETENTIONTIME:  
CCS:  -1
IONMODE:  Negative
INSTRUMENTTYPE:  
INSTRUMENT:  Maxis II HD Q-TOF Bruker
COLLISIONENERGY:  
Comment:  DB#=CCMSLIB00000851308; origin=GNPS
Num Peaks:  15
83.01182	10.0
85.02986	50.0
99.04462	20.0
101.02671	30.0
109.02905	10.0
127.03993	10.0
145.05054	80.0
163.06088	30.0
489.30524	10.0
593.36926	150.0
611.38452	50.0
637.35522	20.0
739.42859	1000.0
740.43408	80.0
785.4364	10.0

NAME:  NCGC00380384-01_C21H26O7_(2E,4E)-6-{[(5R,9aS,9bS)-9b-Hydroxy-6,6,9a-trimethyl-1-oxo-1,3,5,5a,6,7,8,9,9a,9b-decahydronaphtho[1,2-c]furan-5-yl]oxy}-6-oxo-2,4-hexadienoic acid
PRECURSORMZ:  435.16605572483
PRECURSORTYPE:  [M+FA-H]-
FORMULA:  C21H26O7
Ontology: Kingdom: Organic compounds;Superclass: Organoheterocyclic compounds;Class: Naphthofurans;
INCHIKEY:  WWELYLJKFRXUQW-UHFFFAOYNA-N
SMILES:  CC1(C)CCCC2(C)C1C(OC(=O)C=CC=CC(O)=O)C=C1COC(=O)C21O
RETENTIONTIME:  
CCS:  -1
IONMODE:  Negative
INSTRUMENTTYPE:  
INSTRUMENT:  Maxis II HD Q-TOF Bruker
COLLISIONENERGY:  
Comment:  DB#=CCMSLIB00000850667; origin=GNPS
Num Peaks:  16
97.02742	20.0
141.01938	640.0
143.53435	20.0
145.29214	10.0
190.03918	10.0
191.99617	10.0
196.21463	20.0
203.98175	10.0
215.08948	10.0
221.14864	10.0
222.17889	10.0
231.10315	20.0
247.13708	110.0
389.15875	1000.0
392.68704	10.0
392.79922	10.0

NAME:  NCGC00179938-02_C25H28O8_(1'S,2'R,3R,7'R,8'R,9'S,13'R)-8'-Hydroxy-2,2,2',9',13'-pentamethyl-6',16'-bis(methylene)-6H-spiro[pyran-3,5'-[10,14,17]trioxapentacyclo[7.6.1.1~7,12~.0~1,12~.0~2,7~]heptadecane]-6,11',15'-trione
PRECURSORMZ:  501.17662040983
PRECURSORTYPE:  [M+FA-H]-
FORMULA:  C25H28O8
Ontology: Kingdom: Organic compounds;Superclass: Organoheterocyclic compounds;Class: Furopyrans;
INCHIKEY:  IQBUQLYYAHHCGX-UHFFFAOYNA-N
SMILES:  CC1OC(=O)C23C(=C)C4(C)OC(=O)C12OC1(C4O)C(=C)C2(CCC31C)C=CC(=O)OC2(C)C
RETENTIONTIME:  
CCS:  -1
IONMODE:  Negative
INSTRUMENTTYPE:  
INSTRUMENT:  Maxis II HD Q-TOF Bruker
COLLISIONENERGY:  
Comment:  DB#=CCMSLIB00000849446; origin=GNPS
Num Peaks:  51
106.91956	20.0
133.10164	20.0
135.07912	20.0
147.11743	10.0
149.09142	10.0
151.07442	30.0
159.11601	20.0
161.09528	30.0
174.06744	20.0
175.07877	20.0
177.0602	10.0
178.05988	20.0
179.05165	20.0
180.34541	20.0
193.05217	20.0
197.0985	20.0
211.11253	10.0
215.11067	10.0
223.06714	60.0
226.10068	20.0
229.1147	20.0
233.11148	50.0
241.12604	20.0
249.11989	10.0
253.12282	10.0
265.16602	20.0
267.13358	30.0
267.17529	50.0
271.14844	30.0
275.15427	10.0
280.18579	20.0
284.13602	20.0
294.1297	30.0
305.18628	20.0
306.81729	20.0
309.13788	30.0
311.16107	180.0
311.20712	10.0
319.17926	10.0
321.18539	20.0
323.20267	70.0
329.13101	20.0
349.17963	20.0
355.15182	130.0
367.19189	530.0
383.18634	20.0
411.18106	370.0
454.83279	10.0
455.17172	1000.0
501.17282	70.0
505.13959	20.0

NAME:  NCGC00380395-01_C29H42N4O6_5-Carbamimidamido-2-(4,6'-dihydroxy-2',5',5',8a'-tetramethyl-6-oxo-3',4',4a',5',6,6',7',8,8',8a'-decahydro-2'H-spiro[furo[2,3-e]isoindole-2,1'-naphthalen]-7(3H)-yl)pentanoic acid
PRECURSORMZ:  541.30315863583
PRECURSORTYPE:  [M-H]-
FORMULA:  C29H42N4O6
Ontology: Kingdom: Organic compounds;Superclass: Organic acids and derivatives;Class: Carboxylic acids and derivatives;Subclass: Amino acids
INCHIKEY:  FVWRHZWMISXFKU-UHFFFAOYNA-N
SMILES:  CC1CCC2C(C)(C)C(O)CCC2(C)C11CC2=C(O)C=C3C(=O)N(CC3=C2O1)C(CCCNC(N)=N)C(O)=O
RETENTIONTIME:  
CCS:  -1
IONMODE:  Negative
INSTRUMENTTYPE:  
INSTRUMENT:  Maxis II HD Q-TOF Bruker
COLLISIONENERGY:  
Comment:  DB#=CCMSLIB00000850688; origin=GNPS
Num Peaks:  15
175.05211	10.0
176.03677	30.0
190.05324	20.0
191.11723	10.0
272.10794	20.0
455.27606	20.0
455.31253	20.0
479.63907	10.0
480.2887	130.0
481.26624	10.0
497.31308	580.0
497.44913	20.0
499.27991	20.0
541.302	1000.0
565.39453	10.0

NAME:  NCGC00385695-01_C21H28O13_alpha-D-Glucopyranoside, beta-L-fructofuranosyl 6-O-[(2E)-3-(4-hydroxyphenyl)-1-oxo-2-propen-1-yl]-
PRECURSORMZ:  533.15119350983
PRECURSORTYPE:  [M+FA-H]-
FORMULA:  C21H28O13
Ontology: Kingdom: Organic compounds;Superclass: Phenylpropanoids and polyketides;Class: Cinnamic acids and derivatives;Subclass: Hydroxycinnamic acids and derivatives
INCHIKEY:  PQYVXRPPFDHTSV-UHFFFAOYNA-N
SMILES:  OCC1OC(CO)(OC2OC(COC(=O)C=CC3=CC=C(O)C=C3)C(O)C(O)C2O)C(O)C1O
RETENTIONTIME:  
CCS:  -1
IONMODE:  Negative
INSTRUMENTTYPE:  
INSTRUMENT:  Maxis II HD Q-TOF Bruker
COLLISIONENERGY:  
Comment:  DB#=CCMSLIB00000851133; origin=GNPS
Num Peaks:  16
117.03754	10.0
119.04973	30.0
145.0296	430.0
161.05711	20.0
163.03963	280.0
177.0601	20.0
179.05066	10.0
187.05476	10.0
205.05104	50.0
235.06116	40.0
265.07352	80.0
307.08423	100.0
325.09323	30.0
341.11203	20.0
487.08978	10.0
487.14886	1000.0

NAME:  NCGC00380902-01_C66H108O32_
PRECURSORMZ:  1457.68057386583
PRECURSORTYPE:  [M+FA-H]-
FORMULA:  C66H108O32
Ontology: Kingdom: Organic compounds;Superclass: Lipids and lipid;Class: Prenol lipids;Subclass: Terpene glycosides
INCHIKEY:  FYJIAYYWHNHDEL-UHFFFAOYNA-N
SMILES:  CC1OC(OC2C(O)C(O)C(OCC3OC(OC(=O)C45CCC(C)(C)CC4C4=CCC6C7(C)CCC(OC8OC(CO)C(O)C(OC9OC(CO)C(O)C(O)C9O)C8O)C(C)(C)C7CCC6(C)C4(C)CC5)C(O)C(O)C3O)OC2CO)C(O)C(O)C1OC1OC(CO)C(O)C(O)C1O
RETENTIONTIME:  
CCS:  -1
IONMODE:  Negative
INSTRUMENTTYPE:  
INSTRUMENT:  Maxis II HD Q-TOF Bruker
COLLISIONENERGY:  
Comment:  DB#=CCMSLIB00000851099; origin=GNPS
Num Peaks:  48
89.02453	10.0
101.02428	130.0
113.02383	60.0
115.04046	20.0
119.03502	50.0
125.02337	90.0
127.03849	10.0
131.03545	30.0
143.03403	60.0
145.05	70.0
161.0451	180.0
179.05487	90.0
205.07225	30.0
221.06723	110.0
245.06677	10.0
247.08327	60.0
263.07724	90.0
265.09384	10.0
307.10394	250.0
308.10916	10.0
323.09833	10.0
325.11319	20.0
367.12479	520.0
368.12848	50.0
409.13586	240.0
410.13873	30.0
427.14441	100.0
428.1503	20.0
455.35165	40.0
456.35587	10.0
469.1575	30.0
529.17749	140.0
530.17902	30.0
553.18073	20.0
571.1889	80.0
572.1925	10.0
599.4007	40.0
613.20227	20.0
617.40619	100.0
618.40839	20.0
631.21021	1000.0
632.21411	200.0
633.21741	20.0
779.45801	100.0
780.46265	30.0
1411.67932	250.0
1412.68225	160.0
1413.68115	40.0

NAME:  NCGC00380930-01_C15H26O4_1H-Indene-4-carboxylic acid, octahydro-3a-hydroxy-3-(hydroxymethyl)-1,1,3,5-tetramethyl-
PRECURSORMZ:  269.17583286483
PRECURSORTYPE:  [M-H]-
FORMULA:  C15H26O4
Ontology: Kingdom: Organic compounds;Superclass: Lipids and lipid;Class: Prenol lipids;Subclass: Monoterpenoids
INCHIKEY:  CAKZQSFFOAEEET-UHFFFAOYNA-N
SMILES:  CC1CCC2C(C)(C)CC(C)(CO)C2(O)C1C(O)=O
RETENTIONTIME:  
CCS:  -1
IONMODE:  Negative
INSTRUMENTTYPE:  
INSTRUMENT:  Maxis II HD Q-TOF Bruker
COLLISIONENERGY:  
Comment:  DB#=CCMSLIB00000851430; origin=GNPS
Num Peaks:  11
142.07396	20.0
179.14304	150.0
195.15765	50.0
195.17578	60.0
207.17554	30.0
237.83569	20.0
239.16599	840.0
241.92839	20.0
268.51428	30.0
269.17581	1000.0
298.49796	30.0

NAME:  NCGC00380353-01_C15H18O6_Pentaleno[1,6a-c]pyran-9-carboxylic acid, 1,3,4,7,7a,9a-hexahydro-4-hydroxy-4-(hydroxymethyl)-6,7-dimethyl-3-oxo-, (4R,7S,7aR,9aR)-
PRECURSORMZ:  293.10306184783
PRECURSORTYPE:  [M-H]-
FORMULA:  C15H18O6
Ontology: Kingdom: Organic compounds;Superclass: Lipids and lipid;Class: Prenol lipids;Subclass: Terpene lactones
INCHIKEY:  FWDDYLWFBHUEKH-UHFFFAOYNA-N
SMILES:  CC1C2C=C(C3COC(=O)C(O)(CO)C23C=C1C)C(O)=O
RETENTIONTIME:  
CCS:  170.5764871
IONMODE:  Negative
INSTRUMENTTYPE:  
INSTRUMENT:  Maxis II HD Q-TOF Bruker
COLLISIONENERGY:  
Comment:  DB#=CCMSLIB00000850364; origin=GNPS
Num Peaks:  10
135.07814	160.0
147.1167	150.0
163.11386	130.0
175.10829	70.0
177.08458	50.0
185.09348	80.0
191.10776	70.0
231.10207	90.0
249.11641	290.0
293.1012	1000.0

NAME:  NCGC00169148-03_C22H26O12_Benzoic acid, 4-hydroxy-, 1-(hexopyranosyloxy)-1,4a,5,7a-tetrahydro-4a-hydroxy-7-(hydroxymethyl)cyclopenta[c]pyran-5-yl ester
PRECURSORMZ:  527.14062882483
PRECURSORTYPE:  [M+FA-H]-
FORMULA:  C22H26O12
Ontology: Kingdom: Organic compounds;Superclass: Lipids and lipid;Class: Prenol lipids;Subclass: Terpene glycosides
INCHIKEY:  RUMMZUFGTMKLMC-UHFFFAOYNA-N
SMILES:  OCC1OC(OC2OC=CC3(O)C(OC(=O)C4=CC=C(O)C=C4)C=C(CO)C23)C(O)C(O)C1O
RETENTIONTIME:  
CCS:  -1
IONMODE:  Negative
INSTRUMENTTYPE:  
INSTRUMENT:  Maxis II HD Q-TOF Bruker
COLLISIONENERGY:  
Comment:  DB#=CCMSLIB00000849515; origin=GNPS
Num Peaks:  15
93.03213	20.0
101.02222	10.0
111.04192	30.0
113.02503	20.0
136.01514	60.0
137.02324	1000.0
151.0396	20.0
161.04099	10.0
179.05568	30.0
181.04927	90.0
301.0712	660.0
319.08063	10.0
343.104	10.0
481.13516	750.0
743.12	20.0

NAME:  NCGC00381337-01_C64H104O30_Pentopyranosyl-(1->4)pentopyranosyl-(1->4)-1-O-[(3beta,5xi,9xi,18xi)-3-{[hexopyranosyl-(1->3)hexopyranosyl-(1->4)-6-deoxyhexopyranosyl]oxy}-28-oxoolean-12-en-28-yl]hexopyranose
PRECURSORMZ:  1397.65944449683
PRECURSORTYPE:  [M+FA-H]-
FORMULA:  C64H104O30
Ontology: Kingdom: Organic compounds;Superclass: Lipids and lipid;Class: Prenol lipids;Subclass: Terpene glycosides
INCHIKEY:  WBVHESCDDDNHNK-UHFFFAOYNA-N
SMILES:  CC1OC(OC2CCC3(C)C(CCC4(C)C3CC=C3C5CC(C)(C)CCC5(CCC43C)C(=O)OC3OC(CO)C(OC4OCC(OC5OCC(O)C(O)C5O)C(O)C4O)C(O)C3O)C2(C)C)C(O)C(O)C1OC1OC(CO)C(O)C(OC2OC(CO)C(O)C(O)C2O)C1O
RETENTIONTIME:  
CCS:  -1
IONMODE:  Negative
INSTRUMENTTYPE:  
INSTRUMENT:  Maxis II HD Q-TOF Bruker
COLLISIONENERGY:  
Comment:  DB#=CCMSLIB00000849779; origin=GNPS
Num Peaks:  61
85.03315	10.0
87.00919	10.0
89.02502	50.0
95.01193	20.0
97.03078	30.0
101.02443	40.0
113.02428	130.0
119.03391	40.0
125.02374	70.0
131.03474	50.0
132.22289	10.0
139.03902	20.0
143.03554	130.0
145.04677	10.0
149.04324	30.0
155.03203	30.0
159.0284	30.0
161.045	160.0
162.04985	20.0
173.04004	20.0
179.05373	90.0
185.04643	30.0
197.04594	10.0
205.03563	10.0
221.06589	170.0
245.06902	20.0
257.06723	30.0
263.0741	40.0
275.07639	30.0
293.08618	20.0
305.08432	30.0
323.1001	100.0
347.10342	10.0
353.11346	80.0
365.10934	20.0
383.12106	250.0
384.11661	30.0
455.14362	100.0
456.13531	20.0
485.14838	50.0
497.15378	90.0
515.16229	230.0
516.16705	30.0
599.1875	10.0
601.41589	30.0
617.19482	100.0
618.19116	20.0
733.45465	1000.0
734.45844	220.0
735.47076	20.0
775.46613	20.0
895.508	20.0
991.53375	10.0
1189.59961	30.0
1190.58618	20.0
1219.61768	40.0
1220.61084	20.0
1231.60229	20.0
1351.65332	540.0
1352.65796	240.0
1353.65771	70.0

NAME:  NCGC00385509-01_C29H38O12_Methyl 2-(hexopyranosyloxy)-4-({6-[2-(4-hydroxyphenyl)ethyl]-4-oxotetrahydro-2H-pyran-2-yl}methyl)-3-vinyl-3,4-dihydro-2H-pyran-5-carboxylate
PRECURSORMZ:  577.22905021183
PRECURSORTYPE:  [M-H]-
FORMULA:  C29H38O12
Ontology: Kingdom: Organic compounds;Superclass: Lipids and lipid;Class: Prenol lipids;Subclass: Terpene glycosides
INCHIKEY:  GGNFGJZLCXTJLH-UHFFFAOYNA-N
SMILES:  COC(=O)C1=COC(OC2OC(CO)C(O)C(O)C2O)C(C=C)C1CC1CC(=O)CC(CCC2=CC=C(O)C=C2)O1
RETENTIONTIME:  
CCS:  245.7201337
IONMODE:  Negative
INSTRUMENTTYPE:  
INSTRUMENT:  Maxis II HD Q-TOF Bruker
COLLISIONENERGY:  
Comment:  DB#=CCMSLIB00000850558; origin=GNPS
Num Peaks:  27
101.02504	220.0
111.0454	20.0
113.01826	10.0
119.03615	160.0
123.04304	60.0
127.0449	20.0
137.06151	60.0
149.06262	130.0
153.05148	100.0
155.03166	130.0
163.0715	180.0
167.06805	30.0
187.06885	50.0
189.09267	50.0
194.1012	30.0
195.065	630.0
195.24268	30.0
295.09113	30.0
301.14011	50.0
313.11481	280.0
327.12863	80.0
345.13495	1000.0
383.15164	20.0
415.17841	180.0
544.21173	20.0
545.19849	30.0
577.21808	230.0

NAME:  NCGC00384692-01_C32H42O17_beta-D-Glucopyranoside, 6-[[6-deoxy-3-O-[(2E)-3-(3,4-dimethoxyphenyl)-1-oxo-2-propen-1-yl]-alpha-L-mannopyranosyl]oxy]-1a,1b,2,5a,6,6a-hexahydro-1a-(hydroxymethyl)oxireno[4,5]cyclopenta[1,2-c]pyran-2-yl
PRECURSORMZ:  743.24040243983
PRECURSORTYPE:  [M+FA-H]-
FORMULA:  C32H42O17
Ontology: Kingdom: Organic compounds;Superclass: Phenylpropanoids and polyketides;Class: Cinnamic acids and derivatives;Subclass: Hydroxycinnamic acids and derivatives
INCHIKEY:  ATVXWIBQUWJBAT-UHFFFAOYNA-N
SMILES:  COC1=C(OC)C=C(C=CC(=O)OC2C(O)C(C)OC(OC3C4OC4(CO)C4C3C=COC4OC3OC(CO)C(O)C(O)C3O)C2O)C=C1
RETENTIONTIME:  
CCS:  -1
IONMODE:  Negative
INSTRUMENTTYPE:  
INSTRUMENT:  Maxis II HD Q-TOF Bruker
COLLISIONENERGY:  
Comment:  DB#=CCMSLIB00000849329; origin=GNPS
Num Peaks:  31
113.0242	30.0
123.04585	10.0
125.02108	30.0
133.02768	10.0
135.04477	30.0
137.02238	30.0
145.02664	20.0
149.02255	10.0
149.06078	20.0
151.04095	80.0
161.0448	20.0
163.03842	130.0
176.0488	10.0
177.0563	20.0
179.04121	10.0
180.04295	20.0
181.05109	70.0
205.08525	10.0
206.05737	30.0
207.06641	1000.0
208.07437	20.0
221.0844	60.0
247.10083	10.0
249.08046	10.0
259.07425	10.0
275.09067	70.0
371.11655	30.0
421.15286	150.0
461.14868	10.0
505.16904	20.0
517.17267	10.0

NAME:  NCGC00381123-01_C25H35NO5_Spiro[2H-furo[2,3-e]isoindole-2,1'(2'H)-naphthalen]-6(3H)-one, 3',4',4'a,5',6',7,7',8,8',8'a-decahydro-4,6'-dihydroxy-7-(2-hydroxyethyl)-2',5',5',8'a-tetramethyl-, (2R,2'R,6'R,8a'S)-
PRECURSORMZ:  428.24424677883
PRECURSORTYPE:  [M-H]-
FORMULA:  C25H35NO5
Ontology: Kingdom: Organic compounds;Superclass: Organoheterocyclic compounds;Class: Isoindoles and derivatives;Subclass: Isoindolines
INCHIKEY:  ZHECNBLIOXZXBL-UHFFFAOYNA-N
SMILES:  CC1CCC2C(C)(C)C(O)CCC2(C)C11CC2=C(O)C=C3C(=O)N(CCO)CC3=C2O1
RETENTIONTIME:  
CCS:  205.3894324
IONMODE:  Negative
INSTRUMENTTYPE:  
INSTRUMENT:  Maxis II HD Q-TOF Bruker
COLLISIONENERGY:  
Comment:  DB#=CCMSLIB00000851037; origin=GNPS
Num Peaks:  11
159.79599	40.0
180.0414	20.0
190.05244	50.0
203.99312	20.0
220.05859	10.0
221.06532	130.0
234.01151	30.0
237.62004	20.0
253.07002	30.0
301.66266	40.0
428.24335	1000.0

NAME:  NCGC00380676-01_C24H30O12_(1S,4aS,5R,7S)-1-(beta-D-Glucopyranosyloxy)-4a,5-dihydroxy-7-methyl-1,4a,5,6,7,7a-hexahydrocyclopenta[c]pyran-7-yl (2Z)-3-(4-hydroxyphenyl)acrylate
PRECURSORMZ:  555.17192895383
PRECURSORTYPE:  [M+FA-H]-
FORMULA:  C24H30O12
Ontology: Kingdom: Organic compounds;Superclass: Lipids and lipid;Class: Prenol lipids;Subclass: Terpene glycosides
INCHIKEY:  AZKQDXZMKREFDY-UHFFFAOYNA-N
SMILES:  CC1(CC(O)C2(O)C=COC(OC3OC(CO)C(O)C(O)C3O)C12)OC(=O)C=CC1=CC=C(O)C=C1
RETENTIONTIME:  
CCS:  -1
IONMODE:  Negative
INSTRUMENTTYPE:  
INSTRUMENT:  Maxis II HD Q-TOF Bruker
COLLISIONENERGY:  
Comment:  DB#=CCMSLIB00000851467; origin=GNPS
Num Peaks:  11
99.00797	10.0
117.03587	20.0
119.04932	40.0
139.04134	20.0
145.02901	350.0
161.04872	10.0
163.03983	1000.0
165.05385	60.0
183.06746	100.0
329.10214	20.0
509.16852	1000.0

NAME:  NCGC00179869-02_C20H30O6_2(5H)-Furanone, 5-hydroxy-3-[2-(octahydro-2,3-dihydroxy-5,6,8a-trimethylspiro[naphthalene-1(2H),2'-oxiran]-5-yl)ethyl]-
PRECURSORMZ:  365.19696223383
PRECURSORTYPE:  [M-H]-
FORMULA:  C20H30O6
Ontology: Kingdom: Organic compounds;Superclass: Organoheterocyclic compounds;Class: Dihydrofurans;Subclass: Furanones
INCHIKEY:  IJOCZMKYIFYFQK-UHFFFAOYNA-N
SMILES:  CC1CCC2(C)C(CC(O)C(O)C22CO2)C1(C)CCC1=CC(O)OC1=O
RETENTIONTIME:  
CCS:  -1
IONMODE:  Negative
INSTRUMENTTYPE:  
INSTRUMENT:  Maxis II HD Q-TOF Bruker
COLLISIONENERGY:  
Comment:  DB#=CCMSLIB00000849407; origin=GNPS
Num Peaks:  28
133.06873	20.0
135.04378	20.0
193.16319	10.0
195.1256	30.0
201.09206	20.0
203.12697	20.0
229.16054	20.0
233.16048	20.0
233.19139	20.0
238.18747	20.0
243.17363	40.0
245.19414	80.0
247.2005	30.0
257.15051	10.0
259.16132	10.0
261.19305	40.0
263.20007	20.0
265.2207	30.0
273.18954	60.0
285.18747	30.0
288.17313	40.0
289.17236	10.0
291.19604	50.0
293.21057	20.0
303.19925	40.0
321.20804	240.0
327.00327	20.0
365.19708	1000.0

NAME:  NCGC00380993-01_C23H28O12_Cyclopenta[c]pyran-4-carboxylic acid, 6-(benzoyloxy)-1-(hexopyranosyloxy)-1,4a,5,6,7,7a-hexahydro-5-hydroxy-7-methyl-
PRECURSORMZ:  541.15627888983
PRECURSORTYPE:  [M+FA-H]-
FORMULA:  C23H28O12
Ontology: Kingdom: Organic compounds;Superclass: Lipids and lipid;Class: Prenol lipids;Subclass: Terpene glycosides
INCHIKEY:  VHNBSWKVDGABEV-UHFFFAOYNA-N
SMILES:  CC1C(OC(=O)C2=CC=CC=C2)C(O)C2C1C(OC1OC(CO)C(O)C(O)C1O)OC=C2C(O)=O
RETENTIONTIME:  
CCS:  -1
IONMODE:  Negative
INSTRUMENTTYPE:  
INSTRUMENT:  Maxis II HD Q-TOF Bruker
COLLISIONENERGY:  
Comment:  DB#=CCMSLIB00000850763; origin=GNPS
Num Peaks:  8
121.0288	1000.0
167.07558	30.0
183.05901	30.0
193.05374	40.0
211.05994	230.0
373.11182	40.0
495.15387	130.0
810.09271	10.0

NAME:  NCGC00381023-01_C48H74O22_(2E)-6-({4-O-[(2E)-6-({6-O-[(2E)-6-(beta-D-Glucopyranosyloxy)-2,6-dimethyl-2,7-octadienoyl]-beta-D-glucopyranosyl}oxy)-2,6-dimethyl-2,7-octadienoyl]-beta-D-glucopyranosyl}oxy)-2,6-dimethyl-2,7-octadienoic acid
PRECURSORMZ:  1001.45989757083
PRECURSORTYPE:  [M-H]-
FORMULA:  C48H74O22
Ontology: Kingdom: Organic compounds;Superclass: Lipids and lipid;Class: Saccharolipids;
INCHIKEY:  HVNMJMDAMCBOTE-UHFFFAOYNA-N
SMILES:  CC(=CCCC(C)(OC1OC(CO)C(OC(=O)C(C)=CCCC(C)(OC2OC(COC(=O)C(C)=CCCC(C)(OC3OC(CO)C(O)C(O)C3O)C=C)C(O)C(O)C2O)C=C)C(O)C1O)C=C)C(O)=O
RETENTIONTIME:  
CCS:  -1
IONMODE:  Negative
INSTRUMENTTYPE:  
INSTRUMENT:  Maxis II HD Q-TOF Bruker
COLLISIONENERGY:  
Comment:  DB#=CCMSLIB00000851172; origin=GNPS
Num Peaks:  52
75.00852	10.0
85.02961	30.0
86.03561	20.0
95.01655	20.0
99.00779	40.0
101.02527	50.0
111.08392	20.0
113.02499	160.0
113.0571	10.0
119.03665	40.0
121.10395	70.0
124.01875	10.0
127.07383	50.0
139.11176	140.0
151.10875	10.0
155.00179	10.0
161.04436	50.0
165.09222	100.0
167.10837	50.0
173.65549	10.0
179.05266	30.0
183.10254	330.0
198.12134	10.0
207.108	10.0
225.11281	70.0
237.11041	10.0
252.05984	10.0
255.12589	10.0
301.1658	30.0
327.1456	170.0
345.15707	480.0
346.15552	30.0
387.16422	30.0
471.02478	20.0
493.24365	40.0
494.24625	10.0
495.24893	10.0
511.17038	10.0
511.25504	190.0
512.26294	30.0
553.27319	20.0
637.28424	10.0
655.30383	180.0
656.30719	50.0
657.32269	20.0
673.31317	80.0
821.39624	60.0
839.40991	1000.0
840.41095	270.0
841.41949	10.0
881.42773	10.0
1001.45581	40.0

NAME:  NCGC00380726-01_C25H33NO6_(2'R,6'S,8a'S)-4,7'-Dihydroxy-2',5',5',8a'-tetramethyl-6-oxo-3,3',4',4a',5',6,6',7,7',8,8',8a'-dodecahydro-2'H-spiro[furo[2,3-e]isoindole-2,1'-naphthalen]-6'-yl acetate
PRECURSORMZ:  488.22899033483
PRECURSORTYPE:  [M+FA-H]-
FORMULA:  C25H33NO6
Ontology: Kingdom: Organic compounds;Superclass: Organoheterocyclic compounds;Class: Isoindoles and derivatives;Subclass: Isoindoles
INCHIKEY:  JOLITHWHEFIGDT-UHFFFAOYNA-N
SMILES:  CC1CCC2C(C)(C)C(OC(C)=O)C(O)CC2(C)C11CC2=C(O)C=C3C(O)=NCC3=C2O1
RETENTIONTIME:  
CCS:  -1
IONMODE:  Negative
INSTRUMENTTYPE:  
INSTRUMENT:  Maxis II HD Q-TOF Bruker
COLLISIONENERGY:  
Comment:  DB#=CCMSLIB00000850919; origin=GNPS
Num Peaks:  3
177.04352	20.0
382.20383	90.0
442.22424	1000.0

NAME:  NCGC00380574-01_C39H44O18_beta-D-Glucopyranoside, (1aS,1bS,2S,5aR,6S,6aS)-6-[[6-deoxy-3,4-bis-O-[(2E)-3-(4-hydroxyphenyl)-1-oxo-2-propen-1-yl]-alpha-L-mannopyranosyl]oxy]-1a,1b,2,5a,6,6a-hexahydro-1a-(hydroxymethyl)oxireno[4,5]cyclopenta[1,2-c]pyran-2-yl
PRECURSORMZ:  799.24548812483
PRECURSORTYPE:  [M-H]-
FORMULA:  C39H44O18
Ontology: Kingdom: Organic compounds;Superclass: Phenylpropanoids and polyketides;Class: Cinnamic acids and derivatives;Subclass: Hydroxycinnamic acids and derivatives
INCHIKEY:  BRXNFHGWRDJMSF-UHFFFAOYNA-N
SMILES:  CC1OC(OC2C3OC3(CO)C3C2C=COC3OC2OC(CO)C(O)C(O)C2O)C(O)C(OC(=O)C=CC2=CC=C(O)C=C2)C1OC(=O)C=CC1=CC=C(O)C=C1
RETENTIONTIME:  
CCS:  -1
IONMODE:  Negative
INSTRUMENTTYPE:  
INSTRUMENT:  Maxis II HD Q-TOF Bruker
COLLISIONENERGY:  
Comment:  DB#=CCMSLIB00000849539; origin=GNPS
Num Peaks:  19
117.03472	100.0
119.05084	330.0
135.04594	10.0
145.02902	840.0
163.03983	1000.0
164.04359	10.0
181.05328	10.0
187.04077	20.0
291.08582	40.0
359.11356	50.0
377.12555	20.0
455.13947	20.0
523.16229	50.0
635.19977	60.0
636.20294	10.0
637.19385	20.0
653.21918	30.0
799.24548	260.0
800.24677	60.0

NAME:  NCGC00380131-01_C22H26O7_7-Hydroxy-7-methyl-8-oxo-3-propyl-5,6,7,8-tetrahydro-1H-isochromen-6-yl 2-hydroxy-4-methoxy-6-methylbenzoate
PRECURSORMZ:  401.16057672483
PRECURSORTYPE:  [M-H]-
FORMULA:  C22H26O7
Ontology: Kingdom: Organic compounds;Superclass: Organoheterocyclic compounds;Class: Azaphilones;
INCHIKEY:  PHCSXGHZIAKXHR-UHFFFAOYNA-N
SMILES:  CCCC1=CC2=C(CO1)C(=O)C(C)(O)C(C2)OC(=O)C1=C(O)C=C(OC)C=C1C
RETENTIONTIME:  
CCS:  -1
IONMODE:  Negative
INSTRUMENTTYPE:  
INSTRUMENT:  Maxis II HD Q-TOF Bruker
COLLISIONENERGY:  
Comment:  DB#=CCMSLIB00000850718; origin=GNPS
Num Peaks:  17
107.04898	220.0
114.00111	60.0
122.03102	70.0
135.04353	650.0
137.06001	420.0
149.05853	90.0
149.09842	90.0
176.07887	110.0
179.07132	50.0
180.0452	740.0
181.05038	1000.0
191.06918	90.0
219.10333	380.0
224.0668	80.0
237.1136	50.0
357.18179	70.0
401.17493	60.0

NAME:  NCGC00380909-01_C34H54O8_(1alpha,3alpha,7alpha,9xi,13alpha,17xi,20xi)-3,21,23-Trihydroxy-4,4,8-trimethyl-24,25-epoxycholest-14-ene-1,7-diyl diacetate
PRECURSORMZ:  635.38007124683
PRECURSORTYPE:  [M+FA-H]-
FORMULA:  C34H54O8
Ontology: ;;;
INCHIKEY:  HWMGIUOYPRKTIB-UHFFFAOYNA-N
SMILES:  CC(=O)OC1CC(O)C(C)(C)C2CC(OC(C)=O)C3(C)C(CCC4(C)C(CC=C34)C(CO)CC(O)C3OC3(C)C)C12C
RETENTIONTIME:  
CCS:  -1
IONMODE:  Negative
INSTRUMENTTYPE:  
INSTRUMENT:  Maxis II HD Q-TOF Bruker
COLLISIONENERGY:  
Comment:  DB#=CCMSLIB00000851109; origin=GNPS
Num Peaks:  25
78.61891	30.0
121.02889	1000.0
122.1465	10.0
142.92307	80.0
165.09985	40.0
229.09076	30.0
258.0795	30.0
263.47592	40.0
273.01791	50.0
290.00702	20.0
295.02383	30.0
302.83282	20.0
385.00391	70.0
407.18024	30.0
411.02606	30.0
451.05392	40.0
453.1908	120.0
461.02585	40.0
467.20068	20.0
469.9913	40.0
491.03928	20.0
501.22168	20.0
535.01117	30.0
575.2262	320.0
634.3233	50.0

NAME:  NCGC00380492-01_C19H26O11_Ethanone, 1-[4-[(6-O-beta-D-xylopyranosyl-beta-D-glucopyranosyl)oxy]phenyl]-
PRECURSORMZ:  475.14571420483
PRECURSORTYPE:  [M+FA-H]-
FORMULA:  C19H26O11
Ontology: Kingdom: Organic compounds;Superclass: Organic oxygen compounds;Class: Organooxygen compounds;Subclass: Carbohydrates and carbohydrate conjugates
INCHIKEY:  YQOKGDRMWQLQNR-UHFFFAOYNA-N
SMILES:  CC(=O)C1=CC=C(OC2OC(COC3OCC(O)C(O)C3O)C(O)C(O)C2O)C=C1
RETENTIONTIME:  
CCS:  -1
IONMODE:  Negative
INSTRUMENTTYPE:  
INSTRUMENT:  Maxis II HD Q-TOF Bruker
COLLISIONENERGY:  
Comment:  DB#=CCMSLIB00000849305; origin=GNPS
Num Peaks:  2
135.04494	1000.0
293.08881	20.0

NAME:  NCGC00380665-01_C16H18O5_(8E)-11,13-Dihydroxy-4-methyl-4,5,6,7-tetrahydro-2H-3-benzoxacyclododecine-2,10(1H)-dione
PRECURSORMZ:  289.10814722783
PRECURSORTYPE:  [M-H]-
FORMULA:  C16H18O5
Ontology: Kingdom: Organic compounds;Superclass: Phenylpropanoids and polyketides;Class: Macrolides and analogues;
INCHIKEY:  AVIRMQMUBGNCKS-UHFFFAOYNA-N
SMILES:  CC1CCCC=CC(=O)C2=C(O)C=C(O)C=C2CC(=O)O1
RETENTIONTIME:  
CCS:  174.9612179
IONMODE:  Negative
INSTRUMENTTYPE:  
INSTRUMENT:  Maxis II HD Q-TOF Bruker
COLLISIONENERGY:  
Comment:  DB#=CCMSLIB00000849755; origin=GNPS
Num Peaks:  16
122.03718	60.0
142.07742	30.0
149.01855	80.0
161.02246	110.0
175.03499	90.0
177.12552	50.0
189.04837	70.0
190.06158	20.0
203.10197	80.0
219.01686	20.0
245.1181	30.0
247.10432	40.0
289.10919	1000.0
289.16644	50.0
290.12222	70.0
393.76694	20.0

NAME:  NCGC00380890-01_C26H34O9_12H-3,5a-Epoxy-5H-furo[3,4-i]oxepino[4,3-a]xanthen-12-one, 1,2,3,6,7,7a,10,14,14a,14b-decahydro-6-hydroxy-5-(hydroxymethyl)-3,13-dimethoxy-5,7a,9,14b-tetramethyl-
PRECURSORMZ:  535.21848522283
PRECURSORTYPE:  [M+FA-H]-
FORMULA:  C26H34O9
Ontology: Kingdom: Organic compounds;Superclass: Organoheterocyclic compounds;Class: Benzopyrans;
INCHIKEY:  LCDHGZGHZZLGHK-UHFFFAOYNA-N
SMILES:  COC1=C2C(=O)OCC2=C(C)C2=C1CC1C(C)(CC(O)C34OC(CCC13C)(OC)OC4(C)CO)O2
RETENTIONTIME:  
CCS:  -1
IONMODE:  Negative
INSTRUMENTTYPE:  
INSTRUMENT:  Maxis II HD Q-TOF Bruker
COLLISIONENERGY:  
Comment:  DB#=CCMSLIB00000850061; origin=GNPS
Num Peaks:  13
177.09322	60.0
191.04051	170.0
192.04112	40.0
205.05731	50.0
206.05057	40.0
269.11691	20.0
311.12888	30.0
409.16904	50.0
447.0018	40.0
457.18433	30.0
488.49698	30.0
489.21426	1000.0
536.23114	40.0

NAME:  NCGC00347379-02_C46H74O16_Olean-12-en-28-oic acid, 23-hydroxy-3-[[O-beta-D-xylopyranosyl-(1->3)-O-6-deoxy-alpha-L-mannopyranosyl-(1->2)-alpha-L-arabinopyranosyl]oxy]-, (3beta,5xi,9xi)-
PRECURSORMZ:  927.49588885083
PRECURSORTYPE:  [M+FA-H]-
FORMULA:  C46H74O16
Ontology: Kingdom: Organic compounds;Superclass: Lipids and lipid;Class: Prenol lipids;Subclass: Triterpenoids
INCHIKEY:  IAGSHEHQJJTLLR-UHFFFAOYNA-N
SMILES:  CC1OC(OC2C(O)C(O)COC2OC2CCC3(C)C(CCC4(C)C3CC=C3C5CC(C)(C)CCC5(CCC43C)C(O)=O)C2(C)CO)C(O)C(OC2OCC(O)C(O)C2O)C1O
RETENTIONTIME:  
CCS:  -1
IONMODE:  Negative
INSTRUMENTTYPE:  
INSTRUMENT:  Maxis II HD Q-TOF Bruker
COLLISIONENERGY:  
Comment:  DB#=CCMSLIB00000851220; origin=GNPS
Num Peaks:  17
89.02334	20.0
127.03836	30.0
131.03548	10.0
145.04875	10.0
149.04506	20.0
423.32733	50.0
439.32123	10.0
471.34756	240.0
472.3544	10.0
585.37939	100.0
603.39075	200.0
604.39075	20.0
731.44153	10.0
749.44916	160.0
750.45117	20.0
881.49084	1000.0
882.4953	220.0

NAME:  NCGC00385248-01_C59H96O27_
PRECURSORMZ:  1281.61210037883
PRECURSORTYPE:  [M+FA-H]-
FORMULA:  C59H96O27
Ontology: Kingdom: Organic compounds;Superclass: Lipids and lipid;Class: Prenol lipids;Subclass: Terpene glycosides
INCHIKEY:  HZSHUPNBPRNZDF-UHFFFAOYNA-N
SMILES:  CC1OC(OC2C(O)C(O)C(OCC3OC(OC(=O)C45CCC(C)(C)CC4C4=CCC6C7(C)CCC(OC8OCC(O)C(OC9OC(CO)C(O)C(O)C9O)C8O)C(C)(CO)C7CCC6(C)C4(C)CC5)C(O)C(O)C3O)OC2CO)C(O)C(O)C1O
RETENTIONTIME:  
CCS:  -1
IONMODE:  Negative
INSTRUMENTTYPE:  
INSTRUMENT:  Maxis II HD Q-TOF Bruker
COLLISIONENERGY:  
Comment:  DB#=CCMSLIB00000849581; origin=GNPS
Num Peaks:  48
85.02908	30.0
89.02374	20.0
97.03072	10.0
101.02305	200.0
113.02344	100.0
115.03899	30.0
119.032	20.0
125.02435	50.0
131.03394	70.0
143.03322	120.0
149.04462	20.0
161.04433	270.0
162.04715	20.0
163.05959	90.0
205.07043	140.0
221.06543	70.0
247.08102	220.0
248.08559	30.0
263.07965	20.0
265.08926	40.0
323.09793	70.0
324.10562	10.0
325.11594	20.0
349.11304	30.0
367.12399	150.0
409.13641	80.0
410.13831	10.0
423.32553	50.0
469.15555	930.0
470.16006	130.0
471.16275	10.0
471.34567	320.0
472.36176	30.0
483.16696	20.0
585.38367	30.0
603.38995	660.0
604.39423	100.0
650.59204	10.0
681.38898	20.0
765.44336	1000.0
766.44788	190.0
767.45526	30.0
807.45398	10.0
1223.57983	30.0
1224.59534	10.0
1235.61218	600.0
1236.61133	240.0
1237.61304	60.0

NAME:  NCGC00180624-03_C25H30O13_2-Propenoic acid, 3-(3-hydroxy-4-methoxyphenyl)-, (1aS,1bS,2S,5aR,6S,6aS)-2-(beta-D-glucopyranosyloxy)-1a,1b,2,5a,6,6a-hexahydro-1a-(hydroxymethyl)oxireno[4,5]cyclopenta[1,2-c]pyran-6-yl ester, (2E)-
PRECURSORMZ:  537.16136457383
PRECURSORTYPE:  [M-H]-
FORMULA:  C25H30O13
Ontology: Kingdom: Organic compounds;Superclass: Phenylpropanoids and polyketides;Class: Cinnamic acids and derivatives;Subclass: Hydroxycinnamic acids and derivatives
INCHIKEY:  LRHHPZILMPIMIY-UHFFFAOYNA-N
SMILES:  COC1=C(O)C=C(C=CC(=O)OC2C3OC3(CO)C3C2C=COC3OC2OC(CO)C(O)C(O)C2O)C=C1
RETENTIONTIME:  
CCS:  251.7062497
IONMODE:  Negative
INSTRUMENTTYPE:  
INSTRUMENT:  Maxis II HD Q-TOF Bruker
COLLISIONENERGY:  
Comment:  DB#=CCMSLIB00000850523; origin=GNPS
Num Peaks:  38
83.49992	10.0
97.03142	10.0
97.41584	10.0
111.00725	10.0
133.02641	20.0
134.03819	80.0
135.04321	30.0
137.02365	40.0
145.02965	10.0
148.05711	10.0
149.05894	30.0
160.01648	20.0
161.02405	20.0
162.03076	20.0
163.04068	30.0
173.061	20.0
175.04068	30.0
176.05011	20.0
178.02876	10.0
181.05336	30.0
192.66156	10.0
193.05185	330.0
215.07582	10.0
218.0598	70.0
233.07942	10.0
246.0547	70.0
261.0766	1000.0
273.07742	30.0
289.08252	10.0
291.08292	10.0
309.08621	20.0
327.09735	10.0
339.09	20.0
345.11511	10.0
357.11237	10.0
375.10825	140.0
492.65283	10.0
537.17035	40.0

NAME:  NCGC00380935-01_C23H23N5O4_(3Z)-6-Hydroxy-3-(1H-imidazol-5-ylmethylene)-12-methoxy-7a-(2-methyl-3-buten-2-yl)-7a,12-dihydro-1H,5H-imidazo[1',2':1,2]pyrido[2,3-b]indole-2,5(3H)-dione
PRECURSORMZ:  432.16772778883
PRECURSORTYPE:  [M-H]-
FORMULA:  C23H23N5O4
Ontology: Kingdom: Organic compounds;Superclass: Organoheterocyclic compounds;Class: Indoles and derivatives;Subclass: Pyridoindoles
INCHIKEY:  JTJJJLSLKZFEPJ-UHFFFAOYNA-N
SMILES:  CON1C2=CC=CC=C2C2(C=C(O)C(=O)N3C(=CC4=CN=CN4)C(O)=NC123)C(C)(C)C=C
RETENTIONTIME:  
CCS:  209.9905266
IONMODE:  Negative
INSTRUMENTTYPE:  
INSTRUMENT:  Maxis II HD Q-TOF Bruker
COLLISIONENERGY:  
Comment:  DB#=CCMSLIB00000850173; origin=GNPS
Num Peaks:  32
133.05093	10.0
134.03738	80.0
176.06204	20.0
176.77693	10.0
177.04213	1000.0
194.03452	20.0
197.03632	10.0
198.04665	10.0
204.06384	20.0
230.03926	20.0
233.08688	20.0
254.06596	10.0
275.07846	30.0
275.10818	30.0
276.08749	110.0
302.07715	10.0
302.85229	10.0
304.08505	130.0
330.14578	40.0
332.07837	370.0
332.78867	10.0
333.08691	30.0
334.23651	10.0
342.13455	50.0
348.0686	40.0
358.13055	20.0
363.09662	160.0
373.16287	60.0
384.14447	90.0
399.40497	10.0
401.15939	20.0
432.16693	70.0

NAME:  NCGC00385651-01_C23H32O7_
PRECURSORMZ:  419.20752691783
PRECURSORTYPE:  [M-H]-
FORMULA:  C23H32O7
Ontology: ;;;
INCHIKEY:  ZFHBPZHOLGMDMW-UHFFFAOYNA-N
SMILES:  COC(=O)C1(C)CCC(O)C2(C)C1C(OC(C)=O)C(O)C1=CC(C(C)C)=C(O)C=C21
RETENTIONTIME:  
CCS:  -1
IONMODE:  Negative
INSTRUMENTTYPE:  
INSTRUMENT:  Maxis II HD Q-TOF Bruker
COLLISIONENERGY:  
Comment:  DB#=CCMSLIB00000851298; origin=GNPS
Num Peaks:  15
180.26376	20.0
186.99931	40.0
213.13667	70.0
215.10725	140.0
225.1225	60.0
226.13744	70.0
284.15533	40.0
341.17416	90.0
358.18024	190.0
359.18887	1000.0
359.41638	40.0
362.0986	20.0
401.21021	50.0
419.20959	130.0
1866.88928	30.0

NAME:  NCGC00380938-01_C21H34O11_6-O-Pentopyranosyl-1-O-[(2,6,6-trimethyl-1-cyclohexen-1-yl)carbonyl]-beta-D-glucopyranose
PRECURSORMZ:  499.15871711076
PRECURSORTYPE:  [M+K-2H]-
FORMULA:  C21H34O11
Ontology: ;;;
INCHIKEY:  JGMROMZJBQKIDK-UHFFFAOYNA-N
SMILES:  CC1=C(C(=O)OC2OC(COC3OCC(O)C(O)C3O)C(O)C(O)C2O)C(C)(C)CCC1
RETENTIONTIME:  
CCS:  -1
IONMODE:  Negative
INSTRUMENTTYPE:  
INSTRUMENT:  Maxis II HD Q-TOF Bruker
COLLISIONENERGY:  
Comment:  DB#=CCMSLIB00000850466; origin=GNPS
Num Peaks:  14
103.81235	20.0
133.10495	30.0
144.01244	20.0
219.00708	20.0
224.99672	20.0
229.2903	30.0
247.06427	30.0
249.07678	1000.0
274.88971	20.0
350.98148	30.0
353.00134	20.0
418.99438	10.0
430.98682	20.0
499.19739	20.0

NAME:  NCGC00385248-01_C59H96O27_
PRECURSORMZ:  1235.60662137883
PRECURSORTYPE:  [M-H]-
FORMULA:  C59H96O27
Ontology: ;;;
INCHIKEY:  HZSHUPNBPRNZDF-UHFFFAOYNA-N
SMILES:  CC1OC(OC2C(O)C(O)C(OCC3OC(OC(=O)C45CCC(C)(C)CC4C4=CCC6C7(C)CCC(OC8OCC(O)C(OC9OC(CO)C(O)C(O)C9O)C8O)C(C)(CO)C7CCC6(C)C4(C)CC5)C(O)C(O)C3O)OC2CO)C(O)C(O)C1O
RETENTIONTIME:  
CCS:  -1
IONMODE:  Negative
INSTRUMENTTYPE:  
INSTRUMENT:  Maxis II HD Q-TOF Bruker
COLLISIONENERGY:  
Comment:  DB#=CCMSLIB00000849578; origin=GNPS
Num Peaks:  14
71.0121	10.0
89.02263	40.0
101.02601	30.0
113.02156	30.0
119.03418	40.0
137.09534	20.0
161.0425	20.0
231.14185	30.0
233.15169	20.0
249.14891	110.0
411.20093	1000.0
412.20563	130.0
823.40735	20.0
824.38098	10.0

NAME:  NCGC00381320-01_C40H62O16_Ergost-24-en-26-one, 3-[[4-O-(6-deoxyhexopyranosyl)hexopyranosyl]oxy]-6,7:22,26-diepoxy-1,5,16-trihydroxy-
PRECURSORMZ:  843.40198846383
PRECURSORTYPE:  [M+FA-H]-
FORMULA:  C40H62O16
Ontology: Kingdom: Organic compounds;Superclass: Lipids and lipid;Class: Steroids and steroid derivatives;Subclass: Steroid lactones
INCHIKEY:  RMFJGKOCEQACGA-UHFFFAOYNA-N
SMILES:  CC(C1C(O)CC2C3C4OC4C4(O)CC(CC(O)C4(C)C3CCC12C)OC1OC(CO)C(OC2OC(C)C(O)C(O)C2O)C(O)C1O)C1CC(C)=C(C)C(=O)O1
RETENTIONTIME:  
CCS:  -1
IONMODE:  Negative
INSTRUMENTTYPE:  
INSTRUMENT:  Maxis II HD Q-TOF Bruker
COLLISIONENERGY:  
Comment:  DB#=CCMSLIB00000851148; origin=GNPS
Num Peaks:  20
85.03054	40.0
89.02576	20.0
101.02448	30.0
113.02452	30.0
115.04262	10.0
119.03481	20.0
125.02588	10.0
127.04063	20.0
131.03539	20.0
145.04951	30.0
163.06076	80.0
205.07178	620.0
247.08176	60.0
331.19785	10.0
435.25208	10.0
453.26917	20.0
471.27515	10.0
489.28668	40.0
797.39899	1000.0
798.40363	160.0

NAME:  NCGC00169009-02_C26H32O9_Methyl (2R,4aR,4bS,10aS,10bS,12aR)-6,10b-dihydroxy-2,4b,7,7,10a,12a-hexamethyl-12-methylene-1,4,5,8-tetraoxo-1,4,4a,4b,5,7,8,9,10,10a,10b,11,12,12a-tetradecahydro-2H-naphtho[1,2-h]isochromene-2-carboxylate
PRECURSORMZ:  533.20283515783
PRECURSORTYPE:  [M+FA-H]-
FORMULA:  C26H32O9
Ontology: Kingdom: Organic compounds;Superclass: Lipids and lipid;Class: Steroids and steroid derivatives;Subclass: Steroid lactones
INCHIKEY:  CYHGEJACRPDZDP-UHFFFAOYNA-N
SMILES:  COC(=O)C1(C)OC(=O)C2C(C)(C(=C)CC3(O)C4(C)CCC(=O)C(C)(C)C4=C(O)C(=O)C23C)C1=O
RETENTIONTIME:  
CCS:  -1
IONMODE:  Negative
INSTRUMENTTYPE:  
INSTRUMENT:  Maxis II HD Q-TOF Bruker
COLLISIONENERGY:  
Comment:  DB#=CCMSLIB00000850165; origin=GNPS
Num Peaks:  140
77.9304	10.0
113.02294	30.0
119.58552	20.0
123.07858	20.0
138.93994	50.0
139.04039	80.0
143.65022	10.0
147.07988	10.0
149.05815	30.0
150.07469	20.0
151.07545	70.0
158.0697	20.0
159.80338	20.0
161.06059	80.0
163.04953	20.0
165.01132	20.0
165.09398	40.0
171.02672	40.0
174.07143	10.0
175.07571	100.0
183.02696	30.0
187.04074	30.0
187.07724	10.0
188.04575	10.0
189.05698	20.0
191.06827	10.0
191.10152	30.0
193.0482	20.0
193.08685	350.0
199.1113	20.0
201.08975	200.0
202.06548	60.0
203.06947	230.0
204.07533	30.0
206.08455	20.0
207.10114	170.0
207.9323	30.0
214.09787	20.0
215.11118	90.0
217.01334	20.0
217.05466	20.0
219.12985	50.0
220.07671	170.0
221.08073	20.0
221.11742	40.0
223.09198	30.0
225.07617	70.0
225.11751	70.0
229.0948	60.0
231.08031	10.0
235.06432	20.0
235.09732	70.0
239.07077	10.0
245.08563	80.0
249.11063	50.0
251.87367	20.0
255.14249	10.0
261.11969	30.0
261.14557	20.0
264.06262	530.0
267.13712	20.0
268.13095	20.0
269.11972	60.0
273.07614	30.0
275.03604	20.0
275.79697	20.0
277.07358	30.0
277.10638	250.0
277.79599	10.0
278.98038	20.0
279.0878	980.0
285.11609	20.0
299.13196	40.0
299.16101	20.0
305.10242	170.0
308.7103	40.0
313.17999	90.0
321.10458	30.0
325.14496	10.0
328.13571	10.0
330.98447	10.0
331.19565	10.0
334.98926	30.0
339.15518	50.0
339.19214	50.0
341.17368	90.0
342.13681	10.0
349.1748	30.0
352.16913	100.0
353.16354	30.0
355.13422	40.0
355.17963	10.0
355.27472	30.0
357.16821	10.0
363.12738	20.0
365.17932	30.0
367.19357	150.0
369.01575	20.0
369.17313	30.0
370.61313	20.0
371.17245	20.0
373.16898	20.0
375.20612	30.0
381.13626	30.0
383.19101	110.0
384.86838	10.0
385.16071	530.0
393.18011	50.0
396.16846	20.0
397.16324	10.0
397.19879	20.0
399.21646	20.0
401.19525	30.0
409.16519	60.0
409.31024	10.0
411.18134	330.0
415.21707	40.0
417.14969	20.0
422.14145	90.0
425.20221	50.0
426.51929	20.0
426.75116	10.0
427.17758	840.0
429.1926	20.0
437.16006	70.0
438.45694	10.0
443.21024	30.0
453.50681	20.0
454.15997	10.0
455.01953	10.0
455.17282	750.0
455.4993	10.0
459.19531	20.0
467.33209	10.0
469.18408	40.0
484.65515	10.0
487.12054	10.0
487.19666	1000.0
488.62335	10.0
513.9873	30.0

NAME:  NCGC00380867-01_C27H46O9_9,12,15-Octadecatrienoic acid, 3-(hexopyranosyloxy)-2-hydroxypropyl ester, (9Z,12Z,15Z)-
PRECURSORMZ:  559.31238560883
PRECURSORTYPE:  [M+FA-H]-
FORMULA:  C27H46O9
Ontology: Kingdom: Organic compounds;Superclass: Lipids and lipid;Class: Glycerolipids;Subclass: Glycosylglycerols
INCHIKEY:  HUSISCNTLUEZCN-UHFFFAOYNA-N
SMILES:  CCC=CCC=CCC=CCCCCCCCC(=O)OCC(O)COC1OC(CO)C(O)C(O)C1O
RETENTIONTIME:  
CCS:  -1
IONMODE:  Negative
INSTRUMENTTYPE:  
INSTRUMENT:  Maxis II HD Q-TOF Bruker
COLLISIONENERGY:  
Comment:  DB#=CCMSLIB00000850535; origin=GNPS
Num Peaks:  3
235.0847	60.0
253.09421	130.0
277.21735	1000.0

NAME:  Pesticide4_Tebufenozide_C22H28N2O2_Benzoic acid, 3,5-dimethyl-, 1-(1,1-dimethylethyl)-2-(4-ethylbenzoyl)hydrazide
PRECURSORMZ:  351.20780169783
PRECURSORTYPE:  [M-H]-
FORMULA:  C22H28N2O2
Ontology: Kingdom: Organic compounds;Superclass: Benzenoids;Class: Benzene and substituted derivatives;Subclass: Benzoic acids and derivatives
INCHIKEY:  QYPNKSZPJQQLRK-UHFFFAOYSA-N
SMILES:  CCC1=CC=C(C=C1)C(=O)NN(C(=O)C1=CC(C)=CC(C)=C1)C(C)(C)C
RETENTIONTIME:  
CCS:  194.4289904
IONMODE:  Negative
INSTRUMENTTYPE:  
INSTRUMENT:  Q-Exactive Plus Orbitrap Res 70k
COLLISIONENERGY:  
Comment:  DB#=CCMSLIB00001058380; origin=GNPS
Num Peaks:  5
105.0711	130.0
149.06114	1000.0
294.1377	10.0
295.14493	20.0
351.20807	170.0

NAME:  NCGC00347572-02_C30H39NO9_Pentanedioic acid, 2-[(2R,2'R,6'S,8a'S)-6'-(acetyloxy)-3',4',4'a,5',6,6',7',8,8',8'a-decahydro-4-hydroxy-2',5',5',8'a-tetramethyl-6-oxospiro[2H-furo[2,3-e]isoindole-2,1'(2'H)-naphthalen]-7(3H)-yl]-, (2S)-
PRECURSORMZ:  556.25520538783
PRECURSORTYPE:  [M-H]-
FORMULA:  C30H39NO9
Ontology: Kingdom: Organic compounds;Superclass: Organic acids and derivatives;Class: Carboxylic acids and derivatives;Subclass: Amino acids
INCHIKEY:  QOSHGFOSXAHAJH-UHFFFAOYNA-N
SMILES:  CC1CCC2C(C)(C)C(CCC2(C)C11CC2=C(O)C=C3C(=O)N(CC3=C2O1)C(CCC(O)=O)C(O)=O)OC(C)=O
RETENTIONTIME:  
CCS:  -1
IONMODE:  Negative
INSTRUMENTTYPE:  
INSTRUMENT:  Maxis II HD Q-TOF Bruker
COLLISIONENERGY:  
Comment:  DB#=CCMSLIB00000849485; origin=GNPS
Num Peaks:  11
245.0685	10.0
392.23282	10.0
408.25458	20.0
426.23157	20.0
434.23499	80.0
452.24442	90.0
468.26944	20.0
494.25513	230.0
512.2666	530.0
538.24805	240.0
556.25549	1000.0

NAME:  NCGC00380819-01_C16H22O9_
PRECURSORMZ:  403.12458483583
PRECURSORTYPE:  [M+FA-H]-
FORMULA:  C16H22O9
Ontology: Kingdom: Organic compounds;Superclass: Organic oxygen compounds;Class: Organooxygen compounds;Subclass: Carbohydrates and carbohydrate conjugates
INCHIKEY:  VLHQGQCFFBCKMV-UHFFFAOYNA-N
SMILES:  COC1=C(CCC(O)=O)C=CC=C1OC1OC(CO)C(O)C(O)C1O
RETENTIONTIME:  
CCS:  -1
IONMODE:  Negative
INSTRUMENTTYPE:  
INSTRUMENT:  Maxis II HD Q-TOF Bruker
COLLISIONENERGY:  
Comment:  DB#=CCMSLIB00000849893; origin=GNPS
Num Peaks:  10
72.42769	10.0
119.05064	100.0
135.04356	10.0
136.05165	80.0
149.05797	10.0
180.04291	40.0
194.05283	20.0
195.0658	1000.0
279.03238	20.0
357.11346	30.0

NAME:  NCGC00163426-02_C35H58O9_alpha-D-threo-Pentopyranose, 2,4-dideoxy-1-C-[(1S,2R,3S)-2-hydroxy-3-[(2R,3S,4E,6E,9S,10S,11R,12E,14Z)-10-hydroxy-3,15-dimethoxy-7,9,11,13-tetramethyl-16-oxooxacyclohexadeca-4,6,12,14-tetraen-2-yl]-1-methylbutyl]-4-methyl-5-C-(1-methylethyl)-, (5R)-
PRECURSORMZ:  667.40628599583
PRECURSORTYPE:  [M+FA-H]-
FORMULA:  C35H58O9
Ontology: ;
INCHIKEY:  XDHNQDDQEHDUTM-UHFFFAOYNA-N
SMILES:  COC1C=CC=C(C)CC(C)C(O)C(C)C=C(C)C=C(OC)C(=O)OC1C(C)C(O)C(C)C1(O)CC(O)C(C)C(O1)C(C)C
RETENTIONTIME:  
CCS:  -1
IONMODE:  Negative
INSTRUMENTTYPE:  
INSTRUMENT:  Maxis II HD Q-TOF Bruker
COLLISIONENERGY:  
Comment:  DB#=CCMSLIB00000849743; origin=GNPS
Num Peaks:  23
88.11848	20.0
109.06522	230.0
110.8685	10.0
111.08163	160.0
154.06386	40.0
169.08698	1000.0
187.96541	50.0
203.14415	20.0
243.993	20.0
257.00055	10.0
371.20029	30.0
419.24683	360.0
473.29105	20.0
491.30121	420.0
492.28256	20.0
513.35199	10.0
530.08063	10.0
530.11346	20.0
531.33496	70.0
585.37939	40.0
603.39673	40.0
621.41968	10.0
666.99878	20.0

NAME:  NCGC00385509-01_C29H38O12_Methyl 2-(hexopyranosyloxy)-4-({6-[2-(4-hydroxyphenyl)ethyl]-4-oxotetrahydro-2H-pyran-2-yl}methyl)-3-vinyl-3,4-dihydro-2H-pyran-5-carboxylate
PRECURSORMZ:  623.23452921183
PRECURSORTYPE:  [M+FA-H]-
FORMULA:  C29H38O12
Ontology: Kingdom: Organic compounds;Superclass: Lipids and lipid;Class: Prenol lipids;Subclass: Terpene glycosides
INCHIKEY:  GGNFGJZLCXTJLH-UHFFFAOYNA-N
SMILES:  COC(=O)C1=COC(OC2OC(CO)C(O)C(O)C2O)C(C=C)C1CC1CC(=O)CC(CCC2=CC=C(O)C=C2)O1
RETENTIONTIME:  
CCS:  -1
IONMODE:  Negative
INSTRUMENTTYPE:  
INSTRUMENT:  Maxis II HD Q-TOF Bruker
COLLISIONENERGY:  
Comment:  DB#=CCMSLIB00000850562; origin=GNPS
Num Peaks:  33
88.21777	10.0
93.03293	30.0
101.02365	100.0
113.02428	30.0
119.03495	40.0
121.03511	20.0
127.03616	20.0
137.06117	20.0
143.03104	20.0
149.06168	70.0
153.05534	130.0
155.03043	20.0
163.07692	10.0
173.06323	10.0
179.056	70.0
187.07394	20.0
189.09024	10.0
192.04321	10.0
195.06551	380.0
201.05766	10.0
205.08417	20.0
225.07111	10.0
229.04828	20.0
280.55692	10.0
313.10953	150.0
313.14255	100.0
327.1243	30.0
345.13425	1000.0
383.14731	40.0
397.16449	20.0
415.17416	310.0
577.23035	300.0
578.24023	20.0

NAME:  NCGC00380497-01_C27H36O6_1-Naphthalenecarboxylic acid, 8-(benzoyloxy)decahydro-7-hydroxy-5-[(3Z)-5-hydroxy-3-methyl-3-penten-1-yl]-1,4a-dimethyl-6-methylene-
PRECURSORMZ:  501.24939142683
PRECURSORTYPE:  [M+FA-H]-
FORMULA:  C27H36O6
Ontology: Kingdom: Organic compounds;Superclass: Lipids and lipid;Class: Prenol lipids;Subclass: Diterpenoids
INCHIKEY:  ZBHRERABGSTQPS-UHFFFAOYNA-N
SMILES:  CC(CCC1C(=C)C(O)C(OC(=O)C2=CC=CC=C2)C2C1(C)CCCC2(C)C(O)=O)=CCO
RETENTIONTIME:  
CCS:  -1
IONMODE:  Negative
INSTRUMENTTYPE:  
INSTRUMENT:  Maxis II HD Q-TOF Bruker
COLLISIONENERGY:  
Comment:  DB#=CCMSLIB00000849313; origin=GNPS
Num Peaks:  34
121.0306	150.0
121.05855	20.0
141.06918	10.0
147.08746	10.0
149.09601	20.0
152.90533	10.0
153.98218	10.0
157.10188	50.0
169.10342	30.0
171.11873	20.0
173.09464	10.0
173.13438	400.0
189.13062	10.0
209.12416	10.0
213.16647	10.0
219.14319	30.0
233.12401	10.0
235.15184	40.0
237.16518	100.0
241.19363	10.0
251.18756	10.0
252.84081	10.0
253.19803	1000.0
255.17389	10.0
271.20581	480.0
273.17303	10.0
285.18259	30.0
303.19861	60.0
315.18698	20.0
328.99979	10.0
333.2056	140.0
383.15826	10.0
455.24399	30.0
1013.18658	10.0

NAME:  NCGC00380770-01_C20H22N2O10_Uridine, 2'-acetate 3'-(4-hydroxy-2-methoxy-6-methylbenzoate)
PRECURSORMZ:  495.12564746383
PRECURSORTYPE:  [M+FA-H]-
FORMULA:  C20H22N2O10
Ontology: Kingdom: Organic compounds;Superclass: Nucleosides;Class: Pyrimidine nucleosides;
INCHIKEY:  ULPUBSPPYRXUOZ-UHFFFAOYNA-N
SMILES:  COC1=C(C(=O)OC2C(CO)OC(C2OC(C)=O)N2C=CC(O)=NC2=O)C(C)=CC(O)=C1
RETENTIONTIME:  
CCS:  -1
IONMODE:  Negative
INSTRUMENTTYPE:  
INSTRUMENT:  Maxis II HD Q-TOF Bruker
COLLISIONENERGY:  
Comment:  DB#=CCMSLIB00000851373; origin=GNPS
Num Peaks:  54
88.6966	20.0
96.00242	10.0
105.79388	10.0
107.05069	10.0
111.0189	750.0
112.04048	10.0
122.03678	100.0
128.0424	10.0
135.0462	20.0
136.03926	10.0
137.05948	290.0
138.05904	10.0
143.52136	10.0
149.06096	10.0
151.25957	10.0
152.03511	130.0
153.03125	30.0
154.04845	10.0
155.03171	20.0
163.04333	20.0
164.03676	40.0
166.04718	10.0
170.04781	40.0
177.04762	20.0
181.04999	730.0
182.04459	100.0
189.03336	10.0
192.65742	20.0
194.04614	80.0
196.06474	10.0
200.0545	110.0
207.04359	20.0
224.0526	30.0
225.04977	90.0
242.06847	30.0
243.06403	130.0
246.12999	10.0
248.10316	20.0
253.07106	50.0
258.11014	20.0
267.05301	20.0
270.07236	20.0
284.08563	20.0
293.10867	10.0
302.12793	10.0
337.0881	20.0
346.09457	230.0
349.36548	50.0
364.10663	60.0
389.09988	330.0
406.11642	510.0
407.10953	10.0
445.65204	10.0
449.11975	1000.0

NAME:  NCGC00380980-02_C24H24N4O6_1H-Imidazo[1,2-a]indole-9-propanoic acid, 2,3,9,9a-tetrahydro-1,9-dihydroxy-2,2-dimethyl-3-oxo-alpha-(4-oxo-3(4H)-quinazolinyl)-, methyl ester, (9S,9aS)-
PRECURSORMZ:  509.16778705683
PRECURSORTYPE:  [M+FA-H]-
FORMULA:  C24H24N4O6
Ontology: Kingdom: Organic compounds;Superclass: Organic acids and derivatives;Class: Carboxylic acids and derivatives;Subclass: Amino acids
INCHIKEY:  PDUNPLZHIQQDAD-UHFFFAOYNA-N
SMILES:  COC(=O)C(CC1(O)C2N(O)C(C)(C)C(=O)N2C2=CC=CC=C12)N1C=NC2=CC=CC=C2C1=O
RETENTIONTIME:  
CCS:  -1
IONMODE:  Negative
INSTRUMENTTYPE:  
INSTRUMENT:  Maxis II HD Q-TOF Bruker
COLLISIONENERGY:  
Comment:  DB#=CCMSLIB00000850427; origin=GNPS
Num Peaks:  20
141.05733	30.0
142.06461	20.0
144.04729	20.0
145.0406	1000.0
146.06284	10.0
159.05624	60.0
171.05937	60.0
171.08977	120.0
185.04816	30.0
186.05807	30.0
197.09235	10.0
213.10181	50.0
226.07262	40.0
241.10002	40.0
285.08847	20.0
286.09659	10.0
287.10742	40.0
343.1496	30.0
401.14038	60.0
431.13885	80.0

NAME:  NCGC00380613-01_C41H52N8O9_Cyclo[glycylprolyltryptophylglycyl-beta-hydroxy-3-(3-methyl-2-buten-1-yl)tyrosylglycylvalyl]
PRECURSORMZ:  799.37844883383
PRECURSORTYPE:  [M-H]-
FORMULA:  C41H52N8O9
Ontology: Kingdom: Organic compounds;Superclass: Organic acids and derivatives;Class: Carboxylic acids and derivatives;Subclass: Amino acids
INCHIKEY:  LIHVMLWWVHJRMA-UHFFFAOYNA-N
SMILES:  CC(C)C1N=C(O)CN=C(O)C(N=C(O)CN=C(O)C(CC2=CNC3=CC=CC=C23)N=C(O)C2CCCN2C(=O)CN=C1O)C(O)C1=CC=C(O)C(CC=C(C)C)=C1
RETENTIONTIME:  
CCS:  -1
IONMODE:  Negative
INSTRUMENTTYPE:  
INSTRUMENT:  Maxis II HD Q-TOF Bruker
COLLISIONENERGY:  
Comment:  DB#=CCMSLIB00000849256; origin=GNPS
Num Peaks:  64
113.03522	90.0
115.08643	20.0
130.06097	50.0
137.06926	80.0
152.05685	30.0
156.04517	70.0
161.09425	30.0
168.11502	40.0
187.08566	60.0
187.93413	20.0
189.09531	150.0
206.09297	30.0
209.09477	20.0
210.08878	30.0
212.10245	50.0
217.68132	30.0
220.91537	20.0
226.87856	10.0
226.95775	20.0
227.11304	60.0
229.14026	70.0
233.00075	20.0
241.12866	30.0
243.08292	50.0
251.11427	20.0
251.15457	50.0
263.15527	30.0
266.15567	50.0
269.11929	50.0
269.1601	50.0
284.10208	100.0
296.11148	20.0
306.12646	40.0
308.1694	20.0
312.14084	30.0
316.54825	20.0
323.12811	20.0
324.13272	110.0
326.14771	200.0
340.20087	20.0
341.15903	90.0
352.16	20.0
358.22183	30.0
365.19757	20.0
366.17633	40.0
381.07953	30.0
383.20804	230.0
384.20291	20.0
405.20941	30.0
408.17935	30.0
423.20895	20.0
479.45966	30.0
480.22122	1000.0
481.20886	20.0
484.84705	10.0
609.2804	800.0
610.28625	100.0
616.32983	20.0
635.27777	30.0
653.30292	10.0
717.10168	30.0
744.47424	10.0
781.35333	40.0
896.2785	20.0

NAME:  NCGC00180812-03_C26H28O9_1H,3H-Oxireno[c]pyrano[4'',3'':2',3']furo[3',4':5,6]naphtho[1,2-d]pyran-3,8,10(6H,9aH)-trione, 12-(3-furanyl)-4,4a,8a,12,12a,13,14,14a-octahydro-7-hydroxy-6,6,8a,12a-tetramethyl-, (4aS,8aR,8bR,9aS,12S,12aS,14bR)-
PRECURSORMZ:  483.16605602983
PRECURSORTYPE:  [M-H]-
FORMULA:  C26H28O9
Ontology: Kingdom: Organic compounds;Superclass: Lipids and lipid;Class: Steroids and steroid derivatives;Subclass: Steroid lactones
INCHIKEY:  SNGHLUWTFLYPMT-UHFFFAOYNA-N
SMILES:  CC1(C)OC2CC(=O)OCC22C3CCC4(C)C(OC(=O)C5OC45C3(C)C(=O)C(O)=C12)C1=COC=C1
RETENTIONTIME:  
CCS:  210.0755949
IONMODE:  Negative
INSTRUMENTTYPE:  
INSTRUMENT:  Maxis II HD Q-TOF Bruker
COLLISIONENERGY:  
Comment:  DB#=CCMSLIB00000849671; origin=GNPS
Num Peaks:  87
111.08039	30.0
119.0953	20.0
119.74192	20.0
133.06789	20.0
135.04311	60.0
137.02116	10.0
139.03926	10.0
144.05838	10.0
146.07086	10.0
147.07866	20.0
149.06271	10.0
151.03726	30.0
151.07753	10.0
157.08018	20.0
161.06003	700.0
163.03839	90.0
163.07651	30.0
169.06721	10.0
169.09848	10.0
179.08234	20.0
185.09952	20.0
187.07144	20.0
191.09286	20.0
199.07697	10.0
201.09705	10.0
203.48758	10.0
204.51981	20.0
206.16264	10.0
207.12805	10.0
211.1165	10.0
211.46895	20.0
213.12801	20.0
219.11899	20.0
224.12323	10.0
235.1114	20.0
237.11711	20.0
240.15448	10.0
242.05562	10.0
243.13217	10.0
246.10661	20.0
247.11908	20.0
251.12943	10.0
255.13803	30.0
259.09421	40.0
261.09167	30.0
263.13434	20.0
268.11768	10.0
269.12521	10.0
269.19742	10.0
273.14542	10.0
274.1033	10.0
279.14001	20.0
281.11533	10.0
281.18417	20.0
293.11771	20.0
300.14832	10.0
302.16681	10.0
303.14365	20.0
305.1138	10.0
331.13007	10.0
333.15173	30.0
334.12094	10.0
342.12531	20.0
349.14304	20.0
351.15662	10.0
359.12744	30.0
362.10425	20.0
365.17209	20.0
367.14636	30.0
374.14651	10.0
375.17108	30.0
377.14813	20.0
378.12643	20.0
388.12634	10.0
393.17392	30.0
395.15192	310.0
395.88687	10.0
399.16257	10.0
403.15771	60.0
419.73245	10.0
421.16763	1000.0
422.17346	30.0
423.08292	10.0
423.1463	260.0
439.17944	20.0
483.16995	40.0
746.31036	10.0

NAME:  NCGC00381179-01_C17H14O4_
PRECURSORMZ:  281.08193247883
PRECURSORTYPE:  [M-H]-
FORMULA:  C17H14O4
Ontology: Kingdom: Organic compounds;Superclass: Benzenoids;Class: Phenols;
INCHIKEY:  AHKPCKHDSIQVNI-UHFFFAOYNA-N
SMILES:  OC1=C(CC2=CC=CC=C2)C(=O)OC1C1=CC=C(O)C=C1
RETENTIONTIME:  
CCS:  -1
IONMODE:  Negative
INSTRUMENTTYPE:  
INSTRUMENT:  Maxis II HD Q-TOF Bruker
COLLISIONENERGY:  
Comment:  DB#=CCMSLIB00000851241; origin=GNPS
Num Peaks:  12
115.05575	70.0
131.04832	50.0
143.04953	1000.0
143.10269	20.0
207.08023	80.0
209.11301	50.0
211.28313	60.0
218.07826	60.0
219.08464	220.0
235.07713	50.0
237.09209	820.0
255.12552	40.0

NAME:  NCGC00381043-01_C21H28O13_Hexopyranose, 2-O-hexopyranosyl-6-O-[(2E)-3-(4-hydroxyphenyl)-1-oxo-2-propen-1-yl]-
PRECURSORMZ:  533.15119350983
PRECURSORTYPE:  [M+FA-H]-
FORMULA:  C21H28O13
Ontology: Kingdom: Organic compounds;Superclass: Phenylpropanoids and polyketides;Class: Cinnamic acids and derivatives;Subclass: Hydroxycinnamic acids and derivatives
INCHIKEY:  ZPHQZULZLQMWGY-UHFFFAOYNA-N
SMILES:  OCC1OC(OC2C(O)OC(COC(=O)C=CC3=CC=C(O)C=C3)C(O)C2O)C(O)C(O)C1O
RETENTIONTIME:  
CCS:  -1
IONMODE:  Negative
INSTRUMENTTYPE:  
INSTRUMENT:  Maxis II HD Q-TOF Bruker
COLLISIONENERGY:  
Comment:  DB#=CCMSLIB00000850846; origin=GNPS
Num Peaks:  27
85.03594	20.0
95.01321	20.0
99.00801	10.0
113.02295	240.0
118.04183	10.0
119.05046	100.0
126.35246	20.0
133.06514	30.0
142.09607	10.0
145.02766	160.0
149.02596	10.0
159.03915	10.0
161.0475	230.0
162.03186	10.0
163.04042	270.0
173.45927	10.0
177.05475	40.0
178.8792	20.0
187.03764	30.0
189.05771	10.0
205.05331	300.0
235.06099	340.0
265.07056	1000.0
289.06866	20.0
307.08151	40.0
325.09375	620.0
487.16077	40.0

NAME:  NCGC00385658-01_C50H82O22_
PRECURSORMZ:  1079.52797682783
PRECURSORTYPE:  [M+FA-H]-
FORMULA:  C50H82O22
Ontology: Kingdom: Organic compounds;Superclass: Lipids and lipid;Class: Steroids and steroid derivatives;Subclass: Steroidal glycosides
INCHIKEY:  QXPYMYKHTLVJKY-UHFFFAOYNA-N
SMILES:  CC1C2C(CC3C4CCC5CC(CCC5(C)C4CCC23C)OC2OC(CO)C(OC3OC(COC4OCC(O)C(O)C4O)C(OC4OC(CO)C(O)C(O)C4O)C(O)C3O)C(O)C2O)OC11CCC(C)CO1
RETENTIONTIME:  
CCS:  -1
IONMODE:  Negative
INSTRUMENTTYPE:  
INSTRUMENT:  Maxis II HD Q-TOF Bruker
COLLISIONENERGY:  
Comment:  DB#=CCMSLIB00000851304; origin=GNPS
Num Peaks:  26
89.02514	30.0
97.02953	10.0
101.02509	30.0
113.02524	60.0
119.03521	30.0
125.02456	80.0
131.03485	20.0
143.03552	20.0
149.04585	20.0
161.0455	70.0
179.05553	50.0
221.0657	20.0
287.07895	20.0
437.13107	10.0
467.14148	30.0
577.37512	20.0
739.43201	40.0
740.43384	10.0
853.46216	30.0
871.47107	30.0
883.4715	20.0
901.48218	60.0
902.48798	20.0
1033.52307	1000.0
1034.52576	320.0
1035.52795	40.0

NAME:  NCGC00380465-01_C38H64O17_Hexopyranoside, 1-[7-[[4-O-(6-deoxy-alpha-L-mannopyranosyl)-beta-D-glucopyranosyl]oxy]-1,2,3,4,4a,4b,5,6,7,8,8a,9-dodecahydro-2,4b,8,8-tetramethyl-2-phenanthrenyl]-2-hydroxyethyl
PRECURSORMZ:  837.41255314883
PRECURSORTYPE:  [M+FA-H]-
FORMULA:  C38H64O17
Ontology: Kingdom: Organic compounds;Superclass: Lipids and lipid;Class: Prenol lipids;Subclass: Terpene glycosides
INCHIKEY:  IYTSQVVPSDQONH-UHFFFAOYNA-N
SMILES:  CC1OC(OC2C(CO)OC(OC3CCC4(C)C5CCC(C)(CC5=CCC4C3(C)C)C(CO)OC3OC(CO)C(O)C(O)C3O)C(O)C2O)C(O)C(O)C1O
RETENTIONTIME:  
CCS:  -1
IONMODE:  Negative
INSTRUMENTTYPE:  
INSTRUMENT:  Maxis II HD Q-TOF Bruker
COLLISIONENERGY:  
Comment:  DB#=CCMSLIB00000850145; origin=GNPS
Num Peaks:  14
101.02388	40.0
113.02379	40.0
143.03339	10.0
159.02728	20.0
161.04442	80.0
163.05972	20.0
483.29724	90.0
627.33899	40.0
629.35791	30.0
645.34888	270.0
646.35309	30.0
791.4071	1000.0
792.41229	180.0
793.41327	10.0

NAME:  NCGC00347403-02_C30H42O12_1,7-Bis(4-hydroxyphenyl)-3-heptanyl 6-O-[(2S,3R,4R)-3,4-dihydroxy-4-(hydroxymethyl)tetrahydro-2-furanyl]-beta-D-glucopyranoside
PRECURSORMZ:  575.24978565983
PRECURSORTYPE:  [M-H2O-H]-
FORMULA:  C30H42O12
Ontology: Kingdom: Organic compounds;Superclass: Phenylpropanoids and polyketides;Class: Diarylheptanoids;Subclass: Linear diarylheptanoids
INCHIKEY:  JLMGCBFIPZDHLZ-UHFFFAOYNA-N
SMILES:  OCC1(O)COC(OCC2OC(OC(CCCCC3=CC=C(O)C=C3)CCC3=CC=C(O)C=C3)C(O)C(O)C2O)C1O
RETENTIONTIME:  
CCS:  -1
IONMODE:  Negative
INSTRUMENTTYPE:  
INSTRUMENT:  Maxis II HD Q-TOF Bruker
COLLISIONENERGY:  
Comment:  DB#=CCMSLIB00000849364; origin=GNPS
Num Peaks:  24
97.02946	40.0
113.03985	50.0
203.11366	30.0
216.96524	30.0
257.15503	30.0
269.14218	40.0
289.12225	40.0
289.14609	40.0
313.14667	30.0
331.15616	130.0
349.16745	100.0
350.32825	20.0
365.16684	110.0
367.17822	350.0
368.31775	20.0
460.7843	20.0
470.20953	30.0
511.20981	40.0
528.22046	20.0
528.35083	40.0
528.88074	10.0
529.06256	20.0
529.23041	1000.0
575.23041	10.0

NAME:  NCGC00381009-01_C24H30O12_Cyclopenta[c]pyran-4-carboxylic acid, 1-(beta-D-glucopyranosyloxy)-1,4a,5,6,7,7a-hexahydro-4a-hydroxy-7-methyl-5-oxo-, 2-(4-hydroxyphenyl)ethyl ester, (1S,4aR,7aR)-
PRECURSORMZ:  555.17192895383
PRECURSORTYPE:  [M+FA-H]-
FORMULA:  C24H30O12
Ontology: Kingdom: Organic compounds;Superclass: Lipids and lipid;Class: Prenol lipids;Subclass: Terpene glycosides
INCHIKEY:  KBDOXLBZVFQTMH-UHFFFAOYNA-N
SMILES:  CC1CC(=O)C2(O)C1C(OC1OC(CO)C(O)C(O)C1O)OC=C2C(=O)OCCC1=CC=C(O)C=C1
RETENTIONTIME:  
CCS:  -1
IONMODE:  Negative
INSTRUMENTTYPE:  
INSTRUMENT:  Maxis II HD Q-TOF Bruker
COLLISIONENERGY:  
Comment:  DB#=CCMSLIB00000849734; origin=GNPS
Num Peaks:  14
113.02398	50.0
121.02829	20.0
123.04424	10.0
139.00357	180.0
139.04047	50.0
165.05602	80.0
183.06639	20.0
207.06631	110.0
209.04462	120.0
233.08212	220.0
329.1012	20.0
347.11377	1000.0
389.10809	40.0
509.16589	200.0

NAME:  NCGC00381026-01_C71H108O28_2,4,6-Decatrienoic acid, 16-(acetyloxy)-3-[[O-hexopyranosyl-(1->2)-O-hexopyranosyl-(1->3)-O-hexopyranuronosyl-(1->4)-6-deoxyhexopyranosyl]oxy]-28-hydroxy-22-[[(2Z)-2-methyl-1-oxo-2-buten-1-yl]oxy]olean-12-en-15-yl ester, (2E,4E,6E)-
PRECURSORMZ:  1407.69543638583
PRECURSORTYPE:  [M-H]-
FORMULA:  C71H108O28
Ontology: Kingdom: Organic compounds;Superclass: Lipids and lipid;Class: Prenol lipids;Subclass: Terpene glycosides
INCHIKEY:  OTTJFHNMPMLQHK-UHFFFAOYNA-N
SMILES:  CCCC=CC=CC=CC(=O)OC1C(OC(C)=O)C2(CO)C(CC(C)(C)CC2C2=CCC3C4(C)CCC(OC5OC(C)C(OC6OC(C(O)C(OC7OC(CO)C(O)C(O)C7OC7OC(CO)C(O)C(O)C7O)C6O)C(O)=O)C(O)C5O)C(C)(C)C4CCC3(C)C12C)OC(=O)C(C)=CC
RETENTIONTIME:  
CCS:  -1
IONMODE:  Negative
INSTRUMENTTYPE:  
INSTRUMENT:  Maxis II HD Q-TOF Bruker
COLLISIONENERGY:  
Comment:  DB#=CCMSLIB00000851187; origin=GNPS
Num Peaks:  140
71.01424	30.0
75.15176	10.0
75.80965	10.0
76.83195	50.0
77.82812	40.0
85.03183	110.0
87.00875	120.0
87.04517	70.0
89.0239	80.0
95.01335	40.0
97.02552	40.0
99.00873	120.0
99.04349	170.0
101.02452	110.0
107.68751	20.0
111.00669	100.0
112.02164	60.0
113.02488	450.0
115.03845	80.0
119.03368	210.0
120.03583	30.0
121.10001	30.0
122.95692	40.0
127.04317	50.0
130.65158	30.0
131.03378	160.0
131.86029	20.0
133.03128	50.0
137.02519	40.0
139.00162	80.0
141.01797	40.0
143.03328	340.0
145.05043	170.0
146.84961	20.0
147.08028	540.0
148.08173	40.0
149.11934	20.0
151.03828	40.0
156.52333	30.0
157.00998	70.0
159.02672	30.0
161.05455	50.0
163.05956	390.0
164.07014	50.0
165.09029	90.0
189.03514	60.0
193.07045	50.0
204.9501	20.0
205.07248	610.0
205.23431	20.0
206.0743	60.0
239.05331	30.0
247.08513	120.0
266.9841	20.0
275.07779	30.0
290.98987	20.0
298.98456	20.0
307.09589	50.0
325.11563	30.0
330.91101	30.0
339.93811	30.0
343.03436	30.0
351.02634	30.0
360.98651	20.0
369.28082	20.0
378.28464	30.0
383.12305	20.0
387.26331	30.0
399.00476	20.0
421.13409	30.0
421.30923	30.0
442.0148	10.0
442.3287	20.0
449.31186	40.0
451.3378	20.0
453.30963	30.0
455.03888	10.0
455.33246	40.0
462.95044	40.0
467.30719	30.0
469.32614	20.0
471.30988	20.0
471.34155	20.0
487.33279	20.0
489.36444	20.0
490.37686	40.0
521.34784	40.0
529.35577	30.0
531.37354	20.0
553.39386	40.0
555.95435	30.0
568.36194	10.0
579.35785	30.0
585.37201	20.0
611.36603	30.0
611.40649	60.0
613.37909	70.0
613.41772	50.0
621.40582	20.0
627.38452	50.0
637.41199	20.0
645.93329	30.0
647.38947	20.0
648.38385	10.0
654.02289	30.0
709.42804	30.0
747.42395	30.0
751.44464	30.0
765.44879	20.0
859.53149	40.0
1017.55817	20.0
1063.54321	20.0
1063.59668	20.0
1079.61938	20.0
1081.60913	20.0
1086.97925	10.0
1096.52783	30.0
1197.61267	20.0
1227.56445	30.0
1227.6322	140.0
1228.61267	50.0
1241.56494	10.0
1243.64465	10.0
1248.39526	20.0
1262.61768	10.0
1262.67798	20.0
1381.3783	20.0
1389.67969	10.0
1391.92468	30.0
1405.58508	10.0
1405.88525	20.0
1407.70178	1000.0
1407.85901	20.0
1408.19446	30.0
1408.68701	630.0
1409.44617	20.0
1409.70471	300.0
1410.69824	20.0
1414.69031	20.0
1454.71875	30.0

NAME:  NCGC00381210-01_C18H32O11_(2E)-4-Hydroxy-3,4-dimethyl-2-penten-1-yl 6-O-[(2S,3R,4R)-3,4-dihydroxy-4-(hydroxymethyl)tetrahydro-2-furanyl]-beta-D-glucopyranoside
PRECURSORMZ:  469.19266439783
PRECURSORTYPE:  [M+FA-H]-
FORMULA:  C18H32O11
Ontology: Kingdom: Organic compounds;Superclass: Lipids and lipid;Class: Fatty Acyls;Subclass: Fatty acyl glycosides
INCHIKEY:  FEGXTMHRTZJSIG-UHFFFAOYNA-N
SMILES:  CC(=CCOC1OC(COC2OCC(O)(CO)C2O)C(O)C(O)C1O)C(C)(C)O
RETENTIONTIME:  
CCS:  -1
IONMODE:  Negative
INSTRUMENTTYPE:  
INSTRUMENT:  Maxis II HD Q-TOF Bruker
COLLISIONENERGY:  
Comment:  DB#=CCMSLIB00000850796; origin=GNPS
Num Peaks:  20
72.3774	20.0
89.02499	30.0
101.02487	40.0
113.02238	10.0
131.03519	90.0
143.02838	40.0
148.24352	40.0
149.04573	690.0
161.04898	70.0
179.05919	110.0
191.05678	230.0
205.23532	30.0
205.73184	30.0
215.05881	30.0
221.05991	30.0
251.07932	140.0
293.09012	80.0
423.10721	10.0
423.18842	1000.0
443.01086	10.0

NAME:  NCGC00169695-02_C27H36O11_[2-(3,4-Dimethoxyphenyl)-5-(3-hydroxypropyl)-7-methoxy-2,3-dihydro-1-benzofuran-3-yl]methyl hexopyranoside
PRECURSORMZ:  581.22396452683
PRECURSORTYPE:  [M+FA-H]-
FORMULA:  C27H36O11
Ontology: Kingdom: Organic compounds;Superclass: Phenylpropanoids and polyketides;;
INCHIKEY:  GOLVEYNUJMICCU-UHFFFAOYNA-N
SMILES:  COC1=CC(CCCO)=CC2=C1OC(C2COC1OC(CO)C(O)C(O)C1O)C1=CC(OC)=C(OC)C=C1
RETENTIONTIME:  
CCS:  -1
IONMODE:  Negative
INSTRUMENTTYPE:  
INSTRUMENT:  Maxis II HD Q-TOF Bruker
COLLISIONENERGY:  
Comment:  DB#=CCMSLIB00000850283; origin=GNPS
Num Peaks:  38
97.06718	60.0
113.02746	50.0
127.07445	30.0
129.01562	20.0
161.04549	150.0
225.05608	20.0
227.80852	20.0
256.53534	20.0
291.15927	30.0
292.18008	20.0
321.22324	20.0
353.2561	10.0
373.15488	20.0
388.25378	20.0
407.26718	20.0
418.25836	10.0
421.26807	20.0
424.25238	20.0
426.28094	10.0
444.28119	10.0
471.31265	10.0
485.28278	10.0
486.29285	230.0
487.29608	20.0
502.16907	20.0
504.05569	30.0
505.22296	60.0
508.36945	10.0
517.20782	220.0
530.08173	10.0
533.31641	120.0
534.31372	1000.0
535.15491	20.0
535.22089	90.0
535.30566	80.0
535.4082	10.0
536.83801	10.0
561.17749	10.0

NAME:  NCGC00380700-01_C27H32O10_Methyl (2S)-[(5S,6S,10S,12S,13R,15S,19S)-6-(3-furyl)-15,18-dihydroxy-1,5,16-trimethyl-8,14-dioxo-7,11-dioxahexacyclo[14.2.1.0~2,12~.0~5,10~.0~10,12~.0~13,18~]nonadec-19-yl](hydroxy)acetate
PRECURSORMZ:  561.19774977783
PRECURSORTYPE:  [M+FA-H]-
FORMULA:  C27H32O10
Ontology: ;;;
INCHIKEY:  SZIDPCXTWHHMAY-UHFFFAOYNA-N
SMILES:  COC(=O)C(O)C1C2(C)CC3(O)C(C(=O)C2O)C24OC22CC(=O)OC(C5=COC=C5)C2(C)CCC4C13C
RETENTIONTIME:  
CCS:  -1
IONMODE:  Negative
INSTRUMENTTYPE:  
INSTRUMENT:  Maxis II HD Q-TOF Bruker
COLLISIONENERGY:  
Comment:  DB#=CCMSLIB00000849626; origin=GNPS
Num Peaks:  123
100.10105	10.0
109.02652	10.0
117.03006	10.0
122.03653	30.0
123.07973	20.0
131.03406	10.0
135.03888	30.0
135.08928	20.0
137.06044	290.0
139.04057	70.0
139.88664	20.0
141.05498	10.0
147.04585	30.0
149.06172	20.0
151.05757	20.0
151.07526	40.0
159.06575	20.0
161.84824	30.0
165.05174	10.0
167.07068	50.0
169.05313	20.0
173.06227	20.0
178.06229	10.0
179.0715	30.0
179.12114	10.0
181.08707	20.0
183.06387	30.0
191.0719	40.0
193.0524	30.0
193.08746	20.0
195.06325	40.0
197.07918	10.0
207.06004	40.0
209.04741	30.0
209.0811	110.0
211.06221	30.0
215.07323	10.0
218.06822	10.0
219.06627	40.0
225.09435	10.0
225.1321	10.0
227.069	10.0
229.08733	10.0
231.23779	20.0
237.07281	80.0
242.05157	20.0
242.32552	10.0
243.06029	10.0
243.13522	10.0
245.08226	560.0
245.14999	10.0
247.0932	20.0
249.07913	10.0
251.0997	20.0
253.08818	10.0
255.11316	20.0
257.08356	20.0
257.16217	10.0
259.19336	20.0
268.09625	20.0
269.08701	10.0
269.11438	10.0
271.10132	40.0
271.13425	20.0
273.11423	10.0
278.10083	10.0
281.14969	10.0
283.12918	20.0
287.12659	30.0
289.14456	10.0
295.15747	10.0
297.11282	20.0
299.0929	230.0
301.11392	10.0
301.14294	40.0
304.108	10.0
315.12692	20.0
317.10086	50.0
324.0965	10.0
325.10645	20.0
325.14484	20.0
331.15204	10.0
333.15283	10.0
341.18481	10.0
347.13019	120.0
351.17667	10.0
353.14029	110.0
355.15747	20.0
359.15042	10.0
361.14359	20.0
365.14075	50.0
369.15137	10.0
373.13156	20.0
377.14667	40.0
379.16223	20.0
381.13937	70.0
383.15161	10.0
391.11835	100.0
391.15659	40.0
393.16748	30.0
395.15259	30.0
397.16922	20.0
403.15927	10.0
405.1452	30.0
409.1553	40.0
411.16376	20.0
419.16101	20.0
419.20819	10.0
423.14786	60.0
427.17224	30.0
437.1611	60.0
439.18506	10.0
441.15289	40.0
447.15091	20.0
455.1741	120.0
465.16495	30.0
479.16446	20.0
483.16721	510.0
497.19034	70.0
500.18756	10.0
515.19318	1000.0
516.19226	10.0
565.21997	10.0

NAME:  NCGC00380503-01_C22H24O10_2-(beta-D-Glucopyranosyloxy)benzyl (2E)-3-(3,4-dihydroxyphenyl)acrylate
PRECURSORMZ:  493.13514952083
PRECURSORTYPE:  [M+FA-H]-
FORMULA:  C22H24O10
Ontology: Kingdom: Organic compounds;Superclass: Organic oxygen compounds;Class: Organooxygen compounds;Subclass: Carbohydrates and carbohydrate conjugates
INCHIKEY:  KMQUGCQVIDIVLT-UHFFFAOYNA-N
SMILES:  OCC1OC(OC2=CC=CC=C2COC(=O)C=CC2=CC(O)=C(O)C=C2)C(O)C(O)C1O
RETENTIONTIME:  
CCS:  -1
IONMODE:  Negative
INSTRUMENTTYPE:  
INSTRUMENT:  Maxis II HD Q-TOF Bruker
COLLISIONENERGY:  
Comment:  DB#=CCMSLIB00000850112; origin=GNPS
Num Peaks:  13
123.04491	40.0
133.03056	20.0
134.03606	40.0
135.04483	310.0
137.02411	10.0
161.02344	160.0
178.02695	10.0
179.03485	1000.0
241.08954	20.0
285.07748	190.0
323.07779	30.0
341.09009	10.0
447.13065	890.0

NAME:  Pesticide5_Sulfentrazone_C11H10Cl2F2N4O3S_N-{2,4-Dichloro-5-[4-(difluoromethyl)-3-methyl-5-oxo-4,5-dihydro-1H-1,2,4-triazol-1-yl]phenyl}methanesulfonamide
PRECURSORMZ:  384.97459664783
PRECURSORTYPE:  [M-H]-
FORMULA:  C11H10Cl2F2N4O3S
Ontology: Kingdom: Organic compounds;Superclass: Organoheterocyclic compounds;Class: Azoles;Subclass: Triazoles
INCHIKEY:  OORLZFUTLGXMEF-UHFFFAOYSA-N
SMILES:  CC1=NN(C(=O)N1C(F)F)C1=C(Cl)C=C(Cl)C(NS(C)(=O)=O)=C1
RETENTIONTIME:  
CCS:  170.5116969
IONMODE:  Negative
INSTRUMENTTYPE:  
INSTRUMENT:  Q-Exactive Plus Orbitrap Res 70k
COLLISIONENERGY:  
Comment:  DB#=CCMSLIB00001058436; origin=GNPS
Num Peaks:  15
76.96994	20.0
171.96057	20.0
189.98196	10.0
198.94766	130.0
199.95561	40.0
221.02391	10.0
225.95869	50.0
231.00047	20.0
239.97395	70.0
244.95667	10.0
299.00119	20.0
305.98965	130.0
306.99738	550.0
334.97903	30.0
384.97479	1000.0

NAME:  NCGC00380205-01_C27H35ClN4O6_2(6H)-Isoquinolineacetic acid, 7-(acetyloxy)-alpha-[3-[(aminoiminomethyl)amino]propyl]-5-chloro-3-[(1E,3E)-3,5-dimethyl-1,3-heptadien-1-yl]-7,8-dihydro-7-methyl-6,8-dioxo-
PRECURSORMZ:  545.21723614783
PRECURSORTYPE:  [M-H]-
FORMULA:  C27H35ClN4O6
Ontology: Kingdom: Organic compounds;Superclass: Organic acids and derivatives;Class: Carboxylic acids and derivatives;Subclass: Amino acids
INCHIKEY:  PHSKBYXSIKEPBQ-UHFFFAOYNA-N
SMILES:  CCC(C)C=C(C)C=CC1=CC2=C(Cl)C(=O)C(C)(OC(C)=O)C(=O)C2=CN1C(CCCNC(N)=N)C(O)=O
RETENTIONTIME:  
CCS:  -1
IONMODE:  Negative
INSTRUMENTTYPE:  
INSTRUMENT:  Maxis II HD Q-TOF Bruker
COLLISIONENERGY:  
Comment:  DB#=CCMSLIB00000850811; origin=GNPS
Num Peaks:  50
173.0585	10.0
184.59648	10.0
197.10995	10.0
200.0732	10.0
208.01611	20.0
213.7276	10.0
219.00948	20.0
248.10936	10.0
250.99947	20.0
261.79578	10.0
282.14661	10.0
283.11511	20.0
284.05185	20.0
284.17029	10.0
298.05649	30.0
308.16656	30.0
310.1442	80.0
311.14825	20.0
320.16788	30.0
324.16028	20.0
324.19611	10.0
326.1402	10.0
327.09811	50.0
327.75888	20.0
328.10992	930.0
329.1246	20.0
330.12689	20.0
334.18277	110.0
335.20721	30.0
341.12195	30.0
344.15366	10.0
345.13925	40.0
346.11984	50.0
346.18118	30.0
352.15475	20.0
369.10007	10.0
370.11917	110.0
387.33813	10.0
388.13187	1000.0
389.15851	10.0
399.19006	30.0
405.23053	30.0
406.2215	10.0
417.20432	60.0
424.18109	40.0
441.2056	940.0
441.28348	10.0
459.22162	20.0
483.21872	50.0
501.22299	20.0

NAME:  NCGC00179755-02_C15H16O6_(2S,3S,4aS)-2,3,7-Trihydroxy-9-methoxy-4a-methyl-2,3,4,4a-tetrahydro-6H-benzo[c]chromen-6-one
PRECURSORMZ:  337.09289078283
PRECURSORTYPE:  [M+FA-H]-
FORMULA:  C15H16O6
Ontology: Kingdom: Organic compounds;Superclass: Organoheterocyclic compounds;Class: Benzopyrans;
INCHIKEY:  MMHTXEATDNFMMY-UHFFFAOYNA-N
SMILES:  COC1=CC2=C(C(=O)OC3(C)CC(O)C(O)C=C23)C(O)=C1
RETENTIONTIME:  
CCS:  -1
IONMODE:  Negative
INSTRUMENTTYPE:  
INSTRUMENT:  Maxis II HD Q-TOF Bruker
COLLISIONENERGY:  
Comment:  DB#=CCMSLIB00000850391; origin=GNPS
Num Peaks:  9
149.1978	20.0
174.03104	10.0
196.04811	30.0
229.08218	10.0
232.03389	20.0
245.07558	20.0
247.09293	40.0
248.06694	30.0
291.08716	1000.0

NAME:  NCGC00380393-01_C15H20O4_Pentaleno[1,6a-c]pyran-9-carboxylic acid, 1,3,4,5,6,7,7a,9a-octahydro-4,6,6-trimethyl-3-oxo-, (4S,4aR,7aS,9aR)-
PRECURSORMZ:  309.13436167183
PRECURSORTYPE:  [M+FA-H]-
FORMULA:  C15H20O4
Ontology: Kingdom: Organic compounds;Superclass: Lipids and lipid;Class: Prenol lipids;Subclass: Terpene lactones
INCHIKEY:  MRLXXQBBRNRWDA-UHFFFAOYNA-N
SMILES:  CC1C(=O)OCC2C(=CC3CC(C)(C)CC123)C(O)=O
RETENTIONTIME:  
CCS:  -1
IONMODE:  Negative
INSTRUMENTTYPE:  
INSTRUMENT:  Maxis II HD Q-TOF Bruker
COLLISIONENERGY:  
Comment:  DB#=CCMSLIB00000850684; origin=GNPS
Num Peaks:  4
191.14374	30.0
219.13803	300.0
248.80333	10.0
263.12778	1000.0

NAME:  NCGC00347837-02_C42H58N8O7_1,4,7,10,13,16,19-Heptaazacyclotricosane-2,5,8,11,14,17,20-heptone, 3-(1H-indol-3-ylmethyl)-6,18-dimethyl-15-(1-methylethyl)-9-(2-methylpropyl)-12-(1-phenylethyl)-
PRECURSORMZ:  821.4122474999
PRECURSORTYPE:  [M+Cl]-
FORMULA:  C42H58N8O7
Ontology: Kingdom: Organic compounds;Superclass: Organic acids and derivatives;Class: Peptidomimetics;Subclass: Hybrid peptides
INCHIKEY:  JYHXDMQYXCMDPF-UHFFFAOYNA-N
SMILES:  CC(C)CC1N=C(O)C(N=C(O)C(N=C(O)C(C)N=C(O)CCCN=C(O)C(CC2=CNC3=CC=CC=C23)N=C(O)C(C)N=C1O)C(C)C)C(C)C1=CC=CC=C1
RETENTIONTIME:  
CCS:  -1
IONMODE:  Negative
INSTRUMENTTYPE:  
INSTRUMENT:  Maxis II HD Q-TOF Bruker
COLLISIONENERGY:  
Comment:  DB#=CCMSLIB00000850942; origin=GNPS
Num Peaks:  69
87.05803	30.0
125.03503	40.0
127.05207	30.0
137.02446	30.0
139.08575	40.0
143.04774	30.0
144.07315	20.0
155.07835	30.0
165.10391	50.0
188.07021	20.0
211.12128	20.0
226.12033	30.0
229.12889	40.0
230.12251	20.0
233.13261	30.0
240.03021	20.0
243.1499	20.0
255.7545	20.0
259.14865	30.0
269.12238	20.0
271.17151	50.0
272.00381	20.0
276.16949	50.0
276.28448	20.0
281.1976	20.0
297.20099	40.0
328.1936	40.0
338.23605	20.0
339.13702	10.0
341.16699	20.0
343.20975	40.0
348.20618	20.0
354.22186	50.0
356.22833	20.0
358.19043	30.0
366.20477	10.0
368.19684	20.0
371.25897	30.0
381.22156	20.0
382.22369	10.0
386.55627	30.0
389.25845	10.0
399.23956	70.0
408.22659	20.0
460.29352	110.0
469.26743	20.0
471.27872	20.0
482.26944	30.0
489.284	90.0
514.32928	10.0
528.30579	40.0
533.30322	20.0
568.30225	40.0
580.32605	30.0
599.35376	10.0
601.31653	20.0
612.37634	20.0
618.33661	50.0
644.36981	10.0
656.37769	80.0
696.01038	20.0
701.38342	10.0
773.46332	30.0
774.42712	20.0
784.47247	10.0
785.43726	1000.0
786.4303	100.0
821.42847	170.0
822.42627	10.0

NAME:  NCGC00380522-01_C20H30O4_1-Phenanthrenecarboxylic acid, 1,2,3,4,4a,4b,5,6,7,9,10,10a-dodecahydro-7-hydroxy-1,4a-dimethyl-7-(1-methylethyl)-9-oxo-
PRECURSORMZ:  379.21261199383
PRECURSORTYPE:  [M+FA-H]-
FORMULA:  C20H30O4
Ontology: Kingdom: Organic compounds;Superclass: Lipids and lipid;Class: Prenol lipids;Subclass: Diterpenoids
INCHIKEY:  UFEHYRPBLFGEJW-UHFFFAOYNA-N
SMILES:  CC(C)C1(O)CCC2C(=C1)C(=O)CC1C2(C)CCCC1(C)C(O)=O
RETENTIONTIME:  
CCS:  -1
IONMODE:  Negative
INSTRUMENTTYPE:  
INSTRUMENT:  Maxis II HD Q-TOF Bruker
COLLISIONENERGY:  
Comment:  DB#=CCMSLIB00000851345; origin=GNPS
Num Peaks:  8
124.27758	10.0
190.68965	10.0
191.14989	20.0
210.54341	10.0
254.15674	20.0
333.20688	1000.0
351.22345	20.0
1243.95068	20.0

NAME:  NCGC00169820-03_C42H66O14_Hexopyranose, 1-O-[3-[(6-deoxyhexopyranosyl)oxy]-27-hydroxy-27,28-dioxoolean-12-en-28-yl]-
PRECURSORMZ:  839.44345935283
PRECURSORTYPE:  [M+FA-H]-
FORMULA:  C42H66O14
Ontology: Kingdom: Organic compounds;Superclass: Lipids and lipid;Class: Prenol lipids;Subclass: Terpene glycosides
INCHIKEY:  ZCBRYYRPNSHPER-UHFFFAOYNA-N
SMILES:  CC1OC(OC2CCC3(C)C(CCC4(C)C3CC=C3C5CC(C)(C)CCC5(CCC43C(O)=O)C(=O)OC3OC(CO)C(O)C(O)C3O)C2(C)C)C(O)C(O)C1O
RETENTIONTIME:  
CCS:  -1
IONMODE:  Negative
INSTRUMENTTYPE:  
INSTRUMENT:  Maxis II HD Q-TOF Bruker
COLLISIONENERGY:  
Comment:  DB#=CCMSLIB00000849325; origin=GNPS
Num Peaks:  32
101.02341	40.0
140.96822	50.0
145.01855	10.0
149.05782	30.0
165.05162	30.0
173.06029	20.0
202.98639	30.0
219.0643	30.0
257.52969	30.0
283.06601	20.0
314.09219	10.0
320.09366	20.0
381.10156	20.0
393.16266	30.0
410.84137	50.0
455.38153	20.0
565.22455	30.0
585.29633	20.0
587.39331	1000.0
588.38922	50.0
590.97461	30.0
593.14899	30.0
597.88684	20.0
615.24969	30.0
629.43848	30.0
653.40186	20.0
659.13226	20.0
672.43079	20.0
675.28076	10.0
725.24561	30.0
753.00085	20.0
846.23431	20.0

NAME:  NCGC00385224-01_C24H42O12_6-Hydroxy-2,6,10,10-tetramethyl-1-oxaspiro[4.5]dec-8-yl 6-O-[(2R,3R,4R)-3,4-dihydroxy-4-(hydroxymethyl)tetrahydro-2-furanyl]-beta-D-glucopyranoside
PRECURSORMZ:  521.26035033983
PRECURSORTYPE:  [M-H]-
FORMULA:  C24H42O12
Ontology: Kingdom: Organic compounds;Superclass: Organic oxygen compounds;Class: Organooxygen compounds;Subclass: Carbohydrates and carbohydrate conjugates
INCHIKEY:  PXBJHMFLTVPWQM-UHFFFAOYNA-N
SMILES:  CC1CCC2(O1)C(C)(C)CC(CC2(C)O)OC1OC(COC2OCC(O)(CO)C2O)C(O)C(O)C1O
RETENTIONTIME:  
CCS:  -1
IONMODE:  Negative
INSTRUMENTTYPE:  
INSTRUMENT:  Maxis II HD Q-TOF Bruker
COLLISIONENERGY:  
Comment:  DB#=CCMSLIB00000850016; origin=GNPS
Num Peaks:  11
101.02265	170.0
113.01963	30.0
149.04448	80.0
161.04604	60.0
186.70851	140.0
191.04816	80.0
233.05777	90.0
389.2135	340.0
520.24811	60.0
520.34058	40.0
521.25946	1000.0

NAME:  NCGC00179726-03_C40H44O22_1,4-Ethanonaphthalene-5,10-dicarboxylic acid, 1,4,4a,5,6,8a-hexahydro-5,10-dihydroxy-6,9-dioxo-, bis[[2-(beta-D-glucopyranosyloxy)-3-hydroxyphenyl]methyl] ester
PRECURSORMZ:  911.2018243169
PRECURSORTYPE:  [M+Cl]-
FORMULA:  C40H44O22
Ontology: Kingdom: Organic compounds;Superclass: Organic oxygen compounds;Class: Organooxygen compounds;Subclass: Carbohydrates and carbohydrate conjugates
INCHIKEY:  ZVIWXYIZIRJDPV-UHFFFAOYNA-N
SMILES:  [H]C12C=CC([H])(C3C=CC(=O)C(O)(C13)C(=O)OCC1=C(OC3OC(CO)C(O)C(O)C3O)C(O)=CC=C1)C(O)(C(=O)OCC1=C(OC3OC(CO)C(O)C(O)C3O)C(O)=CC=C1)C2=O
RETENTIONTIME:  
CCS:  -1
IONMODE:  Negative
INSTRUMENTTYPE:  
INSTRUMENT:  Maxis II HD Q-TOF Bruker
COLLISIONENERGY:  
Comment:  DB#=CCMSLIB00000849722; origin=GNPS
Num Peaks:  73
88.07658	60.0
90.02853	40.0
109.02903	1000.0
110.37146	50.0
111.00458	60.0
114.05488	50.0
121.02447	40.0
122.03892	170.0
135.01158	50.0
135.0428	70.0
136.01685	100.0
139.0403	600.0
151.64357	30.0
153.01915	540.0
154.02574	60.0
159.03831	90.0
161.05649	160.0
162.03	50.0
173.0652	30.0
174.0275	40.0
175.07945	80.0
176.00211	50.0
184.28877	50.0
191.06841	90.0
201.05872	130.0
203.07085	250.0
204.04674	30.0
213.05521	60.0
217.04816	60.0
219.06355	440.0
220.0724	30.0
231.06453	340.0
232.7686	30.0
237.08046	20.0
243.03053	40.0
243.06662	40.0
245.04146	60.0
247.04378	30.0
251.09076	40.0
263.04938	140.0
275.04559	40.0
283.10278	40.0
287.05966	70.0
289.0401	40.0
295.02451	30.0
295.08392	80.0
297.08652	40.0
301.09009	420.0
302.09335	70.0
307.04996	50.0
372.04776	50.0
385.08875	30.0
389.1181	30.0
423.05194	30.0
437.10709	450.0
438.11658	100.0
501.14175	30.0
529.13934	20.0
547.13806	250.0
548.15308	30.0
563.1712	30.0
573.0658	20.0
573.12793	220.0
579.16791	40.0
580.17615	40.0
591.14124	70.0
592.12964	70.0
858.21436	20.0
875.22333	160.0
876.2265	50.0
877.23212	50.0
910.27673	30.0
911.28528	20.0

NAME:  NCGC00347774-02_C38H46O16_9,10-Diacetoxy-2-(3-furyl)-10b-methyl-4-oxododecahydro-2H-benzo[f]isochromen-7-yl (2E)-3-[4-(beta-D-glucopyranosyloxy)-3-methoxyphenyl]acrylate
PRECURSORMZ:  803.27678794883
PRECURSORTYPE:  [M+FA-H]-
FORMULA:  C38H46O16
Ontology: Kingdom: Organic compounds;Superclass: Organic oxygen compounds;Class: Organooxygen compounds;Subclass: Carbohydrates and carbohydrate conjugates
INCHIKEY:  PEIIVQGCRPEHQK-UHFFFAOYNA-N
SMILES:  COC1=C(OC2OC(CO)C(O)C(O)C2O)C=CC(C=CC(=O)OC2CC(OC(C)=O)C(OC(C)=O)C3C2CCC2C(=O)OC(CC32C)C2=COC=C2)=C1
RETENTIONTIME:  
CCS:  -1
IONMODE:  Negative
INSTRUMENTTYPE:  
INSTRUMENT:  Maxis II HD Q-TOF Bruker
COLLISIONENERGY:  
Comment:  DB#=CCMSLIB00000850780; origin=GNPS
Num Peaks:  30
109.03553	20.0
123.04568	30.0
132.01883	40.0
133.02925	190.0
134.04102	30.0
137.01839	20.0
148.05315	20.0
149.05981	20.0
150.02791	20.0
153.05797	10.0
159.8922	20.0
160.01663	280.0
161.04163	30.0
162.02736	20.0
175.03989	900.0
177.01833	60.0
178.01758	40.0
192.04858	20.0
193.04883	90.0
306.97839	10.0
317.14001	10.0
335.14581	40.0
415.14499	10.0
511.19879	40.0
553.19592	40.0
580.19659	110.0
595.21783	1000.0
595.27911	60.0
596.21899	80.0
803.26648	20.0

NAME:  NCGC00380312-01_C24H35NO4_
PRECURSORMZ:  446.25481115883
PRECURSORTYPE:  [M+FA-H]-
FORMULA:  C24H35NO4
Ontology: Kingdom: Organic compounds;Superclass: Organoheterocyclic compounds;Class: Isoindoles and derivatives;Subclass: Isoindolines
INCHIKEY:  NDJDZINMNBVVHS-UHFFFAOYNA-N
SMILES:  CC(C)CC1N=C(O)C23OC(=O)C=CCC(O)CCC(C)=CC2C=C(C)C(C)C13
RETENTIONTIME:  
CCS:  -1
IONMODE:  Negative
INSTRUMENTTYPE:  
INSTRUMENT:  Maxis II HD Q-TOF Bruker
COLLISIONENERGY:  
Comment:  DB#=CCMSLIB00000850295; origin=GNPS
Num Peaks:  6
153.66492	40.0
154.08813	1000.0
154.1638	10.0
245.16028	40.0
271.18216	40.0
400.25723	80.0

NAME:  NCGC00180255-02_C42H66O15_1-O-[(2alpha,3beta,5xi,9xi)-3-(Hexopyranuronosyloxy)-2-hydroxy-28-oxoolean-12-en-28-yl]hexopyranose
PRECURSORMZ:  809.43289497283
PRECURSORTYPE:  [M-H]-
FORMULA:  C42H66O15
Ontology: Kingdom: Organic compounds;Superclass: Lipids and lipid;Class: Prenol lipids;Subclass: Terpene glycosides
INCHIKEY:  GZNCPAASLBFTKY-UHFFFAOYNA-N
SMILES:  CC1(C)CCC2(CCC3(C)C(=CCC4C5(C)CC(O)C(OC6OC(C(O)C(O)C6O)C(O)=O)C(C)(C)C5CCC34C)C2C1)C(=O)OC1OC(CO)C(O)C(O)C1O
RETENTIONTIME:  
CCS:  269.8966068
IONMODE:  Negative
INSTRUMENTTYPE:  
INSTRUMENT:  Maxis II HD Q-TOF Bruker
COLLISIONENERGY:  
Comment:  DB#=CCMSLIB00000850082; origin=GNPS
Num Peaks:  5
113.02402	10.0
585.37976	20.0
647.37903	20.0
809.43396	1000.0
810.43793	120.0

NAME:  NCGC00380558-01_C19H24O7_2-Propenoic acid, 2-methyl-, (3aR,4S,6R,11aR)-2,3,3a,4,5,6,7,8,9,11a-decahydro-6,9-dihydroxy-6,10-dimethyl-3-methylene-2,7-dioxocyclodeca[b]furan-4-yl ester
PRECURSORMZ:  409.15040566083
PRECURSORTYPE:  [M+FA-H]-
FORMULA:  C19H24O7
Ontology: Kingdom: Organic compounds;Superclass: Lipids and lipid;Class: Prenol lipids;Subclass: Terpene lactones
INCHIKEY:  JGWDBQRLOBLTHU-UHFFFAOYNA-N
SMILES:  CC(=C)C(=O)OC1CC(C)(O)C(=O)CC(O)C(C)=CC2OC(=O)C(=C)C12
RETENTIONTIME:  
CCS:  -1
IONMODE:  Negative
INSTRUMENTTYPE:  
INSTRUMENT:  Maxis II HD Q-TOF Bruker
COLLISIONENERGY:  
Comment:  DB#=CCMSLIB00000850981; origin=GNPS
Num Peaks:  31
74.00082	100.0
79.05518	90.0
85.03089	110.0
109.02906	70.0
111.04683	80.0
137.21585	30.0
145.69998	20.0
147.07899	50.0
155.08571	90.0
165.05553	70.0
173.09003	40.0
175.07649	40.0
181.05238	320.0
183.06508	30.0
185.05916	70.0
187.1109	120.0
191.06082	50.0
197.09726	270.0
200.07425	30.0
215.10999	1000.0
217.08948	40.0
218.99277	80.0
233.1189	30.0
241.11943	70.0
257.6257	40.0
258.98584	70.0
259.09732	800.0
260.0365	40.0
260.10175	30.0
277.1073	770.0
280.04846	20.0

NAME:  kampferol-7-O-hexosyl(1-2)deoxyhexoside
PRECURSORMZ:  593.15119381383
PRECURSORTYPE:  [M-H]-
FORMULA:  C27H30O15
Ontology: Kingdom: Organic compounds;Superclass: Phenylpropanoids and polyketides;Class: Flavonoids;Subclass: Flavonoid glycosides
INCHIKEY:  ZEJXENDZTYVXDP-UHFFFAOYNA-N
SMILES:  CC1OC(OC2C(O)C(O)C(CO)OC2OC2=CC(O)=C3C(=O)C(O)=C(OC3=C2)C2=CC=C(O)C=C2)C(O)C(O)C1O
RETENTIONTIME:  
CCS:  239.0670965
IONMODE:  Negative
INSTRUMENTTYPE:  
INSTRUMENT:  qTof
COLLISIONENERGY:  
Comment:  DB#=CCMSLIB00004678864; origin=GNPS
Num Peaks:  7
284.03226	30.0
285.03952	110.0
286.04294	20.0
307.0835	10.0
593.13062	1000.0
594.13214	300.0
595.13556	60.0

NAME:  NCGC00347814-02_C29H37NO13_
PRECURSORMZ:  606.21921380283
PRECURSORTYPE:  [M-H]-
FORMULA:  C29H37NO13
Ontology: Kingdom: Organic compounds;Superclass: Organoheterocyclic compounds;Class: Isoquinolines and derivatives;Subclass: Benzylisoquinolines
INCHIKEY:  CZSDLEOHLKBTSI-UHFFFAOYNA-N
SMILES:  CC(=O)N1CCC2=C(C1CC1=CC=C(O)C=C1)C(OC1OC(COC3OCC(O)(CO)C3O)C(O)C(O)C1O)=C(O)C=C2
RETENTIONTIME:  
CCS:  -1
IONMODE:  Negative
INSTRUMENTTYPE:  
INSTRUMENT:  Maxis II HD Q-TOF Bruker
COLLISIONENERGY:  
Comment:  DB#=CCMSLIB00000849866; origin=GNPS
Num Peaks:  8
147.04178	10.0
162.05565	150.0
177.0416	20.0
205.07246	20.0
206.07936	10.0
312.12357	1000.0
606.22064	210.0
607.21875	10.0

NAME:  NCGC00380535-01_C20H28O3_12-Oxopimara-9(11),15-dien-18-oic acid
PRECURSORMZ:  361.20204730983
PRECURSORTYPE:  [M+FA-H]-
FORMULA:  C20H28O3
Ontology: Kingdom: Organic compounds;Superclass: Lipids and lipid;Class: Prenol lipids;Subclass: Diterpenoids
INCHIKEY:  VNOMXNULTAUIDL-UHFFFAOYNA-N
SMILES:  CC1(CC2CCC3C(C)(CCCC3(C)C2=CC1=O)C(O)=O)C=C
RETENTIONTIME:  
CCS:  -1
IONMODE:  Negative
INSTRUMENTTYPE:  
INSTRUMENT:  Maxis II HD Q-TOF Bruker
COLLISIONENERGY:  
Comment:  DB#=CCMSLIB00000850201; origin=GNPS
Num Peaks:  7
117.11179	20.0
153.60938	20.0
161.09102	20.0
255.17458	10.0
270.19815	20.0
271.20883	20.0
315.19775	1000.0

NAME:  NCGC00384727-01_C48H78O18_
PRECURSORMZ:  987.51701821983
PRECURSORTYPE:  [M+FA-H]-
FORMULA:  C48H78O18
Ontology: Kingdom: Organic compounds;Superclass: Lipids and lipid;Class: Prenol lipids;Subclass: Terpene glycosides
INCHIKEY:  ABTNALLHJFCFRZ-UHFFFAOYNA-N
SMILES:  CC1OC(OCC2OC(OC3CCC4(C)C(CCC5(C)C4CC=C4C6CC(C)(C)CCC6(CCC54C)C(=O)OC4OC(CO)C(O)C(O)C4O)C3(C)CO)C(O)C(O)C2O)C(O)C(O)C1O
RETENTIONTIME:  
CCS:  -1
IONMODE:  Negative
INSTRUMENTTYPE:  
INSTRUMENT:  Maxis II HD Q-TOF Bruker
COLLISIONENERGY:  
Comment:  DB#=CCMSLIB00000849470; origin=GNPS
Num Peaks:  23
101.02578	50.0
113.02621	20.0
115.0418	10.0
125.02475	30.0
131.03537	20.0
143.03355	60.0
145.04997	10.0
161.04547	150.0
163.061	30.0
205.07047	80.0
221.06633	20.0
247.0838	100.0
265.09302	20.0
323.09827	40.0
325.11084	10.0
367.12271	50.0
409.13519	30.0
469.15851	360.0
470.15826	40.0
471.34949	1000.0
472.35339	90.0
941.51624	80.0
942.51813	30.0

NAME:  NCGC00381227-01_C31H40O10_
PRECURSORMZ:  617.26035003583
PRECURSORTYPE:  [M+FA-H]-
FORMULA:  C31H40O10
Ontology: Kingdom: Organic compounds;Superclass: Lipids and lipid;Class: Prenol lipids;Subclass: Triterpenoids
INCHIKEY:  QATFYHWTNMSERU-UHFFFAOYNA-N
SMILES:  CCC(C)C(=O)OC1CC(O)C23C4OCC5(C(O)CC2C1(C)C(O)O4)C3C(=O)CC1(C)C(CC2OC512)C1=COC=C1
RETENTIONTIME:  
CCS:  -1
IONMODE:  Negative
INSTRUMENTTYPE:  
INSTRUMENT:  Maxis II HD Q-TOF Bruker
COLLISIONENERGY:  
Comment:  DB#=CCMSLIB00000849923; origin=GNPS
Num Peaks:  27
101.06709	60.0
111.04706	210.0
131.08029	40.0
137.06049	30.0
185.09605	20.0
200.19145	20.0
265.08759	40.0
272.32584	30.0
281.11142	30.0
286.4996	30.0
291.11505	50.0
309.11359	50.0
310.08087	20.0
325.12335	30.0
339.13065	80.0
357.12881	140.0
365.16306	30.0
377.16315	20.0
423.17947	30.0
425.19031	10.0
469.19965	70.0
487.2045	110.0
541.23456	10.0
553.245	210.0
571.2536	1000.0
572.26294	30.0
617.25964	130.0

NAME:  NCGC00380287-01_C28H33NO7_(1E,4S,6R,7E,11aS,14S,14aS,15S,15aR,16aS,16bS)-14-Benzyl-6-hydroxy-4,6,15,15a-tetramethyl-3,13,14,14a,15,15a,16a,16b-octahydro[1,3]dioxacyclotridecino[4,5-d]oxireno[f]isoindole-5,10,12(4H,6H)-trione
PRECURSORMZ:  540.22390495483
PRECURSORTYPE:  [M+FA-H]-
FORMULA:  C28H33NO7
Ontology: Kingdom: Organic compounds;Superclass: Alkaloids and derivatives;Class: Cytochalasans;
INCHIKEY:  LAJXCUNOQSHRJO-UHFFFAOYNA-N
SMILES:  CC1C2C(CC3=CC=CC=C3)N=C(O)C22OC(=O)OC=CC(C)(O)C(=O)C(C)CC=CC2C2OC12C
RETENTIONTIME:  
CCS:  -1
IONMODE:  Negative
INSTRUMENTTYPE:  
INSTRUMENT:  Maxis II HD Q-TOF Bruker
COLLISIONENERGY:  
Comment:  DB#=CCMSLIB00000850190; origin=GNPS
Num Peaks:  126
73.86058	70.0
89.52322	20.0
107.046	60.0
113.02377	60.0
118.06447	160.0
121.06627	130.0
123.04807	120.0
125.05839	320.0
125.13438	10.0
133.0506	40.0
146.05397	30.0
149.05943	130.0
149.08186	60.0
150.70543	30.0
150.96625	20.0
151.07108	130.0
153.49533	40.0
156.04718	60.0
161.05756	140.0
165.08853	100.0
170.47791	70.0
170.56201	30.0
172.07574	50.0
173.09283	60.0
183.1165	30.0
186.0545	130.0
187.0824	40.0
189.093	90.0
190.08276	80.0
196.07472	80.0
198.08856	250.0
202.08934	30.0
207.09583	40.0
209.1026	40.0
209.37773	30.0
209.85349	50.0
209.87329	30.0
210.08894	190.0
212.07643	50.0
212.10506	100.0
213.07463	50.0
214.08737	20.0
216.09914	100.0
217.12143	50.0
225.11497	60.0
225.64113	30.0
226.0788	50.0
228.1104	70.0
233.1109	40.0
240.10585	60.0
240.1519	70.0
241.11464	30.0
243.08617	80.0
246.11388	50.0
247.09915	40.0
248.11827	120.0
250.12723	90.0
251.10355	60.0
254.11374	50.0
255.12405	70.0
259.14172	70.0
264.10275	100.0
264.13904	180.0
266.12451	140.0
268.13623	80.0
269.10556	340.0
272.97287	40.0
274.11481	90.0
276.13812	70.0
280.1405	70.0
282.14905	1000.0
287.11459	50.0
288.14804	70.0
290.16501	40.0
293.53198	30.0
294.15164	120.0
297.13535	70.0
298.1561	90.0
304.1655	50.0
305.14911	50.0
306.15695	50.0
308.91699	20.0
312.15472	10.0
313.14621	30.0
314.15018	20.0
315.14584	130.0
316.16611	40.0
316.73279	40.0
316.79993	60.0
317.78864	20.0
318.11642	30.0
322.14093	110.0
323.15466	190.0
323.18713	60.0
324.16513	30.0
332.15756	50.0
332.28232	20.0
334.14133	70.0
335.19412	10.0
335.24216	60.0
342.14365	150.0
343.20871	70.0
348.15948	70.0
356.16864	40.0
360.16165	570.0
361.20886	170.0
370.17593	70.0
371.20337	20.0
373.15829	20.0
384.17191	30.0
386.21375	60.0
388.19183	180.0
390.19846	10.0
399.20441	60.0
404.21747	80.0
405.17691	100.0
406.20343	200.0
414.20935	200.0
429.31711	30.0
432.2132	400.0
450.23349	530.0
476.21259	70.0
494.2171	80.0
494.25006	90.0
495.21494	50.0
1973.16846	80.0

NAME:  NCGC00380320-01_C25H34O8_1H-Furo[3,4-b]xanthene-9-propanoic acid, 3,5a,6,7,8,9,9a,10-octahydro-7-hydroxy-8-(1-hydroxy-1-methylethyl)-11-methoxy-4,5a,9-trimethyl-1-oxo-, (5aS,9R,9aR)-
PRECURSORMZ:  507.22357060283
PRECURSORTYPE:  [M+FA-H]-
FORMULA:  C25H34O8
Ontology: Kingdom: Organic compounds;Superclass: Organoheterocyclic compounds;Class: Benzopyrans;
INCHIKEY:  NNOMPFCNQCRAIO-UHFFFAOYNA-N
SMILES:  COC1=C2C(=O)OCC2=C(C)C2=C1CC1C(C)(CC(O)C(C(C)(C)O)C1(C)CCC(O)=O)O2
RETENTIONTIME:  
CCS:  -1
IONMODE:  Negative
INSTRUMENTTYPE:  
INSTRUMENT:  Maxis II HD Q-TOF Bruker
COLLISIONENERGY:  
Comment:  DB#=CCMSLIB00000850313; origin=GNPS
Num Peaks:  6
191.03362	40.0
238.04665	10.0
329.13757	20.0
385.16794	10.0
389.19177	30.0
461.21988	1000.0

NAME:  Pesticide3_Neburon_C12H16Cl2N2O_Urea, N-butyl-N'-(3,4-dichlorophenyl)-N-methyl-
PRECURSORMZ:  273.05669204783
PRECURSORTYPE:  [M-H]-
FORMULA:  C12H16Cl2N2O
Ontology: ;;;
INCHIKEY:  CCGPUGMWYLICGL-UHFFFAOYSA-N
SMILES:  CCCCN(C)C(O)=NC1=CC(Cl)=C(Cl)C=C1
RETENTIONTIME:  
CCS:  161.2494087
IONMODE:  Negative
INSTRUMENTTYPE:  
INSTRUMENT:  Q-Exactive Plus Orbitrap Res 70k
COLLISIONENERGY:  
Comment:  DB#=CCMSLIB00001058267; origin=GNPS
Num Peaks:  5
149.97548	80.0
159.97284	1000.0
185.95195	350.0
216.99435	20.0
273.05707	860.0

NAME:  NCGC00169025-02_C20H22O6_Benzoic acid, 2-hydroxy-6-[2-hydroxy-6-(hydroxymethyl)-4-methylphenoxy]-3-(3-methyl-2-buten-1-yl)-
PRECURSORMZ:  357.13436197583
PRECURSORTYPE:  [M-H]-
FORMULA:  C20H22O6
Ontology: ;;;
INCHIKEY:  CQCKOPHUTBMXHC-UHFFFAOYSA-N
SMILES:  CC(C)=CCC1=C(O)C(C(O)=O)=C(OC2=C(CO)C=C(C)C=C2O)C=C1
RETENTIONTIME:  
CCS:  205.1642422
IONMODE:  Negative
INSTRUMENTTYPE:  
INSTRUMENT:  Maxis II HD Q-TOF Bruker
COLLISIONENERGY:  
Comment:  DB#=CCMSLIB00000849974; origin=GNPS
Num Peaks:  25
121.02782	40.0
123.04264	40.0
133.10104	60.0
135.045	60.0
150.02919	60.0
151.04036	90.0
152.04732	320.0
153.05505	300.0
177.09175	160.0
184.00685	30.0
188.27901	70.0
222.06865	50.0
223.07327	50.0
283.13354	40.0
295.1326	440.0
311.1326	60.0
311.21066	10.0
312.841	30.0
312.93225	10.0
313.05319	20.0
313.14542	1000.0
314.15424	40.0
316.19073	30.0
337.63159	30.0
357.13217	60.0

NAME:  NCGC00380653-01_C25H33NO6_(2R,2'R,4a'S,6'S,8a'S)-4,6'-Dihydroxy-2',5',5',8a'-tetramethyl-6-oxo-3,3',4',4a',5',6,6',7,7',8,8',8a'-dodecahydro-2'H-spiro[furo[2,3-e]isoindole-2,1'-naphthalen]-7'-yl acetate
PRECURSORMZ:  442.22351133483
PRECURSORTYPE:  [M-H]-
FORMULA:  C25H33NO6
Ontology: ;;;
INCHIKEY:  MLWSQMMSROWDTI-UHFFFAOYNA-N
SMILES:  CC1CCC2C(C)(C)C(O)C(CC2(C)C11CC2=C(O)C=C3C(O)=NCC3=C2O1)OC(C)=O
RETENTIONTIME:  
CCS:  -1
IONMODE:  Negative
INSTRUMENTTYPE:  
INSTRUMENT:  Maxis II HD Q-TOF Bruker
COLLISIONENERGY:  
Comment:  DB#=CCMSLIB00000850256; origin=GNPS
Num Peaks:  12
176.03345	90.0
177.04317	110.0
209.03336	30.0
219.64256	30.0
285.6781	30.0
299.57126	30.0
382.2077	140.0
400.21002	40.0
403.76294	10.0
442.22372	1000.0
442.80731	40.0
443.22479	30.0

NAME:  NCGC00380918-01_C25H28O12_
PRECURSORMZ:  565.15627888983
PRECURSORTYPE:  [M+FA-H]-
FORMULA:  C25H28O12
Ontology: ;;;
INCHIKEY:  QPNFBUARICHXGG-UHFFFAOYNA-N
SMILES:  OCC1OC(OC2OC=C(C3CC(O)C(=C)C23)C(O)=O)C(OC(=O)C=CC2=CC=C(O)C=C2)C(O)C1O
RETENTIONTIME:  
CCS:  -1
IONMODE:  Negative
INSTRUMENTTYPE:  
INSTRUMENT:  Maxis II HD Q-TOF Bruker
COLLISIONENERGY:  
Comment:  DB#=CCMSLIB00000850493; origin=GNPS
Num Peaks:  31
97.03436	40.0
108.02543	20.0
113.02416	70.0
117.02901	30.0
117.04491	40.0
119.04523	50.0
123.04218	60.0
144.49106	40.0
144.78217	10.0
145.02931	800.0
149.06421	160.0
161.06244	30.0
163.03961	660.0
166.54889	50.0
167.07021	190.0
179.06429	70.0
193.04289	60.0
205.04558	70.0
211.06306	90.0
217.05348	30.0
219.07114	30.0
235.05135	30.0
307.08539	170.0
325.0885	130.0
355.10779	170.0
475.16754	50.0
519.15265	1000.0
519.68866	10.0
521.10913	20.0
523.11414	20.0
523.26868	20.0

NAME:  NCGC00179705-03_C28H34N2O11_(1S,3S)-1-{[(2S,3R,4S)-2-(beta-D-Glucopyranosyloxy)-5-(methoxycarbonyl)-3-vinyl-3,4-dihydro-2H-pyran-4-yl]methyl}-2,3,4,9-tetrahydro-1H-beta-carboline-3-carboxylic acid
PRECURSORMZ:  573.20898347083
PRECURSORTYPE:  [M-H]-
FORMULA:  C28H34N2O11
Ontology: ;;;
INCHIKEY:  LHKZIVMTXZLOTP-UHFFFAOYNA-N
SMILES:  COC(=O)C1=COC(OC2OC(CO)C(O)C(O)C2O)C(C=C)C1CC1NC(CC2=C1NC1=CC=CC=C21)C(O)=O
RETENTIONTIME:  
CCS:  253.3097813
IONMODE:  Negative
INSTRUMENTTYPE:  
INSTRUMENT:  Maxis II HD Q-TOF Bruker
COLLISIONENERGY:  
Comment:  DB#=CCMSLIB00000850169; origin=GNPS
Num Peaks:  40
100.03689	10.0
113.02191	20.0
116.05026	30.0
122.02297	20.0
127.04009	20.0
142.06529	90.0
144.07823	10.0
148.041	60.0
155.06912	20.0
156.07759	40.0
157.0777	10.0
162.0549	10.0
167.06203	100.0
168.07904	40.0
169.07668	170.0
177.05519	10.0
181.07812	50.0
183.09004	40.0
185.10811	110.0
195.09534	10.0
213.06473	30.0
229.09763	250.0
263.0798	20.0
265.09824	50.0
279.11578	30.0
289.133	20.0
299.12234	30.0
309.08737	70.0
315.11401	10.0
317.12988	190.0
319.13794	10.0
331.14557	40.0
341.11511	20.0
349.16232	30.0
361.12262	160.0
375.13986	10.0
383.12778	10.0
393.14645	1000.0
541.18213	30.0
573.21155	90.0

NAME:  NCGC00381303-01_C61H98O28_(3beta,5xi,9xi,16alpha,18xi)-16-Acetoxy-13,28-epoxyoleanan-3-yl 6-deoxy-2-O-[(2S,3R,4R)-3,4-dihydroxy-4-(hydroxymethyl)tetrahydro-2-furanyl]-alpha-L-mannopyranosyl-(1->2)-D-glycero-hexopyranosyl-(1->3)-[hexopyranosyl-(1->2)]-beta-D-glucopyranosiduronic acid
PRECURSORMZ:  1277.61718606383
PRECURSORTYPE:  [M-H]-
FORMULA:  C61H98O28
Ontology: ;;;
INCHIKEY:  BOUVSSBZTIYDJB-UHFFFAOYNA-N
SMILES:  CC1OC(OC2C(O)C(O)C(CO)OC2OC2C(O)C(OC(OC3CCC4(C)C(CCC5(C)C4CCC46OCC7(CCC(C)(C)CC47)C(CC56C)OC(C)=O)C3(C)C)C2OC2OC(CO)C(O)C(O)C2O)C(O)=O)C(OC2OCC(O)(CO)C2O)C(O)C1O
RETENTIONTIME:  
CCS:  -1
IONMODE:  Negative
INSTRUMENTTYPE:  
INSTRUMENT:  Maxis II HD Q-TOF Bruker
COLLISIONENERGY:  
Comment:  DB#=CCMSLIB00000851282; origin=GNPS
Num Peaks:  3
1277.61597	1000.0
1278.61511	260.0
1279.61426	20.0

NAME:  quercetin-3-O-hexoside
PRECURSORMZ:  463.08819963183
PRECURSORTYPE:  [M-H]-
FORMULA:  C21H20O12
Ontology: ;;;
INCHIKEY:  OVSQVDMCBVZWGM-UHFFFAOYNA-N
SMILES:  OCC1OC(OC2=C(OC3=CC(O)=CC(O)=C3C2=O)C2=CC(O)=C(O)C=C2)C(O)C(O)C1O
RETENTIONTIME:  
CCS:  201.8799825
IONMODE:  Negative
INSTRUMENTTYPE:  
INSTRUMENT:  qTof
COLLISIONENERGY:  
Comment:  DB#=CCMSLIB00004678825; origin=GNPS
Num Peaks:  76
101.02621	40.0
119.02988	10.0
120.03949	30.0
123.19346	20.0
125.01398	20.0
136.0119	10.0
140.94589	10.0
151.01578	20.0
151.99483	10.0
153.06879	20.0
155.04675	30.0
171.10046	10.0
178.99069	20.0
179.99548	20.0
181.05194	20.0
183.04062	10.0
185.0013	10.0
209.0144	10.0
214.04277	30.0
214.87108	20.0
218.98279	20.0
232.97354	20.0
243.02319	30.0
243.05757	20.0
245.03969	10.0
255.03081	50.0
255.8891	10.0
257.01053	10.0
259.0116	10.0
262.06207	20.0
271.02429	130.0
271.14136	10.0
272.02734	50.0
275.87799	10.0
276.00369	10.0
277.00934	30.0
279.84067	10.0
280.61554	10.0
283.26205	20.0
289.02054	20.0
299.05777	20.0
300.02725	1000.0
300.16449	40.0
300.32755	20.0
300.67935	10.0
300.86304	10.0
301.03699	500.0
301.17316	30.0
302.03891	60.0
302.36331	20.0
302.56467	20.0
303.0365	10.0
303.49133	10.0
309.08371	20.0
313.03256	10.0
316.93619	20.0
320.99948	30.0
322.84937	10.0
337.61948	10.0
385.83743	20.0
386.86279	10.0
403.04422	20.0
421.34732	20.0
463.0899	220.0
463.18463	30.0
464.09732	40.0
465.14377	30.0
465.20483	30.0
467.20758	30.0
578.09082	10.0
579.46301	10.0
616.15118	20.0
726.4115	10.0
789.10944	10.0
902.13116	10.0
979.6004	20.0

NAME:  NCGC00179785-03_C26H32O14_Cyclopenta[c]pyran-4-carboxylic acid, 1-(beta-D-glucopyranosyloxy)-1,4a,5,6,7,7a-hexahydro-4a,7-dihydroxy-6-[[(2E)-3-(4-hydroxyphenyl)-1-oxo-2-propen-1-yl]oxy]-7-methyl-, methyl ester, (1S,4aR,6S,7R,7aS)-
PRECURSORMZ:  567.17192925783
PRECURSORTYPE:  [M-H]-
FORMULA:  C26H32O14
Ontology: ;;;
INCHIKEY:  NQXDDVZOWBZZHN-UHFFFAOYNA-N
SMILES:  COC(=O)C1=COC(OC2OC(CO)C(O)C(O)C2O)C2C(C)(O)C(CC12O)OC(=O)C=CC1=CC=C(O)C=C1
RETENTIONTIME:  
CCS:  233.9973835
IONMODE:  Negative
INSTRUMENTTYPE:  
INSTRUMENT:  Maxis II HD Q-TOF Bruker
COLLISIONENERGY:  
Comment:  DB#=CCMSLIB00000849827; origin=GNPS
Num Peaks:  43
101.02509	60.0
102.93156	10.0
103.30944	30.0
113.03365	30.0
117.0352	120.0
119.04984	120.0
137.02309	20.0
137.06004	20.0
139.04077	80.0
143.03543	20.0
145.02885	1000.0
145.46948	10.0
146.02925	20.0
147.0435	10.0
153.05731	20.0
162.752	20.0
163.03964	620.0
163.08311	30.0
165.05086	50.0
169.05125	40.0
172.28593	20.0
175.03918	20.0
179.04826	10.0
191.03609	70.0
195.06822	10.0
197.04297	20.0
203.07043	20.0
207.06842	20.0
223.0609	160.0
233.03377	30.0
241.07172	210.0
247.06149	10.0
265.08127	20.0
271.09766	20.0
285.04941	20.0
285.07483	40.0
303.09021	20.0
325.11096	10.0
385.10672	10.0
387.1088	160.0
403.12918	90.0
405.11661	20.0
567.1684	300.0

NAME:  NCGC00169152-03_C34H42O17_(1aS,1bS,2S,5aR,6S,6aS)-6-({2,3-Di-O-acetyl-6-deoxy-4-O-[(2E)-3-phenyl-2-propenoyl]-alpha-L-mannopyranosyl}oxy)-1a-(hydroxymethyl)-1a,1b,2,5a,6,6a-hexahydrooxireno[4,5]cyclopenta[1,2-c]pyran-2-yl beta-D-glucopyranoside
PRECURSORMZ:  767.24040243983
PRECURSORTYPE:  [M+FA-H]-
FORMULA:  C34H42O17
Ontology: ;;;
INCHIKEY:  JYVLOGILHBWLAE-UHFFFAOYNA-N
SMILES:  CC1OC(OC2C3OC3(CO)C3C2C=COC3OC2OC(CO)C(O)C(O)C2O)C(OC(C)=O)C(OC(C)=O)C1OC(=O)C=CC1=CC=CC=C1
RETENTIONTIME:  
CCS:  -1
IONMODE:  Negative
INSTRUMENTTYPE:  
INSTRUMENT:  Maxis II HD Q-TOF Bruker
COLLISIONENERGY:  
Comment:  DB#=CCMSLIB00000849431; origin=GNPS
Num Peaks:  33
103.05397	10.0
107.0491	10.0
113.02374	10.0
119.0354	10.0
123.04398	30.0
125.02326	10.0
126.03223	30.0
127.0396	100.0
133.02769	10.0
135.04471	30.0
137.02298	30.0
145.02873	40.0
147.04405	690.0
148.04651	10.0
149.02409	20.0
151.03833	170.0
161.06047	30.0
163.03891	150.0
169.05086	30.0
171.04298	20.0
179.05289	30.0
181.05034	100.0
193.0509	30.0
199.0605	50.0
205.05098	20.0
223.06146	130.0
257.08502	10.0
297.09775	40.0
361.11603	30.0
403.1362	50.0
445.1503	1000.0
446.15399	70.0
529.16797	20.0

NAME:  NCGC00380477-01_C24H32O7_Benzoic acid, 4-hydroxy-, (3R,4S,8aS)-2-(acetyloxy)-1,2,3,3a,4,7,8,8a-octahydro-3,8-dihydroxy-6,8a-dimethyl-3-(1-methylethyl)-4-azulenyl ester
PRECURSORMZ:  431.20752691783
PRECURSORTYPE:  [M-H]-
FORMULA:  C24H32O7
Ontology: ;;;
INCHIKEY:  KHLABRVSJLTKHQ-UHFFFAOYNA-N
SMILES:  CC(C)C1(O)C(CC2(C)C1C(OC(=O)C1=CC=C(O)C=C1)C=C(C)CC2O)OC(C)=O
RETENTIONTIME:  
CCS:  -1
IONMODE:  Negative
INSTRUMENTTYPE:  
INSTRUMENT:  Maxis II HD Q-TOF Bruker
COLLISIONENERGY:  
Comment:  DB#=CCMSLIB00000849962; origin=GNPS
Num Peaks:  6
92.02666	10.0
136.01624	820.0
137.02809	40.0
345.21106	50.0
387.21506	50.0
431.20898	1000.0

NAME:  Pesticide4_Chlorantraniliprole_C18H14BrCl2N5O2_3-Bromo-N-[4-chloro-2-methyl-6-(methylcarbamoyl)phenyl]-1-(3-chloropyridin-2-yl)-1H-pyrazole-5-carboxamide
PRECURSORMZ:  479.96351654783
PRECURSORTYPE:  [M-H]-
FORMULA:  C18H14BrCl2N5O2
Ontology: ;;;
INCHIKEY:  PSOVNZZNOMJUBI-UHFFFAOYSA-N
SMILES:  CN=C(O)C1=C(N=C(O)C2=CC(Br)=NN2C2=C(Cl)C=CC=N2)C(C)=CC(Cl)=C1
RETENTIONTIME:  
CCS:  189.5558121
IONMODE:  Negative
INSTRUMENTTYPE:  
INSTRUMENT:  Q-Exactive Plus Orbitrap Res 70k
COLLISIONENERGY:  
Comment:  DB#=CCMSLIB00001058334; origin=GNPS
Num Peaks:  6
78.9184	610.0
144.94099	530.0
166.00676	20.0
201.96263	1000.0
223.02832	90.0
350.9664	30.0

NAME:  NCGC00380807-01_C26H31N3O3_Pyrrolo[1,2-a]pyrazine-1,4-dione, 3-[[7-(1,1-dimethyl-2-propen-1-yl)-2,8-dihydro-2,2-dimethylpyrano[3,2-f]indol-6-yl]methyl]hexahydro-
PRECURSORMZ:  432.22926541783
PRECURSORTYPE:  [M-H]-
FORMULA:  C26H31N3O3
Ontology: ;;;
INCHIKEY:  GKEMOLJYROWHLA-UHFFFAOYNA-N
SMILES:  CC(C)(C=C)C1=C(CC2N=C(O)C3CCCN3C2=O)C2=C(N1)C=C1OC(C)(C)C=CC1=C2
RETENTIONTIME:  
CCS:  -1
IONMODE:  Negative
INSTRUMENTTYPE:  
INSTRUMENT:  Maxis II HD Q-TOF Bruker
COLLISIONENERGY:  
Comment:  DB#=CCMSLIB00000851001; origin=GNPS
Num Peaks:  11
125.03519	110.0
140.03557	40.0
151.05275	50.0
153.06705	1000.0
154.98698	20.0
197.05081	50.0
208.98178	30.0
278.15643	100.0
432.22763	900.0
432.31854	50.0
1904.78137	40.0

NAME:  NCGC00380712-01_C19H18O6_1,3-Cyclobutanedicarboxylic acid, 2,4-bis(4-hydroxyphenyl)-, monomethyl ester
PRECURSORMZ:  341.10306184783
PRECURSORTYPE:  [M-H]-
FORMULA:  C19H18O6
Ontology: ;;;
INCHIKEY:  WDMUSPSWMAOXCK-UHFFFAOYNA-N
SMILES:  COC(=O)C1C(C(C1C1=CC=C(O)C=C1)C(O)=O)C1=CC=C(O)C=C1
RETENTIONTIME:  
CCS:  -1
IONMODE:  Negative
INSTRUMENTTYPE:  
INSTRUMENT:  Maxis II HD Q-TOF Bruker
COLLISIONENERGY:  
Comment:  DB#=CCMSLIB00000850094; origin=GNPS
Num Peaks:  15
121.03008	170.0
143.05171	450.0
145.02618	50.0
171.04155	100.0
210.74486	40.0
211.09393	140.0
221.09471	240.0
235.07217	180.0
237.09097	340.0
263.07916	150.0
265.08444	1000.0
265.11725	210.0
297.12436	170.0
309.07605	310.0
341.10724	390.0

NAME:  NCGC00347503-03_C22H38O8_Spiro[naphthalene-1(2H),2'-oxirane]-2,3-diol, octahydro-5,6,8a-trimethyl-5-[2-(tetrahydro-3,4-dihydroxy-2,5-dimethoxy-3-furanyl)ethyl]-
PRECURSORMZ:  475.25487073183
PRECURSORTYPE:  [M+FA-H]-
FORMULA:  C22H38O8
Ontology: ;;;
INCHIKEY:  RLYPFWBODVDUHT-UHFFFAOYNA-N
SMILES:  COC1OC(OC)C(O)(CCC2(C)C(C)CCC3(C)C2CC(O)C(O)C32CO2)C1O
RETENTIONTIME:  
CCS:  -1
IONMODE:  Negative
INSTRUMENTTYPE:  
INSTRUMENT:  Maxis II HD Q-TOF Bruker
COLLISIONENERGY:  
Comment:  DB#=CCMSLIB00000850352; origin=GNPS
Num Peaks:  21
147.08063	20.0
275.15125	20.0
303.17764	20.0
311.17603	20.0
327.22009	30.0
329.18915	20.0
335.20474	10.0
349.19894	20.0
365.20035	30.0
381.2204	10.0
383.23535	30.0
393.20691	10.0
393.23349	20.0
411.23657	60.0
429.24939	1000.0
447.25705	20.0
475.05212	20.0
475.25772	330.0
498.87476	10.0
503.49597	20.0
1026.96313	10.0

NAME:  NCGC00380709-01_C32H36N2O5_(3S,3aR,4S,6S,6aR,7E,10S,11Z,13R,15E,17aR)-6,13-Dihydroxy-3-(1H-indol-3-ylmethyl)-4,10,12-trimethyl-5-methylene-2,3,3a,4,5,6,6a,9,10,13-decahydro-1H-cyclotrideca[d]isoindole-1,14,17-trione
PRECURSORMZ:  573.26062481483
PRECURSORTYPE:  [M+FA-H]-
FORMULA:  C32H36N2O5
Ontology: ;;;
INCHIKEY:  FTBNYQWFSWKCKW-UHFFFAOYNA-N
SMILES:  CC1C2C(CC3=CNC4=CC=CC=C34)N=C(O)C22C(C=CCC(C)C=C(C)C(O)C(=O)C=CC2=O)C(O)C1=C
RETENTIONTIME:  
CCS:  -1
IONMODE:  Negative
INSTRUMENTTYPE:  
INSTRUMENT:  Maxis II HD Q-TOF Bruker
COLLISIONENERGY:  
Comment:  DB#=CCMSLIB00000851406; origin=GNPS
Num Peaks:  31
138.03307	10.0
142.06444	80.0
177.06856	10.0
177.09204	10.0
186.09248	10.0
224.11182	10.0
238.12334	20.0
256.14053	20.0
267.14627	10.0
289.17618	10.0
293.20245	10.0
307.1398	10.0
336.20001	20.0
337.19025	20.0
341.1788	30.0
354.2059	40.0
355.19409	30.0
358.20813	10.0
361.15225	40.0
397.18665	40.0
398.20154	40.0
427.23517	20.0
440.25534	10.0
445.24747	10.0
456.26526	10.0
466.23251	30.0
483.26364	80.0
484.25037	390.0
499.27753	20.0
509.24524	30.0
527.25427	1000.0

NAME:  NCGC00380560-01_C26H32O9_Oxireno[4',5']pyrano[4',3':5,6]naphth[2,1-c]oxepin-3,10,12(1H,4H,10aH)-trione, 8-(3-furanyl)decahydro-5,6-dihydroxy-1,1,5a,7a,11b-pentamethyl-
PRECURSORMZ:  533.20283515783
PRECURSORTYPE:  [M+FA-H]-
FORMULA:  C26H32O9
Ontology: ;;;
INCHIKEY:  ITMCBHIQGZAEPX-UHFFFAOYNA-N
SMILES:  CC12CC(O)C3C4(C)C(CC(=O)C3(C)C11OC1C(=O)OC2C1=COC=C1)C(C)(C)OC(=O)CC4O
RETENTIONTIME:  
CCS:  -1
IONMODE:  Negative
INSTRUMENTTYPE:  
INSTRUMENT:  Maxis II HD Q-TOF Bruker
COLLISIONENERGY:  
Comment:  DB#=CCMSLIB00000849935; origin=GNPS
Num Peaks:  57
81.95067	50.0
94.87334	100.0
115.03998	60.0
123.08627	70.0
129.05571	230.0
137.06956	90.0
138.06995	110.0
151.11412	80.0
164.80217	30.0
164.86887	50.0
177.09447	80.0
183.12106	30.0
189.06206	70.0
199.10995	40.0
201.09853	80.0
213.10818	100.0
219.06894	100.0
219.09689	70.0
229.1203	80.0
231.14603	70.0
241.08058	60.0
241.12015	50.0
253.10179	50.0
263.13763	80.0
279.0961	40.0
286.07977	60.0
287.12845	50.0
287.16687	50.0
299.15369	50.0
315.12778	80.0
329.13376	20.0
331.12125	290.0
331.17111	80.0
339.16028	60.0
349.18756	130.0
365.17966	60.0
369.13348	50.0
383.18738	280.0
387.13666	100.0
409.15298	40.0
410.19003	60.0
413.19406	60.0
417.19388	50.0
427.177	470.0
440.75403	30.0
444.1265	20.0
444.95584	30.0
445.19186	1000.0
454.17166	90.0
469.19659	120.0
487.19864	560.0
533.01288	20.0
533.20538	290.0
533.26196	30.0
547.20825	10.0
844.16992	130.0
1008.97571	10.0

NAME:  NCGC00380545-01_C26H32O14_3-{(E)-2-[4-(beta-D-Glucopyranosyloxy)-2-hydroxyphenyl]vinyl}-5-hydroxyphenyl beta-D-glucopyranoside
PRECURSORMZ:  567.17192925783
PRECURSORTYPE:  [M-H]-
FORMULA:  C26H32O14
Ontology: ;;;
INCHIKEY:  HPSWAEGGWLOOKT-UHFFFAOYNA-N
SMILES:  OCC1OC(OC2=CC(O)=C(C=CC3=CC(O)=CC(OC4OC(CO)C(O)C(O)C4O)=C3)C=C2)C(O)C(O)C1O
RETENTIONTIME:  
CCS:  262.9423835
IONMODE:  Negative
INSTRUMENTTYPE:  
INSTRUMENT:  Maxis II HD Q-TOF Bruker
COLLISIONENERGY:  
Comment:  DB#=CCMSLIB00000850217; origin=GNPS
Num Peaks:  10
157.06953	20.0
159.04324	10.0
175.07474	30.0
181.07205	20.0
199.07538	50.0
201.0519	30.0
225.05392	30.0
243.06644	1000.0
405.12195	200.0
567.17468	100.0

NAME:  NCGC00380121-01_C61H96O29_Butanoic acid, 2-(acetyloxy)-2-methyl-, (3beta,5xi,9xi,15alpha,16alpha,21beta,22alpha)-22-(acetyloxy)-3-[[O-alpha-L-arabinopyranosyl-(1->3)-O-alpha-L-arabinopyranosyl-(1->3)-O-[beta-D-glucopyranosyl-(1->2)]-beta-D-glucopyranuronosyl]oxy]-15,16,28-trihydroxyolean-12-en-21-yl ester
PRECURSORMZ:  1291.59645061883
PRECURSORTYPE:  [M-H]-
FORMULA:  C61H96O29
Ontology: ;;;
INCHIKEY:  QGIIHPRMLUJLHC-UHFFFAOYNA-N
SMILES:  CCC(C)(OC(C)=O)C(=O)OC1C(OC(C)=O)C2(CO)C(O)C(O)C3(C)C(=CCC4C5(C)CCC(OC6OC(C(O)C(OC7OCC(O)C(OC8OCC(O)C(O)C8O)C7O)C6OC6OC(CO)C(O)C(O)C6O)C(O)=O)C(C)(C)C5CCC34C)C2CC1(C)C
RETENTIONTIME:  
CCS:  -1
IONMODE:  Negative
INSTRUMENTTYPE:  
INSTRUMENT:  Maxis II HD Q-TOF Bruker
COLLISIONENERGY:  
Comment:  DB#=CCMSLIB00000850703; origin=GNPS
Num Peaks:  8
117.05395	20.0
159.06462	40.0
179.05452	10.0
1007.51447	20.0
1097.56189	20.0
1291.59766	1000.0
1292.60046	210.0
1293.60938	20.0

NAME:  NCGC00347572-02_C30H39NO9_Pentanedioic acid, 2-[(2R,2'R,6'S,8a'S)-6'-(acetyloxy)-3',4',4'a,5',6,6',7',8,8',8'a-decahydro-4-hydroxy-2',5',5',8'a-tetramethyl-6-oxospiro[2H-furo[2,3-e]isoindole-2,1'(2'H)-naphthalen]-7(3H)-yl]-, (2S)-
PRECURSORMZ:  602.26068438783
PRECURSORTYPE:  [M+FA-H]-
FORMULA:  C30H39NO9
Ontology: ;;;
INCHIKEY:  QOSHGFOSXAHAJH-UHFFFAOYNA-N
SMILES:  CC1CCC2C(C)(C)C(CCC2(C)C11CC2=C(O)C=C3C(=O)N(CC3=C2O1)C(CCC(O)=O)C(O)=O)OC(C)=O
RETENTIONTIME:  
CCS:  -1
IONMODE:  Negative
INSTRUMENTTYPE:  
INSTRUMENT:  Maxis II HD Q-TOF Bruker
COLLISIONENERGY:  
Comment:  DB#=CCMSLIB00000849488; origin=GNPS
Num Peaks:  9
245.07083	10.0
408.25491	20.0
424.21368	10.0
434.23257	60.0
452.24487	80.0
494.25546	140.0
512.26611	290.0
538.24567	180.0
556.25525	1000.0

NAME:  NCGC00380910-01_C15H17NO5_2,6-Piperidinedione, 4-[2-[2-hydroxy-3-(hydroxymethyl)-5-methylphenyl]-2-oxoethyl]-
PRECURSORMZ:  290.10339619883
PRECURSORTYPE:  [M-H]-
FORMULA:  C15H17NO5
Ontology: ;;;
INCHIKEY:  LCUSCMFPERKRCU-UHFFFAOYNA-N
SMILES:  CC1=CC(CO)=C(O)C(=C1)C(=O)CC1CC(O)=NC(=O)C1
RETENTIONTIME:  
CCS:  174.0508126
IONMODE:  Negative
INSTRUMENTTYPE:  
INSTRUMENT:  Maxis II HD Q-TOF Bruker
COLLISIONENERGY:  
Comment:  DB#=CCMSLIB00000851112; origin=GNPS
Num Peaks:  8
107.0518	20.0
133.0703	80.0
149.06201	200.0
175.09383	20.0
177.05562	270.0
179.07066	1000.0
205.09366	40.0
290.12088	60.0

NAME:  Pesticide4_Metaflumizone_C24H16F6N4O2_(2E)-2-{2-(4-Cyanophenyl)-1-[3-(trifluoromethyl)phenyl]ethylidene}-N-[4-(trifluoromethoxy)phenyl]hydrazinecarboxamide
PRECURSORMZ:  505.11046829683
PRECURSORTYPE:  [M-H]-
FORMULA:  C24H16F6N4O2
Ontology: ;;;
INCHIKEY:  MIFOMMKAVSCNKQ-UHFFFAOYSA-N
SMILES:  OC(NC1=CC=C(OC(F)(F)F)C=C1)=NN=C(CC1=CC=C(C=C1)C#N)C1=CC(=CC=C1)C(F)(F)F
RETENTIONTIME:  
CCS:  179.9413059
IONMODE:  Negative
INSTRUMENTTYPE:  
INSTRUMENT:  Maxis HD qTOF
COLLISIONENERGY:  
Comment:  DB#=CCMSLIB00001058362; origin=GNPS
Num Peaks:  9
102.03265	10.0
117.04414	10.0
141.04378	30.0
214.06487	10.0
272.08698	10.0
274.0903	20.0
285.0657	40.0
302.09201	1000.0
328.07159	30.0

NAME:  NCGC00381164-01_C26H38O10_
PRECURSORMZ:  555.24469997183
PRECURSORTYPE:  [M+FA-H]-
FORMULA:  C26H38O10
Ontology: ;;;
INCHIKEY:  QPOMKOZJVOVZPQ-UHFFFAOYNA-N
SMILES:  CC1(CO)C(CCC2(C)C1CCC(=C)C2C(=O)CC1=CCOC1=O)OC1OC(CO)C(O)C(O)C1O
RETENTIONTIME:  
CCS:  -1
IONMODE:  Negative
INSTRUMENTTYPE:  
INSTRUMENT:  Maxis II HD Q-TOF Bruker
COLLISIONENERGY:  
Comment:  DB#=CCMSLIB00000850646; origin=GNPS
Num Peaks:  27
71.0146	20.0
101.02544	60.0
112.96921	30.0
113.02721	20.0
125.0248	40.0
142.03929	40.0
159.03116	40.0
161.0452	410.0
165.24829	10.0
187.12477	20.0
239.15239	20.0
254.13434	20.0
255.19095	30.0
257.14209	20.0
303.19745	530.0
304.20215	20.0
306.05063	10.0
338.38315	40.0
345.20752	20.0
347.17953	50.0
361.17569	20.0
465.24966	160.0
472.83597	30.0
508.51984	30.0
509.24234	1000.0
510.24829	20.0
555.22949	10.0

NAME:  NCGC00380876-01_C29H38O14_Methyl 1,4-bis(beta-D-glucopyranosyloxy)-3-(3-methyl-2-buten-1-yl)-2-naphthoate
PRECURSORMZ:  655.22435845183
PRECURSORTYPE:  [M+FA-H]-
FORMULA:  C29H38O14
Ontology: ;;;
INCHIKEY:  OZDABLANSWPSGY-UHFFFAOYNA-N
SMILES:  COC(=O)C1=C(OC2OC(CO)C(O)C(O)C2O)C2=CC=CC=C2C(OC2OC(CO)C(O)C(O)C2O)=C1CC=C(C)C
RETENTIONTIME:  
CCS:  -1
IONMODE:  Negative
INSTRUMENTTYPE:  
INSTRUMENT:  Maxis II HD Q-TOF Bruker
COLLISIONENERGY:  
Comment:  DB#=CCMSLIB00000849467; origin=GNPS
Num Peaks:  18
197.09528	10.0
207.08206	40.0
210.06902	10.0
225.09109	80.0
226.02815	50.0
229.0489	70.0
241.0464	30.0
243.10355	20.0
252.07851	20.0
258.04739	10.0
267.10504	30.0
269.07306	20.0
284.10486	1000.0
294.09375	10.0
378.09409	200.0
415.13385	10.0
447.16571	600.0
448.1571	10.0

NAME:  NCGC00380949-01_C28H42O5_3,5,9,23-Tetrahydroxy-18,22-cycloergosta-6,8(14)-dien-11-one
PRECURSORMZ:  503.30142699983
PRECURSORTYPE:  [M+FA-H]-
FORMULA:  C28H42O5
Ontology: ;;;
INCHIKEY:  MUYUFHKTKLPWIW-UHFFFAOYNA-N
SMILES:  CC(C)C(C)C(O)C1CC23CC(=O)C4(O)C(C=CC5(O)CC(O)CCC45C)=C2CCC3C1C
RETENTIONTIME:  
CCS:  -1
IONMODE:  Negative
INSTRUMENTTYPE:  
INSTRUMENT:  Maxis II HD Q-TOF Bruker
COLLISIONENERGY:  
Comment:  DB#=CCMSLIB00000850580; origin=GNPS
Num Peaks:  23
96.00828	210.0
139.02678	210.0
154.08398	110.0
196.09799	340.0
258.14249	120.0
270.11163	120.0
282.06158	160.0
284.13156	110.0
294.13892	180.0
299.16092	110.0
313.20828	150.0
316.14548	200.0
317.16241	210.0
321.19867	230.0
327.14871	120.0
348.16507	100.0
361.07532	100.0
399.23676	1000.0
400.23981	270.0
439.28583	680.0
442.2291	250.0
457.29453	200.0
503.29358	110.0

NAME:  NCGC00169206-02_C22H32O6_1-Naphthalenecarboxylic acid, 1,2,3,4,4a,5,8,8a-octahydro-1,4a,6-trimethyl-5-[(2,3,5-trihydroxy-4-methylene-7-oxabicyclo[4.1.0]hept-1-yl)methyl]-
PRECURSORMZ:  437.21809129783
PRECURSORTYPE:  [M+FA-H]-
FORMULA:  C22H32O6
Ontology: ;;;
INCHIKEY:  DXQHDILKRYSUPK-UHFFFAOYNA-N
SMILES:  CC1=CCC2C(C)(CCCC2(C)C(O)=O)C1CC12OC1C(O)C(=C)C(O)C2O
RETENTIONTIME:  
CCS:  -1
IONMODE:  Negative
INSTRUMENTTYPE:  
INSTRUMENT:  Maxis II HD Q-TOF Bruker
COLLISIONENERGY:  
Comment:  DB#=CCMSLIB00000851391; origin=GNPS
Num Peaks:  22
137.02509	10.0
150.06386	10.0
173.14008	10.0
191.30009	10.0
221.15454	20.0
225.12737	10.0
240.98582	10.0
243.17993	10.0
261.15015	20.0
275.16766	50.0
277.18188	10.0
289.17874	10.0
293.19064	10.0
311.19983	30.0
327.19553	10.0
329.2128	10.0
333.16946	60.0
334.01605	10.0
345.20261	20.0
355.19479	50.0
391.21368	1000.0
409.22583	30.0

NAME:  NCGC00169815-02_C36H56O9_Urs-12-ene-27,28-dioic acid, 3-[(6-deoxy-alpha-L-mannopyranosyl)oxy]-, (3beta,5xi,9xi)-
PRECURSORMZ:  677.39063593083
PRECURSORTYPE:  [M+FA-H]-
FORMULA:  C36H56O9
Ontology: ;;;
INCHIKEY:  PUOQHFWXBKTHST-UHFFFAOYNA-N
SMILES:  CC1CCC2(CCC3(C(O)=O)C(=CCC4C5(C)CCC(OC6OC(C)C(O)C(O)C6O)C(C)(C)C5CCC34C)C2C1C)C(O)=O
RETENTIONTIME:  
CCS:  -1
IONMODE:  Negative
INSTRUMENTTYPE:  
INSTRUMENT:  Maxis II HD Q-TOF Bruker
COLLISIONENERGY:  
Comment:  DB#=CCMSLIB00000851145; origin=GNPS
Num Peaks:  3
587.39648	1000.0
588.40338	10.0
631.38538	10.0

NAME:  NCGC00380320-01_C25H34O8_1H-Furo[3,4-b]xanthene-9-propanoic acid, 3,5a,6,7,8,9,9a,10-octahydro-7-hydroxy-8-(1-hydroxy-1-methylethyl)-11-methoxy-4,5a,9-trimethyl-1-oxo-, (5aS,9R,9aR)-
PRECURSORMZ:  461.21809160283
PRECURSORTYPE:  [M-H]-
FORMULA:  C25H34O8
Ontology: ;;;
INCHIKEY:  NNOMPFCNQCRAIO-UHFFFAOYNA-N
SMILES:  COC1=C2C(=O)OCC2=C(C)C2=C1CC1C(C)(CC(O)C(C(C)(C)O)C1(C)CCC(O)=O)O2
RETENTIONTIME:  
CCS:  -1
IONMODE:  Negative
INSTRUMENTTYPE:  
INSTRUMENT:  Maxis II HD Q-TOF Bruker
COLLISIONENERGY:  
Comment:  DB#=CCMSLIB00000850304; origin=GNPS
Num Peaks:  7
191.03702	60.0
315.12253	10.0
329.13989	30.0
385.16379	20.0
389.1955	20.0
403.17395	10.0
461.21912	1000.0

NAME:  NCGC00347813-02_C19H22N2O9_Uridine, 3'-(2,4-dimethoxy-6-methylbenzoate)
PRECURSORMZ:  421.12525384383
PRECURSORTYPE:  [M-H]-
FORMULA:  C19H22N2O9
Ontology: ;;;
INCHIKEY:  LQYPUZKOEZWGBX-UHFFFAOYNA-N
SMILES:  COC1=CC(OC)=C(C(=O)OC2C(CO)OC(C2O)N2C=CC(O)=NC2=O)C(C)=C1
RETENTIONTIME:  
CCS:  -1
IONMODE:  Negative
INSTRUMENTTYPE:  
INSTRUMENT:  Maxis II HD Q-TOF Bruker
COLLISIONENERGY:  
Comment:  DB#=CCMSLIB00000850754; origin=GNPS
Num Peaks:  13
121.06662	320.0
123.04506	80.0
135.04048	90.0
151.07545	920.0
182.04893	100.0
195.06592	1000.0
288.09186	40.0
290.12091	30.0
318.09146	30.0
352.1366	70.0
378.11823	310.0
421.11819	50.0
421.15948	60.0

NAME:  NCGC00385246-01_C51H84O22_beta-D-Glucopyranoside, (3beta,22beta,25R)-26-(beta-D-glucopyranosyloxy)-22-hydroxyfurost-5-en-3-yl O-6-deoxy-alpha-L-mannopyranosyl-(1->2)-O-[6-deoxy-alpha-L-mannopyranosyl-(1->4)]-
PRECURSORMZ:  1093.54362689283
PRECURSORTYPE:  [M+FA-H]-
FORMULA:  C51H84O22
Ontology: Kingdom: Organic compounds;Superclass: Lipids and lipid;Class: Steroids and steroid derivatives;Subclass: Steroidal glycosides
INCHIKEY:  LVTJOONKWUXEFR-UHFFFAOYNA-N
SMILES:  CC(CCC1(O)OC2CC3C4CC=C5CC(CCC5(C)C4CCC3(C)C2C1C)OC1OC(CO)C(OC2OC(C)C(O)C(O)C2O)C(O)C1OC1OC(C)C(O)C(O)C1O)COC1OC(CO)C(O)C(O)C1O
RETENTIONTIME:  
CCS:  -1
IONMODE:  Negative
INSTRUMENTTYPE:  
INSTRUMENT:  Maxis II HD Q-TOF Bruker
COLLISIONENERGY:  
Comment:  DB#=CCMSLIB00000849575; origin=GNPS
Num Peaks:  21
89.02317	10.0
101.02361	50.0
113.02312	50.0
119.03326	40.0
131.03339	30.0
143.03389	40.0
161.04457	20.0
163.05995	30.0
179.0545	10.0
205.07156	40.0
575.3656	10.0
593.37042	20.0
737.4118	20.0
755.42358	90.0
756.42719	20.0
883.46979	30.0
901.48328	160.0
902.487	50.0
1047.5387	1000.0
1048.54102	360.0
1049.54785	70.0

NAME:  NCGC00347771-02_C36H58O12_beta-D-Glucopyranose, 1-O-[(2alpha,3beta,5xi,9xi,18xi,19alpha)-2,3,19,23,24-pentahydroxy-28-oxoolean-12-en-28-yl]-
PRECURSORMZ:  727.39102985583
PRECURSORTYPE:  [M+FA-H]-
FORMULA:  C36H58O12
Ontology: ;;;
INCHIKEY:  FSLDBYNJYAUPDI-UHFFFAOYNA-N
SMILES:  CC1(C)CCC2(CCC3(C)C(=CCC4C5(C)CC(O)C(O)C(CO)(CO)C5CCC34C)C2C1O)C(=O)OC1OC(CO)C(O)C(O)C1O
RETENTIONTIME:  
CCS:  -1
IONMODE:  Negative
INSTRUMENTTYPE:  
INSTRUMENT:  Maxis II HD Q-TOF Bruker
COLLISIONENERGY:  
Comment:  DB#=CCMSLIB00000850241; origin=GNPS
Num Peaks:  16
306.0152	10.0
377.28622	20.0
389.28848	20.0
407.29327	120.0
441.29257	10.0
457.33258	30.0
471.32181	10.0
473.31046	10.0
501.32645	40.0
519.18036	10.0
519.33246	1000.0
520.33881	40.0
561.35217	20.0
681.38855	30.0
727.38495	70.0
728.39563	20.0

NAME:  NCGC00179726-03_C40H44O22_1,4-Ethanonaphthalene-5,10-dicarboxylic acid, 1,4,4a,5,6,8a-hexahydro-5,10-dihydroxy-6,9-dioxo-, bis[[2-(beta-D-glucopyranosyloxy)-3-hydroxyphenyl]methyl] ester
PRECURSORMZ:  875.22514660483
PRECURSORTYPE:  [M-H]-
FORMULA:  C40H44O22
Ontology: Kingdom: Organic compounds;Superclass: Organic oxygen compounds;Class: Organooxygen compounds;Subclass: Carbohydrates and carbohydrate conjugates
INCHIKEY:  ZVIWXYIZIRJDPV-UHFFFAOYNA-N
SMILES:  [H]C12C=CC([H])(C3C=CC(=O)C(O)(C13)C(=O)OCC1=C(OC3OC(CO)C(O)C(O)C3O)C(O)=CC=C1)C(O)(C(=O)OCC1=C(OC3OC(CO)C(O)C(O)C3O)C(O)=CC=C1)C2=O
RETENTIONTIME:  
CCS:  -1
IONMODE:  Negative
INSTRUMENTTYPE:  
INSTRUMENT:  Maxis II HD Q-TOF Bruker
COLLISIONENERGY:  
Comment:  DB#=CCMSLIB00000849719; origin=GNPS
Num Peaks:  75
81.03578	70.0
97.03017	10.0
108.02319	10.0
109.02956	980.0
121.02859	100.0
122.03723	240.0
123.04485	80.0
124.0162	20.0
127.03853	10.0
135.00908	30.0
135.04547	30.0
136.01564	120.0
137.02563	30.0
139.03983	650.0
143.04974	80.0
145.06459	20.0
147.04274	10.0
147.08051	10.0
152.01041	30.0
153.0188	1000.0
154.02022	20.0
157.06493	60.0
159.04591	60.0
161.05931	60.0
171.04585	10.0
173.06158	50.0
175.04132	10.0
175.0759	150.0
181.05003	10.0
183.04436	40.0
187.0403	90.0
189.05499	20.0
191.07106	110.0
199.03574	20.0
201.0558	470.0
202.05927	10.0
203.03291	10.0
203.07217	240.0
205.05145	20.0
213.05754	10.0
217.04976	100.0
219.06602	610.0
220.06731	10.0
227.03346	40.0
231.06595	180.0
243.03136	30.0
245.04565	180.0
246.04868	10.0
261.04382	20.0
263.05713	290.0
271.02811	20.0
275.05447	20.0
283.08469	40.0
284.08801	50.0
289.03223	30.0
301.09286	340.0
302.08987	10.0
315.07037	10.0
316.08008	30.0
341.10434	20.0
365.12451	10.0
393.11923	20.0
425.10269	20.0
437.10904	690.0
438.11316	80.0
503.16	10.0
529.14282	10.0
547.14337	160.0
548.14856	30.0
573.12366	140.0
574.12653	20.0
591.1358	80.0
592.13141	10.0
875.22742	130.0
876.21295	30.0

NAME:  NCGC00380868-01_C24H30O14_Methyl (2S,3R,4S)-2-(beta-D-glucopyranosyloxy)-4-{2-[(3,4,5-trihydroxybenzoyl)oxy]ethyl}-3-vinyl-3,4-dihydro-2H-pyran-5-carboxylate
PRECURSORMZ:  541.15627919383
PRECURSORTYPE:  [M-H]-
FORMULA:  C24H30O14
Ontology: Kingdom: Organic compounds;Superclass: Lipids and lipid;Class: Prenol lipids;Subclass: Terpene glycosides
INCHIKEY:  SMTKSCGLXONVGL-UHFFFAOYNA-N
SMILES:  COC(=O)C1=COC(OC2OC(CO)C(O)C(O)C2O)C(C=C)C1CCOC(=O)C1=CC(O)=C(O)C(O)=C1
RETENTIONTIME:  
CCS:  221.8929554
IONMODE:  Negative
INSTRUMENTTYPE:  
INSTRUMENT:  Maxis II HD Q-TOF Bruker
COLLISIONENERGY:  
Comment:  DB#=CCMSLIB00000850538; origin=GNPS
Num Peaks:  9
75.55685	10.0
125.0233	180.0
169.0134	1000.0
195.06476	30.0
309.06488	40.0
347.07837	40.0
361.09677	20.0
379.10001	30.0
541.15625	460.0

NAME:  NCGC00381281-01_C23H30O13_alpha-D-Glucopyranoside, 4-O-[(2E)-1-oxo-3-phenyl-2-propen-1-yl]-beta-D-fructofuranosyl, 6-acetate
PRECURSORMZ:  513.16136457383
PRECURSORTYPE:  [M-H]-
FORMULA:  C23H30O13
Ontology: ;;;
INCHIKEY:  MUVPZRLZLOTAOL-UHFFFAOYNA-N
SMILES:  CC(=O)OCC1OC(OC2(CO)OC(CO)C(OC(=O)C=CC3=CC=CC=C3)C2O)C(O)C(O)C1O
RETENTIONTIME:  
CCS:  -1
IONMODE:  Negative
INSTRUMENTTYPE:  
INSTRUMENT:  Maxis II HD Q-TOF Bruker
COLLISIONENERGY:  
Comment:  DB#=CCMSLIB00000849349; origin=GNPS
Num Peaks:  6
145.79752	20.0
147.04659	1000.0
174.25867	20.0
308.0968	50.0
466.19858	30.0
955.42236	20.0

NAME:  NCGC00380287-01_C28H33NO7_(1E,4S,6R,7E,11aS,14S,14aS,15S,15aR,16aS,16bS)-14-Benzyl-6-hydroxy-4,6,15,15a-tetramethyl-3,13,14,14a,15,15a,16a,16b-octahydro[1,3]dioxacyclotridecino[4,5-d]oxireno[f]isoindole-5,10,12(4H,6H)-trione
PRECURSORMZ:  494.21842595483
PRECURSORTYPE:  [M-H]-
FORMULA:  C28H33NO7
Ontology: Kingdom: Organic compounds;Superclass: Alkaloids and derivatives;Class: Cytochalasans;
INCHIKEY:  LAJXCUNOQSHRJO-UHFFFAOYNA-N
SMILES:  CC1C2C(CC3=CC=CC=C3)N=C(O)C22OC(=O)OC=CC(C)(O)C(=O)C(C)CC=CC2C2OC12C
RETENTIONTIME:  
CCS:  234.2114227
IONMODE:  Negative
INSTRUMENTTYPE:  
INSTRUMENT:  Maxis II HD Q-TOF Bruker
COLLISIONENERGY:  
Comment:  DB#=CCMSLIB00000850187; origin=GNPS
Num Peaks:  59
83.04868	230.0
109.0407	260.0
110.34508	60.0
125.06118	870.0
133.10204	140.0
137.09256	260.0
141.05594	230.0
142.02585	140.0
149.06412	360.0
151.07635	230.0
160.05176	90.0
162.05986	340.0
163.0712	250.0
171.07761	450.0
186.06627	220.0
191.05702	250.0
210.09125	620.0
212.1088	130.0
213.05157	180.0
214.08813	190.0
219.08456	200.0
220.28722	370.0
223.10123	140.0
226.10493	180.0
226.12567	210.0
231.10243	150.0
234.99933	180.0
254.13106	150.0
258.11185	190.0
264.13452	400.0
268.09421	280.0
268.13855	230.0
269.10782	610.0
273.13638	130.0
280.16376	280.0
282.15002	340.0
288.10843	180.0
290.15112	130.0
294.14508	250.0
295.1615	390.0
308.13208	190.0
314.11826	90.0
323.15387	80.0
328.17932	90.0
330.14316	140.0
332.17313	260.0
334.14285	70.0
335.19693	190.0
354.14719	120.0
355.15475	260.0
360.16391	330.0
361.23328	120.0
370.17203	200.0
388.19821	190.0
404.22232	80.0
404.25726	260.0
406.19693	150.0
414.20709	220.0
450.2294	1000.0

NAME:  NCGC00381111-01_C23H38N4O6_1-[(2E,4E)-6,7-Dihydroxy-2,4-octadienoyl]prolyl-N-methylvalyl-N~2~-methylalaninamide
PRECURSORMZ:  465.27185850783
PRECURSORTYPE:  [M-H]-
FORMULA:  C23H38N4O6
Ontology: ;;;
INCHIKEY:  YHEIGYJZSXWHJB-UHFFFAOYNA-N
SMILES:  CC(C)C(N(C)C(=O)C1CCCN1C(=O)C=CC=CC(O)C(C)O)C(=O)N(C)C(C)C(O)=N
RETENTIONTIME:  
CCS:  -1
IONMODE:  Negative
INSTRUMENTTYPE:  
INSTRUMENT:  Maxis II HD Q-TOF Bruker
COLLISIONENERGY:  
Comment:  DB#=CCMSLIB00000849563; origin=GNPS
Num Peaks:  41
99.00788	30.0
120.05955	30.0
127.05117	450.0
135.28618	20.0
136.04024	30.0
139.04791	70.0
149.09673	20.0
161.10776	30.0
169.10124	30.0
195.10939	10.0
205.10197	20.0
205.14381	20.0
206.08168	20.0
214.15494	40.0
223.11154	70.0
224.13292	30.0
250.11118	20.0
252.1064	40.0
264.172	20.0
282.18857	50.0
294.18213	20.0
295.18274	20.0
295.21942	10.0
306.14575	30.0
307.79355	10.0
311.22006	80.0
334.44937	20.0
336.19244	20.0
339.19763	30.0
347.21088	10.0
351.19629	20.0
359.25107	30.0
377.28885	40.0
403.26465	10.0
404.229	20.0
421.24664	1000.0
421.40732	10.0
432.2363	10.0
447.26566	60.0
447.36084	20.0
465.2739	70.0

NAME:  NCGC00347652-02_C35H53N5O7_12-Benzyl-3-isobutyl-6,9-diisopropyl-5,8-dimethyldodecahydro-1H,3H-pyrrolo[1,2-q][1,4,7,10,13,17]oxapentaazacyclononadecine-1,4,7,10,13,17(14H)-hexone
PRECURSORMZ:  690.3639003269
PRECURSORTYPE:  [M+Cl]-
FORMULA:  C35H53N5O7
Ontology: ;;;
INCHIKEY:  RPJBXUNEXVNBIF-UHFFFAOYNA-N
SMILES:  CC(C)CC1OC(=O)C2CCCN2C(=O)CCN=C(O)C(CC2=CC=CC=C2)N=C(O)C(C(C)C)N(C)C(=O)C(C(C)C)N(C)C1=O
RETENTIONTIME:  
CCS:  -1
IONMODE:  Negative
INSTRUMENTTYPE:  
INSTRUMENT:  Maxis II HD Q-TOF Bruker
COLLISIONENERGY:  
Comment:  DB#=CCMSLIB00000850742; origin=GNPS
Num Peaks:  33
111.07748	160.0
148.79922	150.0
151.07133	70.0
199.10869	140.0
201.08099	190.0
231.14984	400.0
264.87506	170.0
273.15277	140.0
281.08261	100.0
291.12366	150.0
300.00046	120.0
315.99133	250.0
331.04614	180.0
350.24841	60.0
374.99527	170.0
392.21765	90.0
397.22952	100.0
406.24155	110.0
419.14282	110.0
429.09531	70.0
445.01147	280.0
481.00693	100.0
485.25711	320.0
505.04669	230.0
508.02249	180.0
515.32111	1000.0
526.97437	150.0
529.04272	110.0
531.26715	100.0
552.99866	240.0
557.32666	180.0
602.34137	210.0
654.37695	360.0

NAME:  NCGC00381323-01_C31H42O17_Methyl (2S,3Z,4S)-3-ethylidene-2-[(6-O-hexopyranosylhexopyranosyl)oxy]-4-{2-[2-(4-hydroxyphenyl)ethoxy]-2-oxoethyl}-3,4-dihydro-2H-pyran-5-carboxylate
PRECURSORMZ:  731.24040243983
PRECURSORTYPE:  [M+FA-H]-
FORMULA:  C31H42O17
Ontology: Kingdom: Organic compounds;Superclass: Lipids and lipid;Class: Prenol lipids;Subclass: Terpene glycosides
INCHIKEY:  FVQYDVAAZIXQID-UHFFFAOYNA-N
SMILES:  COC(=O)C1=COC(OC2OC(COC3OC(CO)C(O)C(O)C3O)C(O)C(O)C2O)C(=CC)C1CC(=O)OCCC1=CC=C(O)C=C1
RETENTIONTIME:  
CCS:  -1
IONMODE:  Negative
INSTRUMENTTYPE:  
INSTRUMENT:  Maxis II HD Q-TOF Bruker
COLLISIONENERGY:  
Comment:  DB#=CCMSLIB00000851153; origin=GNPS
Num Peaks:  31
101.02442	140.0
111.00909	40.0
113.02432	20.0
119.0351	20.0
127.03995	150.0
137.05978	20.0
139.00333	40.0
139.0397	40.0
143.03333	20.0
149.02438	10.0
153.01874	30.0
161.0446	30.0
165.05661	20.0
171.03012	70.0
179.0556	180.0
181.05154	20.0
197.08348	20.0
203.05417	10.0
221.06757	70.0
223.06091	50.0
259.06387	10.0
259.09735	290.0
291.08749	1000.0
292.0882	20.0
323.09747	10.0
341.10837	20.0
361.12875	520.0
362.13278	20.0
565.17902	30.0
685.23499	250.0
686.24927	30.0

NAME:  NCGC00179785-03_C26H32O14_Cyclopenta[c]pyran-4-carboxylic acid, 1-(beta-D-glucopyranosyloxy)-1,4a,5,6,7,7a-hexahydro-4a,7-dihydroxy-6-[[(2E)-3-(4-hydroxyphenyl)-1-oxo-2-propen-1-yl]oxy]-7-methyl-, methyl ester, (1S,4aR,6S,7R,7aS)-
PRECURSORMZ:  613.17740825783
PRECURSORTYPE:  [M+FA-H]-
FORMULA:  C26H32O14
Ontology: ;;;
INCHIKEY:  NQXDDVZOWBZZHN-UHFFFAOYNA-N
SMILES:  COC(=O)C1=COC(OC2OC(CO)C(O)C(O)C2O)C2C(C)(O)C(CC12O)OC(=O)C=CC1=CC=C(O)C=C1
RETENTIONTIME:  
CCS:  -1
IONMODE:  Negative
INSTRUMENTTYPE:  
INSTRUMENT:  Maxis II HD Q-TOF Bruker
COLLISIONENERGY:  
Comment:  DB#=CCMSLIB00000849830; origin=GNPS
Num Peaks:  31
101.02416	30.0
113.02536	10.0
117.03467	30.0
119.05	130.0
137.02699	20.0
139.04108	50.0
141.01996	10.0
143.03406	30.0
145.02936	960.0
153.05434	10.0
163.03943	1000.0
169.05	30.0
177.05385	10.0
179.06128	20.0
191.03375	20.0
195.06538	20.0
197.04436	20.0
205.05434	20.0
209.04544	20.0
223.06152	340.0
241.07274	240.0
247.06485	20.0
265.07101	30.0
285.07498	40.0
303.08755	80.0
325.10681	10.0
387.10861	270.0
403.12125	20.0
405.12323	30.0
567.17365	950.0
568.17328	20.0

NAME:  NCGC00381132-01_C23H38O17_
PRECURSORMZ:  631.20910231183
PRECURSORTYPE:  [M+FA-H]-
FORMULA:  C23H38O17
Ontology: ;;;
INCHIKEY:  IHDCTQODJUDCDH-UHFFFAOYNA-N
SMILES:  CC=C(C)C(=O)OCC1OC(OCC2OC(OC3(CO)OC(CO)C(O)C3O)C(O)C(O)C2O)C(O)C(O)C1O
RETENTIONTIME:  
CCS:  -1
IONMODE:  Negative
INSTRUMENTTYPE:  
INSTRUMENT:  Maxis II HD Q-TOF Bruker
COLLISIONENERGY:  
Comment:  DB#=CCMSLIB00000851016; origin=GNPS
Num Peaks:  31
87.00867	20.0
99.04613	40.0
101.02528	30.0
113.02435	60.0
113.06125	40.0
141.01855	20.0
141.05576	60.0
143.03502	120.0
149.04683	10.0
161.04564	180.0
171.06757	20.0
179.05684	170.0
189.07639	40.0
201.0775	50.0
203.05663	130.0
221.06772	100.0
233.06654	20.0
243.08691	20.0
245.06653	10.0
261.1011	90.0
263.07913	80.0
281.08588	20.0
287.08047	10.0
303.1087	110.0
323.09964	90.0
341.10907	70.0
363.13211	10.0
485.15219	1000.0
486.14679	10.0
503.16214	300.0
585.2041	440.0

NAME:  Pesticide3_Lufenuron_C17H8Cl2F8N2O3_N-[[[2,5-Dichloro-4-(1,1,2,3,3,3-hexafluoropropoxy)phenyl]amino]carbonyl]-2,6-difluorobenzamide
PRECURSORMZ:  508.97114634783
PRECURSORTYPE:  [M-H]-
FORMULA:  C17H8Cl2F8N2O3
Ontology: ;;;
INCHIKEY:  PWPJGUXAGUPAHP-UHFFFAOYNA-N
SMILES:  OC(=NC(=O)NC1=C(Cl)C=C(OC(F)(F)C(F)C(F)(F)F)C(Cl)=C1)C1=C(F)C=CC=C1F
RETENTIONTIME:  
CCS:  163.323889
IONMODE:  Negative
INSTRUMENTTYPE:  
INSTRUMENT:  Q-Exactive Plus Orbitrap Res 70k
COLLISIONENERGY:  
Comment:  DB#=CCMSLIB00001058289; origin=GNPS
Num Peaks:  17
113.02082	30.0
130.99272	20.0
146.98749	50.0
156.02673	20.0
165.97026	20.0
174.95993	1000.0
199.95554	40.0
201.94693	290.0
258.00037	20.0
265.93936	10.0
285.94617	30.0
302.99841	60.0
305.95273	20.0
325.95816	570.0
338.9744	240.0
350.95367	40.0
452.98868	30.0

NAME:  NCGC00385663-01_C33H40O18_6-O-beta-D-Glucopyranosyl-1-O-[(2E)-3-(4-hydroxy-3,5-dimethoxyphenyl)-2-propenoyl]-2-O-[(2E)-3-(4-hydroxy-3-methoxyphenyl)-2-propenoyl]-beta-D-glucopyranose
PRECURSORMZ:  723.21418799583
PRECURSORTYPE:  [M-H]-
FORMULA:  C33H40O18
Ontology: ;;;
INCHIKEY:  QYKVHEQRAXPEEL-UHFFFAOYNA-N
SMILES:  COC1=CC(C=CC(=O)OC2OC(COC3OC(CO)C(O)C(O)C3O)C(O)C(O)C2OC(=O)C=CC2=CC(OC)=C(O)C=C2)=CC(OC)=C1O
RETENTIONTIME:  
CCS:  280.5317007
IONMODE:  Negative
INSTRUMENTTYPE:  
INSTRUMENT:  Maxis II HD Q-TOF Bruker
COLLISIONENERGY:  
Comment:  DB#=CCMSLIB00000850607; origin=GNPS
Num Peaks:  25
132.02341	70.0
134.03799	20.0
147.00838	10.0
149.02533	40.0
160.01683	410.0
164.04922	50.0
175.00291	20.0
175.03999	1000.0
176.04468	10.0
190.02797	120.0
191.03491	10.0
193.05029	40.0
205.05128	300.0
223.06111	100.0
265.0704	10.0
295.08685	20.0
325.09424	20.0
337.09189	30.0
367.10406	10.0
499.15417	10.0
517.15881	50.0
529.16187	30.0
547.16656	100.0
723.21783	120.0
724.23108	20.0

NAME:  NCGC00381308-01_C47H76O17_(3beta,5xi,9xi,18xi,22beta)-22,25-Dihydroxyolean-12-en-3-yl 6-deoxy-alpha-L-mannopyranosyl-(1->2)-beta-D-xylopyranosyl-(1->2)-beta-D-glucopyranosiduronic acid
PRECURSORMZ:  911.50097453483
PRECURSORTYPE:  [M-H]-
FORMULA:  C47H76O17
Ontology: ;;;
INCHIKEY:  NOKUIKNJHIHLGT-UHFFFAOYNA-N
SMILES:  CC1OC(OC2C(O)C(O)COC2OC2C(O)C(O)C(OC2OC2CCC3(CO)C(CCC4(C)C3CC=C3C5CC(C)(C)CC(O)C5(C)CCC43C)C2(C)C)C(O)=O)C(O)C(O)C1O
RETENTIONTIME:  
CCS:  -1
IONMODE:  Negative
INSTRUMENTTYPE:  
INSTRUMENT:  Maxis II HD Q-TOF Bruker
COLLISIONENERGY:  
Comment:  DB#=CCMSLIB00000851295; origin=GNPS
Num Peaks:  17
85.02975	20.0
99.00865	30.0
101.02567	10.0
112.01624	10.0
113.02426	110.0
115.04096	30.0
131.03461	60.0
143.03468	60.0
145.05231	10.0
157.01385	20.0
163.06169	20.0
205.0724	70.0
457.36365	20.0
893.49261	10.0
911.50348	1000.0
912.50653	250.0
913.51019	10.0

NAME:  NCGC00380288-01_C21H26O5_Tricyclo[12.3.1.1~2,6~]nonadeca-1(18),2,4,6(19),14,16-hexaene-3,9,15-triol, 16,17-dimethoxy-
PRECURSORMZ:  357.17074748483
PRECURSORTYPE:  [M-H]-
FORMULA:  C21H26O5
Ontology: ;;;
INCHIKEY:  SBGBAZQAEOWGFT-UHFFFAOYNA-N
SMILES:  COC1=C(O)C2=CC(=C1OC)C1=C(O)C=CC(CCC(O)CCCC2)=C1
RETENTIONTIME:  
CCS:  190.5671462
IONMODE:  Negative
INSTRUMENTTYPE:  
INSTRUMENT:  Maxis II HD Q-TOF Bruker
COLLISIONENERGY:  
Comment:  DB#=CCMSLIB00000850191; origin=GNPS
Num Peaks:  15
133.0643	80.0
156.11662	110.0
175.47681	60.0
227.10564	70.0
227.14351	130.0
229.87209	100.0
237.13228	60.0
252.08871	80.0
255.12524	80.0
271.13403	70.0
299.13699	140.0
327.12057	1000.0
342.14471	470.0
357.17148	830.0
358.16623	60.0

NAME:  NCGC00380170-01_C19H26O11_5-{[4-(beta-D-Glucopyranosyloxy)benzyl]oxy}-3-hydroxy-3-methyl-5-oxopentanoic acid
PRECURSORMZ:  429.14023520483
PRECURSORTYPE:  [M-H]-
FORMULA:  C19H26O11
Ontology: ;;;
INCHIKEY:  ABVDJKDAAWCYKH-UHFFFAOYNA-N
SMILES:  CC(O)(CC(O)=O)CC(=O)OCC1=CC=C(OC2OC(CO)C(O)C(O)C2O)C=C1
RETENTIONTIME:  
CCS:  211.0234656
IONMODE:  Negative
INSTRUMENTTYPE:  
INSTRUMENT:  Maxis II HD Q-TOF Bruker
COLLISIONENERGY:  
Comment:  DB#=CCMSLIB00000850892; origin=GNPS
Num Peaks:  14
81.06278	60.0
82.93822	40.0
99.04567	260.0
113.01952	70.0
125.02063	110.0
161.04152	800.0
162.63582	40.0
220.48988	60.0
261.09515	230.0
263.0741	80.0
385.17548	30.0
429.13736	1000.0
483.16251	30.0
1842.6698	90.0

NAME:  quercetin-3-O-pentoside
PRECURSORMZ:  433.07763494783
PRECURSORTYPE:  [M-H]-
FORMULA:  C20H18O11
Ontology: ;;;
INCHIKEY:  PZZRDJXEMZMZFD-UHFFFAOYNA-N
SMILES:  OC1COC(OC2=C(OC3=CC(O)=CC(O)=C3C2=O)C2=CC(O)=C(O)C=C2)C(O)C1O
RETENTIONTIME:  
CCS:  215.6517048
IONMODE:  Negative
INSTRUMENTTYPE:  
INSTRUMENT:  qTof
COLLISIONENERGY:  
Comment:  DB#=CCMSLIB00004678832; origin=GNPS
Num Peaks:  19
104.82165	10.0
151.00986	20.0
199.02614	20.0
244.97621	10.0
271.02423	40.0
300.02652	760.0
300.17874	20.0
300.23953	10.0
301.03476	370.0
302.03275	30.0
315.08252	20.0
343.01663	10.0
432.04922	10.0
433.07645	1000.0
433.23901	30.0
433.31439	10.0
434.08252	160.0
434.2298	20.0
435.10571	20.0

NAME:  NCGC00380128-01_C39H62O12_alpha-L-Mannopyranoside, (1beta,3alpha,8xi,9xi,14xi,25S)-3-hydroxyspirost-5-en-1-yl 6-deoxy-2-O-(6-deoxy-alpha-L-mannopyranosyl)-
PRECURSORMZ:  767.42232998383
PRECURSORTYPE:  [M+FA-H]-
FORMULA:  C39H62O12
Ontology: ;;;
INCHIKEY:  OWGURJWJHWYCIQ-UHFFFAOYNA-N
SMILES:  CC1C2C(CC3C4CC=C5CC(O)CC(OC6OC(C)C(O)C(O)C6OC6OC(C)C(O)C(O)C6O)C5(C)C4CCC23C)OC11CCC(C)CO1
RETENTIONTIME:  
CCS:  -1
IONMODE:  Negative
INSTRUMENTTYPE:  
INSTRUMENT:  Maxis II HD Q-TOF Bruker
COLLISIONENERGY:  
Comment:  DB#=CCMSLIB00000850715; origin=GNPS
Num Peaks:  11
145.04868	130.0
385.276	170.0
411.29129	110.0
429.30325	160.0
473.29666	20.0
575.35876	750.0
576.36377	50.0
721.41791	1000.0
722.42255	90.0
767.42151	40.0
768.44312	10.0

NAME:  NCGC00380667-01_C15H20N2O4S2_Pyrazino[1,2-a]indole-1,4-dione, 2,3,5a,6,10,10a-hexahydro-6-hydroxy-3-(hydroxymethyl)-2-methyl-3,10a-bis(methylthio)-, (3R,5aS,6S,10aR)-
PRECURSORMZ:  401.08465202783
PRECURSORTYPE:  [M+FA-H]-
FORMULA:  C15H20N2O4S2
Ontology: ;;;
INCHIKEY:  OVBAGMZLGLXSBN-UHFFFAOYNA-N
SMILES:  CSC12CC3=CC=CC(O)C3N1C(=O)C(CO)(SC)N(C)C2=O
RETENTIONTIME:  
CCS:  -1
IONMODE:  Negative
INSTRUMENTTYPE:  
INSTRUMENT:  Maxis II HD Q-TOF Bruker
COLLISIONENERGY:  
Comment:  DB#=CCMSLIB00000849758; origin=GNPS
Num Peaks:  9
102.81462	20.0
137.21378	50.0
168.05386	70.0
244.0247	50.0
262.03918	720.0
262.41516	20.0
262.49792	20.0
277.06345	1000.0
332.11746	40.0

NAME:  NCGC00380557-01_C53H84O22_1-O-[(3beta,5xi,9xi)-3-{[6-Deoxy-alpha-L-mannopyranosyl-(1->3)-beta-D-xylopyranosyl-(1->2)-beta-D-glucopyranuronosyl]oxy}-28-oxoolean-12-en-28-yl]-beta-D-glucopyranose
PRECURSORMZ:  1071.53814789283
PRECURSORTYPE:  [M-H]-
FORMULA:  C53H84O22
Ontology: ;;;
INCHIKEY:  GERYLLMWVVIZJZ-UHFFFAOYNA-N
SMILES:  CC1OC(OC2C(O)COC(OC3C(O)C(O)C(OC3OC3CCC4(C)C(CCC5(C)C4CC=C4C6CC(C)(C)CCC6(CCC54C)C(=O)OC4OC(CO)C(O)C(O)C4O)C3(C)C)C(O)=O)C2O)C(O)C(O)C1O
RETENTIONTIME:  
CCS:  -1
IONMODE:  Negative
INSTRUMENTTYPE:  
INSTRUMENT:  Maxis II HD Q-TOF Bruker
COLLISIONENERGY:  
Comment:  DB#=CCMSLIB00000850980; origin=GNPS
Num Peaks:  6
909.48553	30.0
1069.51794	10.0
1070.53223	10.0
1071.53748	1000.0
1072.03564	20.0
1072.54053	130.0

NAME:  NCGC00380475-01_C26H34O11_beta-D-Glucopyranoside, [(2R,3R)-2,3-dihydro-2-(4-hydroxy-3-methoxyphenyl)-5-(3-hydroxypropyl)-7-methoxy-3-benzofuranyl]methyl
PRECURSORMZ:  567.20831446283
PRECURSORTYPE:  [M+FA-H]-
FORMULA:  C26H34O11
Ontology: ;;;
INCHIKEY:  VTKHRLZMWODHJA-UHFFFAOYNA-N
SMILES:  COC1=CC(CCCO)=CC2=C1OC(C2COC1OC(CO)C(O)C(O)C1O)C1=CC(OC)=C(O)C=C1
RETENTIONTIME:  
CCS:  -1
IONMODE:  Negative
INSTRUMENTTYPE:  
INSTRUMENT:  Maxis II HD Q-TOF Bruker
COLLISIONENERGY:  
Comment:  DB#=CCMSLIB00000849959; origin=GNPS
Num Peaks:  34
71.01677	10.0
96.23808	20.0
101.02654	20.0
113.02602	30.0
117.57975	30.0
131.04648	10.0
137.02525	20.0
143.03104	30.0
145.02869	10.0
149.04521	20.0
151.03906	20.0
161.05035	10.0
162.03528	30.0
179.0575	200.0
181.08131	10.0
227.10149	10.0
247.07329	20.0
255.10928	10.0
281.11972	20.0
283.09625	70.0
294.09158	30.0
296.1059	20.0
298.1268	30.0
310.08551	20.0
311.09412	210.0
311.14752	10.0
325.09341	10.0
326.11618	280.0
326.20056	10.0
339.12741	10.0
340.1319	30.0
341.14053	1000.0
341.34909	10.0
637.96735	10.0

NAME:  NCGC00380957-01_C26H38O8_1H-Benz[e]indene-6-propanoic acid, dodecahydro-2-hydroxy-7-(1-hydroxy-1-methylethyl)-9b-(methoxycarbonyl)-2,3a,6,9a-tetramethyl-4-methylene-1,3-dioxo-
PRECURSORMZ:  477.24939173183
PRECURSORTYPE:  [M-H]-
FORMULA:  C26H38O8
Ontology: Kingdom: Organic compounds;Superclass: Lipids and lipid;Class: Fatty Acyls;Subclass: Eicosanoids
INCHIKEY:  ARHZXCIVYQVVOK-UHFFFAOYNA-N
SMILES:  COC(=O)C12C(=O)C(C)(O)C(=O)C1(C)C(=C)CC1C(C)(CCC(O)=O)C(CCC21C)C(C)(C)O
RETENTIONTIME:  
CCS:  -1
IONMODE:  Negative
INSTRUMENTTYPE:  
INSTRUMENT:  Maxis II HD Q-TOF Bruker
COLLISIONENERGY:  
Comment:  DB#=CCMSLIB00000851190; origin=GNPS
Num Peaks:  14
110.00211	10.0
165.05409	10.0
263.12762	10.0
299.1951	10.0
301.1749	20.0
313.14304	10.0
319.21069	10.0
331.18634	10.0
357.20688	10.0
359.18661	10.0
359.21704	20.0
433.25891	40.0
435.22778	10.0
477.25055	1000.0

NAME:  NCGC00381002-01_C25H33NO6_Spiro[2H-furo[2,3-e]isoindole-2,1'(2'H)-naphthalen]-6(3H)-one, 7'-(acetyloxy)-3',4',4'a,5',6',7,7',8,8',8'a-decahydro-4,6'-dihydroxy-2',5',5',8'a-tetramethyl-, (2R,2'R,4a'S,6'S,8a'S)-
PRECURSORMZ:  442.22351133483
PRECURSORTYPE:  [M-H]-
FORMULA:  C25H33NO6
Ontology: Kingdom: Organic compounds;Superclass: Organoheterocyclic compounds;Class: Isoindoles and derivatives;Subclass: Isoindoles
INCHIKEY:  MLWSQMMSROWDTI-UHFFFAOYNA-N
SMILES:  CC1CCC2C(C)(C)C(O)C(CC2(C)C11CC2=C(O)C=C3C(O)=NCC3=C2O1)OC(C)=O
RETENTIONTIME:  
CCS:  -1
IONMODE:  Negative
INSTRUMENTTYPE:  
INSTRUMENT:  Maxis II HD Q-TOF Bruker
COLLISIONENERGY:  
Comment:  DB#=CCMSLIB00000851256; origin=GNPS
Num Peaks:  13
164.03566	20.0
174.46178	20.0
174.73973	20.0
176.03949	30.0
177.04228	10.0
211.03209	30.0
247.72002	10.0
316.99673	60.0
382.20197	190.0
400.20886	230.0
441.19589	20.0
442.22339	1000.0
442.3533	10.0

NAME:  NCGC00169858-03_C24H24O7_Methyl (2R)-4-hydroxy-2-[4-hydroxy-3-(3-methyl-2-buten-1-yl)benzyl]-3-(4-hydroxyphenyl)-5-oxo-2,5-dihydro-2-furancarboxylate
PRECURSORMZ:  469.15040566083
PRECURSORTYPE:  [M+FA-H]-
FORMULA:  C24H24O7
Ontology: ;;;
INCHIKEY:  NGOLMNWQNHWEKU-UHFFFAOYNA-N
SMILES:  COC(=O)C1(CC2=CC(CC=C(C)C)=C(O)C=C2)OC(=O)C(O)=C1C1=CC=C(O)C=C1
RETENTIONTIME:  
CCS:  -1
IONMODE:  Negative
INSTRUMENTTYPE:  
INSTRUMENT:  Maxis II HD Q-TOF Bruker
COLLISIONENERGY:  
Comment:  DB#=CCMSLIB00000850447; origin=GNPS
Num Peaks:  16
117.03496	10.0
133.02681	10.0
145.02943	30.0
189.01624	30.0
204.04341	110.0
205.01517	20.0
205.0507	60.0
249.0394	270.0
319.1333	40.0
351.15988	20.0
362.11505	70.0
363.12506	80.0
364.13165	1000.0
379.15646	20.0
396.12192	30.0
423.14578	40.0

NAME:  NCGC00380921-01_C57H90O29_3-O-[(2S,3R,4R)-3,4-Dihydroxy-4-(hydroxymethyl)tetrahydro-2-furanyl]-beta-D-xylopyranosyl-(1->4)-6-deoxy-alpha-L-mannopyranosyl-(1->2)-1-O-[(2beta,3beta,16alpha)-3-(beta-D-glucopyranosyloxy)-2,16,23,24-tetrahydroxy-24,28-dioxoolean-12-en-28-yl]-alpha-L-arabinopyranose
PRECURSORMZ:  1237.54950042583
PRECURSORTYPE:  [M-H]-
FORMULA:  C57H90O29
Ontology: ;;;
INCHIKEY:  MMBAMPXMNQQFQO-UHFFFAOYNA-N
SMILES:  CC1OC(OC2C(O)C(O)COC2OC(=O)C23CCC(C)(C)CC2C2=CCC4C5(C)CC(O)C(OC6OC(CO)C(O)C(O)C6O)C(CO)(C5CCC4(C)C2(C)CC3O)C(O)=O)C(O)C(O)C1OC1OCC(O)C(OC2OCC(O)(CO)C2O)C1O
RETENTIONTIME:  
CCS:  -1
IONMODE:  Negative
INSTRUMENTTYPE:  
INSTRUMENT:  Maxis II HD Q-TOF Bruker
COLLISIONENERGY:  
Comment:  DB#=CCMSLIB00000850502; origin=GNPS
Num Peaks:  33
89.0246	20.0
101.02512	10.0
113.02351	30.0
131.03419	40.0
143.03308	20.0
149.04585	10.0
205.07104	20.0
263.07562	20.0
337.11432	40.0
379.30066	10.0
391.3002	20.0
409.13388	30.0
409.30957	10.0
423.29065	90.0
441.30161	30.0
467.28134	20.0
469.15652	190.0
470.15787	10.0
471.31183	60.0
472.31528	10.0
485.2905	250.0
486.29205	30.0
541.17621	30.0
633.36865	10.0
665.35608	30.0
695.36548	20.0
1027.47461	170.0
1028.48132	50.0
1207.54175	80.0
1208.54614	20.0
1237.55066	1000.0
1238.5553	430.0
1239.55701	70.0

NAME:  NCGC00380520-01_C20H26O7_5-(3-Furyl)-2a',5'-dihydroxy-8b'-(hydroxymethyl)-7'-methyldodecahydrospiro[furan-3,6'-naphtho[1,8-bc]furan]-2-one
PRECURSORMZ:  423.16605572483
PRECURSORTYPE:  [M+FA-H]-
FORMULA:  C20H26O7
Ontology: ;;;
INCHIKEY:  DHPGIJYSTONUPM-UHFFFAOYNA-N
SMILES:  CC1CC2OCC3(O)CCC(O)C(C23CO)C11CC(OC1=O)C1=COC=C1
RETENTIONTIME:  
CCS:  -1
IONMODE:  Negative
INSTRUMENTTYPE:  
INSTRUMENT:  Maxis II HD Q-TOF Bruker
COLLISIONENERGY:  
Comment:  DB#=CCMSLIB00000849689; origin=GNPS
Num Peaks:  9
151.07922	40.0
175.11906	70.0
251.12064	40.0
255.14291	50.0
267.14197	150.0
285.15277	100.0
299.12961	90.0
329.14182	1000.0
377.16174	950.0

NAME:  NCGC00381230-01_C34H42O11_7,11-Methano-2H-cycloocta[3,4]benzo[1,2-c]pyran-8-acetic acid, alpha-(acetyloxy)-4-(3-furanyl)-1,4,4a,5,6,6a,7,8,9,10,11,12-dodecahydro-11-hydroxy-4a,7,9,9-tetramethyl-10-[[(2E)-2-methyl-1-oxo-2-buten-1-yl]oxy]-2,13-dioxo-, methyl ester
PRECURSORMZ:  625.26543571983
PRECURSORTYPE:  [M-H]-
FORMULA:  C34H42O11
Ontology: ;;;
INCHIKEY:  WTAMGABZURYMPQ-UHFFFAOYNA-N
SMILES:  COC(=O)C(OC(C)=O)C1C(C)(C)C(OC(=O)C(C)=CC)C2(O)CC3=C4CC(=O)OC(C5=COC=C5)C4(C)CCC3C1(C)C2=O
RETENTIONTIME:  
CCS:  -1
IONMODE:  Negative
INSTRUMENTTYPE:  
INSTRUMENT:  Maxis II HD Q-TOF Bruker
COLLISIONENERGY:  
Comment:  DB#=CCMSLIB00000851313; origin=GNPS
Num Peaks:  34
79.20654	140.0
99.04476	1000.0
178.64989	60.0
184.01065	130.0
186.99995	220.0
199.08122	330.0
209.10237	170.0
223.05281	180.0
223.09866	250.0
244.08287	110.0
253.08095	110.0
260.99951	240.0
271.10623	200.0
327.12674	310.0
361.14035	130.0
361.34903	300.0
365.1925	160.0
366.0256	180.0
369.16422	310.0
380.99686	170.0
404.97894	140.0
405.16837	290.0
411.1424	150.0
417.9859	140.0
421.00589	160.0
432.23547	120.0
432.28073	160.0
433.15387	190.0
447.17087	90.0
465.1875	160.0
489.01355	120.0
493.17896	200.0
521.03314	100.0
565.03235	240.0

NAME:  NCGC00169346-02_C23H28O11_Methyl (3R,4R,5R)-3,4-dihydroxy-5-({6-O-[(2E)-3-phenyl-2-propenoyl]-beta-D-glucopyranosyl}oxy)-1-cyclohexene-1-carboxylate
PRECURSORMZ:  479.15588526983
PRECURSORTYPE:  [M-H]-
FORMULA:  C23H28O11
Ontology: ;;;
INCHIKEY:  DOFMBNVUGRDDTK-UHFFFAOYNA-N
SMILES:  COC(=O)C1=CC(O)C(O)C(C1)OC1OC(COC(=O)C=CC2=CC=CC=C2)C(O)C(O)C1O
RETENTIONTIME:  
CCS:  -1
IONMODE:  Negative
INSTRUMENTTYPE:  
INSTRUMENT:  Maxis II HD Q-TOF Bruker
COLLISIONENERGY:  
Comment:  DB#=CCMSLIB00000849518; origin=GNPS
Num Peaks:  10
108.88602	50.0
133.06622	50.0
147.04369	1000.0
151.04054	110.0
161.06071	670.0
163.08304	70.0
169.13167	30.0
173.0737	50.0
189.05672	150.0
354.99509	30.0

NAME:  NCGC00347652-02_C35H53N5O7_12-Benzyl-3-isobutyl-6,9-diisopropyl-5,8-dimethyldodecahydro-1H,3H-pyrrolo[1,2-q][1,4,7,10,13,17]oxapentaazacyclononadecine-1,4,7,10,13,17(14H)-hexone
PRECURSORMZ:  654.38722261483
PRECURSORTYPE:  [M-H]-
FORMULA:  C35H53N5O7
Ontology: ;;;
INCHIKEY:  RPJBXUNEXVNBIF-UHFFFAOYNA-N
SMILES:  CC(C)CC1OC(=O)C2CCCN2C(=O)CCN=C(O)C(CC2=CC=CC=C2)N=C(O)C(C(C)C)N(C)C(=O)C(C(C)C)N(C)C1=O
RETENTIONTIME:  
CCS:  -1
IONMODE:  Negative
INSTRUMENTTYPE:  
INSTRUMENT:  Maxis II HD Q-TOF Bruker
COLLISIONENERGY:  
Comment:  DB#=CCMSLIB00000850739; origin=GNPS
Num Peaks:  62
112.07905	10.0
113.06378	50.0
116.04801	20.0
124.07671	10.0
127.08852	220.0
128.06818	10.0
130.08504	30.0
137.07497	10.0
138.05542	20.0
139.05057	10.0
141.07193	10.0
141.10638	60.0
143.11838	40.0
143.71593	10.0
153.03813	10.0
153.103	10.0
155.08098	50.0
169.09775	120.0
171.07019	20.0
173.93173	10.0
184.11707	20.0
188.14397	10.0
199.11754	10.0
208.13376	10.0
209.12967	20.0
210.1178	30.0
213.14006	40.0
214.12305	30.0
222.1619	20.0
223.14391	70.0
227.10349	10.0
227.14204	10.0
228.17229	20.0
231.15359	50.0
240.10849	10.0
241.15627	230.0
244.12657	20.0
257.12979	30.0
259.14456	20.0
273.15701	110.0
290.18716	70.0
290.96713	20.0
299.02994	10.0
303.13538	20.0
309.19675	20.0
327.21014	20.0
342.99811	10.0
349.03802	10.0
358.22284	20.0
371.19287	10.0
372.2291	80.0
401.25909	110.0
402.23624	30.0
429.24646	10.0
429.27353	10.0
443.25146	10.0
514.69055	10.0
515.32397	1000.0
515.64484	20.0
516.32544	40.0
610.39563	20.0
654.39539	70.0

NAME:  NCGC00381205-01_C27H38O6_(5xi,8alpha,9xi,10alpha)-14-Acetoxy-15-{[(2Z)-2-methyl-2-butenoyl]oxy}kaur-16-en-18-oic acid
PRECURSORMZ:  457.25956249183
PRECURSORTYPE:  [M-H]-
FORMULA:  C27H38O6
Ontology: Kingdom: Organic compounds;Superclass: Lipids and lipid;Class: Prenol lipids;Subclass: Diterpenoids
INCHIKEY:  ALSZHZPQTCVXIR-UHFFFAOYNA-N
SMILES:  [H]C12CCC3C(CCC4C3(C)CCCC4(C)C(O)=O)(C(OC(=O)C(C)=CC)C1=C)C2OC(C)=O
RETENTIONTIME:  
CCS:  -1
IONMODE:  Negative
INSTRUMENTTYPE:  
INSTRUMENT:  Maxis II HD Q-TOF Bruker
COLLISIONENERGY:  
Comment:  DB#=CCMSLIB00000851082; origin=GNPS
Num Peaks:  6
99.04564	170.0
232.83568	10.0
315.20496	30.0
356.97003	20.0
357.20914	1000.0
457.26236	150.0

NAME:  NCGC00168932-02_C18H22O10_5-Benzofuranpropanoic acid, 4-(beta-D-glucopyranosyloxy)-6-methoxy-
PRECURSORMZ:  397.11402045583
PRECURSORTYPE:  [M-H]-
FORMULA:  C18H22O10
Ontology: Kingdom: Organic compounds;Superclass: Organic oxygen compounds;Class: Organooxygen compounds;Subclass: Carbohydrates and carbohydrate conjugates
INCHIKEY:  OLFRCQFNQXYDGW-UHFFFAOYNA-N
SMILES:  COC1=CC2=C(C=CO2)C(OC2OC(CO)C(O)C(O)C2O)=C1CCC(O)=O
RETENTIONTIME:  
CCS:  -1
IONMODE:  Negative
INSTRUMENTTYPE:  
INSTRUMENT:  Maxis II HD Q-TOF Bruker
COLLISIONENERGY:  
Comment:  DB#=CCMSLIB00000850040; origin=GNPS
Num Peaks:  10
119.31756	90.0
126.93195	20.0
174.03465	70.0
175.03929	70.0
176.04649	690.0
177.04817	40.0
191.06177	90.0
217.05194	140.0
220.03976	90.0
235.05975	1000.0

NAME:  Pesticide2_Thiophanate-methyl_C12H14N4O4S2_
PRECURSORMZ:  341.03837084283
PRECURSORTYPE:  [M-H]-
FORMULA:  C12H14N4O4S2
Ontology: ;;;
INCHIKEY:  QGHREAKMXXNCOA-UHFFFAOYSA-N
SMILES:  COC(=O)NC(=S)NC1=CC=CC=C1NC(=S)NC(=O)OC
RETENTIONTIME:  
CCS:  173.8596882
IONMODE:  Negative
INSTRUMENTTYPE:  
INSTRUMENT:  Q-Exactive Plus Orbitrap Res 70k
COLLISIONENERGY:  
Comment:  DB#=CCMSLIB00001058421; origin=GNPS
Num Peaks:  8
117.04597	40.0
132.05681	100.0
149.01797	1000.0
158.03632	470.0
174.01329	20.0
190.06264	160.0
216.98978	40.0
236.9959	30.0

NAME:  NCGC00385195-01_C35H52O14_Carda-5,20(22)-dienolide, 3-[(2-O-beta-D-glucopyranosyl-beta-D-glucopyranosyl)oxy]-14-hydroxy-, (3beta)-
PRECURSORMZ:  741.33390890183
PRECURSORTYPE:  [M+FA-H]-
FORMULA:  C35H52O14
Ontology: Kingdom: Organic compounds;Superclass: Lipids and lipid;Class: Steroids and steroid derivatives;Subclass: Steroidal glycosides
INCHIKEY:  BPYRVOCFRMKMIP-UHFFFAOYNA-N
SMILES:  CC12CCC3C(CC=C4CC(CCC34C)OC3OC(CO)C(O)C(O)C3OC3OC(CO)C(O)C(O)C3O)C1(O)CCC2C1=CC(=O)OC1
RETENTIONTIME:  
CCS:  -1
IONMODE:  Negative
INSTRUMENTTYPE:  
INSTRUMENT:  Maxis II HD Q-TOF Bruker
COLLISIONENERGY:  
Comment:  DB#=CCMSLIB00000850555; origin=GNPS
Num Peaks:  14
89.02476	10.0
101.02401	40.0
113.02328	50.0
119.03409	30.0
131.03365	10.0
143.03407	20.0
161.04448	120.0
179.05545	260.0
221.06589	300.0
263.07617	170.0
371.22269	20.0
533.27594	70.0
695.32965	1000.0
696.33478	90.0

NAME:  NCGC00347379-02_C46H74O16_Olean-12-en-28-oic acid, 23-hydroxy-3-[[O-beta-D-xylopyranosyl-(1->3)-O-6-deoxy-alpha-L-mannopyranosyl-(1->2)-alpha-L-arabinopyranosyl]oxy]-, (3beta,5xi,9xi)-
PRECURSORMZ:  881.49040985083
PRECURSORTYPE:  [M-H]-
FORMULA:  C46H74O16
Ontology: Kingdom: Organic compounds;Superclass: Lipids and lipid;Class: Prenol lipids;Subclass: Triterpenoids
INCHIKEY:  IAGSHEHQJJTLLR-UHFFFAOYNA-N
SMILES:  CC1OC(OC2C(O)C(O)COC2OC2CCC3(C)C(CCC4(C)C3CC=C3C5CC(C)(C)CCC5(CCC43C)C(O)=O)C2(C)CO)C(O)C(OC2OCC(O)C(O)C2O)C1O
RETENTIONTIME:  
CCS:  306.1314293
IONMODE:  Negative
INSTRUMENTTYPE:  
INSTRUMENT:  Maxis II HD Q-TOF Bruker
COLLISIONENERGY:  
Comment:  DB#=CCMSLIB00000851217; origin=GNPS
Num Peaks:  18
127.03979	30.0
131.03676	10.0
145.04881	10.0
149.04385	10.0
423.32703	70.0
469.3338	10.0
471.3483	270.0
472.35422	20.0
525.36719	10.0
585.37994	120.0
603.39069	290.0
604.39276	30.0
731.42743	10.0
749.44855	260.0
750.45325	50.0
881.49146	1000.0
882.49432	230.0
883.49335	10.0

NAME:  NCGC00381061-01_C30H51N5O9_Pyrrolo[1,2-d][1,4,7,10,13,16]oxapentaazacyclononadecine-1,4,7,10,14,17(11H,16H)-hexone, 16-(2,3-dihydroxypropyl)dodecahydro-5,8,9,21-tetramethyl-6-(1-methylethyl)-3-(1-methylpropyl)-
PRECURSORMZ:  670.36688078983
PRECURSORTYPE:  [M+FA-H]-
FORMULA:  C30H51N5O9
Ontology: ;;;
INCHIKEY:  FFVWTCUZUPVJAB-UHFFFAOYNA-N
SMILES:  CCC(C)C1N=C(O)C2C(C)CCN2C(=O)C(CC(O)CO)OC(=O)CCN=C(O)C(C)N(C)C(=O)C(C(C)C)N(C)C1=O
RETENTIONTIME:  
CCS:  -1
IONMODE:  Negative
INSTRUMENTTYPE:  
INSTRUMENT:  Maxis II HD Q-TOF Bruker
COLLISIONENERGY:  
Comment:  DB#=CCMSLIB00000850955; origin=GNPS
Num Peaks:  38
123.05398	10.0
140.10583	10.0
150.13275	10.0
165.1049	70.0
168.09593	10.0
169.10399	10.0
173.05978	20.0
173.09267	80.0
214.1564	30.0
223.14926	30.0
234.15453	10.0
250.12915	10.0
252.16042	10.0
254.18915	60.0
275.1767	10.0
280.1777	10.0
286.18085	10.0
294.16568	20.0
308.20319	30.0
335.23712	10.0
336.22565	30.0
363.22122	10.0
368.22897	40.0
420.29456	60.0
438.3107	490.0
450.24893	10.0
466.31268	20.0
492.3309	30.0
510.33215	50.0
522.34149	20.0
534.31049	10.0
538.32965	20.0
552.33398	120.0
566.31592	50.0
623.26453	20.0
624.36237	1000.0
625.2522	10.0
625.37836	10.0

NAME:  NCGC00380599-01_C22H24O8_Benzoic acid, 3,6-dihydroxy-4-methoxy-2-methyl-, (6R,7R)-5,6,7,8-tetrahydro-7-hydroxy-7-methyl-8-oxo-3-[(1E)-1-propen-1-yl]-1H-2-benzopyran-6-yl ester
PRECURSORMZ:  415.13984128083
PRECURSORTYPE:  [M-H]-
FORMULA:  C22H24O8
Ontology: Kingdom: Organic compounds;Superclass: Organoheterocyclic compounds;Class: Azaphilones;
INCHIKEY:  XLOJLWAYOTYURW-UHFFFAOYNA-N
SMILES:  COC1=C(O)C(C)=C(C(=O)OC2CC3=C(COC(C=CC)=C3)C(=O)C2(C)O)C(O)=C1
RETENTIONTIME:  
CCS:  -1
IONMODE:  Negative
INSTRUMENTTYPE:  
INSTRUMENT:  Maxis II HD Q-TOF Bruker
COLLISIONENERGY:  
Comment:  DB#=CCMSLIB00000849277; origin=GNPS
Num Peaks:  58
72.34796	10.0
72.94518	30.0
73.63779	30.0
86.99977	20.0
97.68841	30.0
108.01761	50.0
114.31688	20.0
121.02772	20.0
121.06422	20.0
122.03687	70.0
123.04925	70.0
133.06749	40.0
135.08348	30.0
136.01643	50.0
137.02304	70.0
137.06049	20.0
138.03262	270.0
147.08078	20.0
149.05913	90.0
151.04019	400.0
152.04622	40.0
153.05412	320.0
153.28732	10.0
155.03003	40.0
159.04665	30.0
160.04694	40.0
161.0584	10.0
163.07332	20.0
165.09164	20.0
171.08493	40.0
173.05649	30.0
173.0959	10.0
174.06944	70.0
175.07518	200.0
179.03781	100.0
180.00407	20.0
182.02237	550.0
184.04808	20.0
189.05493	50.0
189.09412	80.0
191.10695	40.0
194.68042	30.0
195.84996	10.0
196.03734	930.0
196.09929	20.0
196.37926	20.0
197.04575	840.0
198.82701	30.0
201.15953	20.0
202.06943	30.0
203.06863	30.0
217.08717	1000.0
228.03177	30.0
233.07932	20.0
235.10143	90.0
251.04416	20.0
415.14951	80.0
441.03757	20.0

NAME:  NCGC00380484-01_C22H36O12_beta-D-Glucopyranose, 6-O-beta-D-glucopyranosyl-1-O-[(2,6,6-trimethyl-1-cyclohexen-1-yl)carbonyl]-
PRECURSORMZ:  491.21340014683
PRECURSORTYPE:  [M-H]-
FORMULA:  C22H36O12
Ontology: Kingdom: Organic compounds;Superclass: Organic oxygen compounds;Class: Organooxygen compounds;Subclass: Carbohydrates and carbohydrate conjugates
INCHIKEY:  URTXXFGOVQACIC-UHFFFAOYNA-N
SMILES:  CC1=C(C(=O)OC2OC(COC3OC(CO)C(O)C(O)C3O)C(O)C(O)C2O)C(C)(C)CCC1
RETENTIONTIME:  
CCS:  223.2427745
IONMODE:  Negative
INSTRUMENTTYPE:  
INSTRUMENT:  Maxis II HD Q-TOF Bruker
COLLISIONENERGY:  
Comment:  DB#=CCMSLIB00000849298; origin=GNPS
Num Peaks:  7
167.1084	1000.0
179.05876	70.0
220.82043	20.0
221.07445	80.0
263.0676	60.0
322.0444	40.0
323.10233	100.0

NAME:  NCGC00347357-02_C30H48O5_Olean-12-en-28-oic acid, 2,3,19-trihydroxy-, (2alpha,3beta,5xi,9xi,19alpha)-
PRECURSORMZ:  533.34837719383
PRECURSORTYPE:  [M+FA-H]-
FORMULA:  C30H48O5
Ontology: Kingdom: Organic compounds;Superclass: Lipids and lipid;Class: Prenol lipids;Subclass: Triterpenoids
INCHIKEY:  XJMYUPJDAFKICJ-UHFFFAOYNA-N
SMILES:  CC1(C)CCC2(CCC3(C)C(=CCC4C5(C)CC(O)C(O)C(C)(C)C5CCC34C)C2C1O)C(O)=O
RETENTIONTIME:  
CCS:  -1
IONMODE:  Negative
INSTRUMENTTYPE:  
INSTRUMENT:  Maxis II HD Q-TOF Bruker
COLLISIONENERGY:  
Comment:  DB#=CCMSLIB00000849332; origin=GNPS
Num Peaks:  6
423.32642	20.0
425.33365	10.0
427.99725	10.0
441.33426	20.0
469.33633	20.0
487.34265	1000.0

NAME:  Pesticide5_Fipronil_C12H4Cl2F6N4OS_5-Amino-1-[2,6-dichloro-4-(trifluoromethyl)phenyl]-4-[(trifluoromethyl)sulfinyl]-1H-pyrazole-3-carbonitrile
PRECURSORMZ:  434.93142984783
PRECURSORTYPE:  [M-H]-
FORMULA:  C12H4Cl2F6N4OS
Ontology: Kingdom: Organic compounds;Superclass: Organoheterocyclic compounds;Class: Azoles;Subclass: Pyrazoles
INCHIKEY:  ZOCSXAVNDGMNBV-UHFFFAOYNA-N
SMILES:  NC1=C(C(=NN1C1=C(Cl)C=C(C=C1Cl)C(F)(F)F)C#N)S(=O)C(F)(F)F
RETENTIONTIME:  
CCS:  157.9814668
IONMODE:  Negative
INSTRUMENTTYPE:  
INSTRUMENT:  Maxis HD qTOF
COLLISIONENERGY:  
Comment:  DB#=CCMSLIB00001058319; origin=GNPS
Num Peaks:  32
131.31548	10.0
162.58458	10.0
170.00626	50.0
182.00441	20.0
183.01881	80.0
217.98849	70.0
235.93867	20.0
243.99048	10.0
244.92035	10.0
245.98819	20.0
249.22102	20.0
249.96033	200.0
253.98729	30.0
267.99271	20.0
277.957	160.0
278.01468	20.0
281.99664	30.0
287.96121	30.0
317.27576	10.0
317.96976	360.0
319.96329	20.0
321.12573	20.0
329.81741	10.0
329.95993	1000.0
332.21002	20.0
332.96191	20.0
333.2742	10.0
348.93222	30.0
350.98898	20.0
365.93155	80.0
398.96115	30.0
434.94022	20.0

NAME:  NCGC00168848-03_C32H46O11_Carda-4,20(22)-dienolide, 6-(acetyloxy)-3-[(6-deoxy-3-O-methyl-beta-D-galactopyranosyl)oxy]-8,14-dihydroxy-, (3beta,8xi,9xi)-
PRECURSORMZ:  651.30221484883
PRECURSORTYPE:  [M+FA-H]-
FORMULA:  C32H46O11
Ontology: Kingdom: Organic compounds;Superclass: Lipids and lipid;Class: Steroids and steroid derivatives;Subclass: Steroidal glycosides
INCHIKEY:  DPFSNFFFCPHBOW-UHFFFAOYNA-N
SMILES:  COC1C(O)C(C)OC(OC2CCC3(C)C4CCC5(C)C(CCC5(O)C4(O)CC(OC(C)=O)C3=C2)C2=CC(=O)OC2)C1O
RETENTIONTIME:  
CCS:  -1
IONMODE:  Negative
INSTRUMENTTYPE:  
INSTRUMENT:  Maxis II HD Q-TOF Bruker
COLLISIONENERGY:  
Comment:  DB#=CCMSLIB00000850328; origin=GNPS
Num Peaks:  9
127.03937	20.0
145.04916	10.0
349.18094	10.0
367.18988	10.0
385.20081	30.0
527.26801	10.0
545.2774	20.0
563.28656	1000.0
564.29059	20.0

NAME:  NCGC00381020-01_C62H100O31_Hexopyranose, O-pentopyranosyl-(1->4)-O-pentopyranosyl-(1->4)-O--3-O-[tetrahydro-3,4-dihydroxy-4-(hydroxymethyl)-2-furanyl]pentopyranosyl-(1->2)-1-O-[(2beta,3beta,5xi,6beta,9xi,18xi)-3-[(6-deoxyhexopyranosyl)oxy]-2,6,23-trihydroxy-28-oxoolean-12-en-28-yl]-
PRECURSORMZ:  1385.62305898783
PRECURSORTYPE:  [M+FA-H]-
FORMULA:  C62H100O31
Ontology: ;;;
INCHIKEY:  CQWIBPNPRFMAOF-UHFFFAOYNA-N
SMILES:  CC1OC(OC2C(O)CC3(C)C4CC=C5C6CC(C)(C)CCC6(CCC5(C)C4(C)CC(O)C3C2(C)CO)C(=O)OC2OC(CO)C(O)C(O)C2OC2OCC(OC3OCC(OC4OCC(O)C(O)C4O)C(O)C3O)C(OC3OCC(O)(CO)C3O)C2O)C(O)C(O)C1O
RETENTIONTIME:  
CCS:  -1
IONMODE:  Negative
INSTRUMENTTYPE:  
INSTRUMENT:  Maxis II HD Q-TOF Bruker
COLLISIONENERGY:  
Comment:  DB#=CCMSLIB00000851169; origin=GNPS
Num Peaks:  90
75.00722	10.0
77.02451	20.0
85.02969	50.0
86.77158	10.0
89.02344	40.0
97.03165	10.0
99.04369	20.0
101.02416	30.0
113.02361	170.0
115.03947	30.0
125.02637	60.0
126.02986	10.0
127.0396	30.0
129.01964	30.0
131.00401	10.0
131.03453	290.0
143.03212	70.0
144.03355	20.0
145.04895	40.0
149.04614	100.0
155.02899	10.0
161.13451	10.0
173.04306	40.0
179.03848	10.0
183.56628	10.0
187.05603	20.0
191.04994	20.0
205.07196	280.0
226.99593	10.0
233.07085	10.0
259.08051	10.0
263.07828	190.0
277.06863	10.0
277.09274	20.0
278.99521	10.0
281.09723	20.0
301.10254	20.0
303.36771	10.0
319.10187	40.0
321.08267	90.0
323.10947	20.0
337.11484	390.0
338.11325	20.0
347.1008	50.0
349.10928	20.0
351.05417	10.0
357.04865	10.0
365.10849	80.0
370.03183	20.0
379.13602	10.0
391.13718	20.0
393.23788	10.0
409.13232	170.0
410.159	20.0
451.13867	20.0
469.15662	990.0
470.16132	70.0
483.16956	10.0
503.33926	30.0
541.17828	250.0
542.17896	20.0
583.19366	10.0
584.18958	20.0
601.10443	10.0
601.19861	570.0
602.20117	80.0
624.96771	10.0
631.94574	10.0
649.40924	40.0
663.37244	10.0
665.39117	630.0
666.38806	70.0
673.21765	130.0
674.22839	20.0
697.12354	10.0
963.37439	10.0
1075.55579	20.0
1118.5282	10.0
1207.57471	70.0
1208.5824	30.0
1209.59302	10.0
1246.53137	10.0
1254.776	10.0
1337.63672	20.0
1338.60608	20.0
1339.42212	10.0
1339.62256	1000.0
1340.62402	490.0
1341.62573	90.0
1384.59253	20.0

NAME:  NCGC00347421-02_C35H54O10_Olean-12-ene-23,28-dioic acid, 16-hydroxy-3-(beta-D-xylopyranosyloxy)-, (3beta,5xi,9xi,16alpha)-
PRECURSORMZ:  633.36442148683
PRECURSORTYPE:  [M-H]-
FORMULA:  C35H54O10
Ontology: Kingdom: Organic compounds;Superclass: Lipids and lipid;Class: Prenol lipids;Subclass: Triterpenoids
INCHIKEY:  CFAJIMXUZRPYDP-UHFFFAOYNA-N
SMILES:  CC1(C)CCC2(C(O)CC3(C)C(=CCC4C5(C)CCC(OC6OCC(O)C(O)C6O)C(C)(C5CCC34C)C(O)=O)C2C1)C(O)=O
RETENTIONTIME:  
CCS:  -1
IONMODE:  Negative
INSTRUMENTTYPE:  
INSTRUMENT:  Maxis II HD Q-TOF Bruker
COLLISIONENERGY:  
Comment:  DB#=CCMSLIB00000849220; origin=GNPS
Num Peaks:  6
89.02785	10.0
131.03479	20.0
149.04497	40.0
439.32391	390.0
633.36646	1000.0
634.37653	30.0

NAME:  NCGC00347826-02_C22H34O6_2-Hydroxy-2'',5'',5'',8a''-tetramethyl-5-oxododecahydro-2''H-dispiro[furan-3,2'-furan-5',1''-naphthalen]-4''-yl acetate
PRECURSORMZ:  439.23374136283
PRECURSORTYPE:  [M+FA-H]-
FORMULA:  C22H34O6
Ontology: Kingdom: Organic compounds;Superclass: Lipids and lipid;Class: Prenol lipids;Subclass: Terpene lactones
INCHIKEY:  MQGBHJVUCRXIRM-UHFFFAOYNA-N
SMILES:  CC1CC(OC(C)=O)C2C(C)(C)CCCC2(C)C11CCC2(CC(=O)OC2O)O1
RETENTIONTIME:  
CCS:  -1
IONMODE:  Negative
INSTRUMENTTYPE:  
INSTRUMENT:  Maxis II HD Q-TOF Bruker
COLLISIONENERGY:  
Comment:  DB#=CCMSLIB00000850001; origin=GNPS
Num Peaks:  3
83.05028	50.0
392.49561	30.0
393.22549	1000.0

NAME:  NCGC00347662-02_C30H40O11_Methyl 5,6-diacetoxy-10-hydroxy-2,4b,7,7,10a,12a-hexamethyl-12-methylene-1,4,8-trioxohexadecahydro-2H-naphtho[1,2-h]isochromene-2-carboxylate
PRECURSORMZ:  621.25526465583
PRECURSORTYPE:  [M+FA-H]-
FORMULA:  C30H40O11
Ontology: Kingdom: Organic compounds;Superclass: Lipids and lipid;Class: Steroids and steroid derivatives;Subclass: Oxosteroids
INCHIKEY:  FFXYBQSGDXRLHS-UHFFFAOYNA-N
SMILES:  COC(=O)C1(C)OC(=O)C2C3(C)C(OC(C)=O)C(OC(C)=O)C4C(C)(C)C(=O)CC(O)C4(C)C3CC(=C)C2(C)C1=O
RETENTIONTIME:  
CCS:  -1
IONMODE:  Negative
INSTRUMENTTYPE:  
INSTRUMENT:  Maxis II HD Q-TOF Bruker
COLLISIONENERGY:  
Comment:  DB#=CCMSLIB00000850451; origin=GNPS
Num Peaks:  60
85.71051	10.0
107.04898	80.0
149.09879	50.0
150.06602	30.0
151.40652	40.0
164.14076	30.0
187.07504	30.0
193.09097	70.0
222.3987	20.0
227.24068	20.0
229.13737	20.0
236.07027	50.0
237.00882	20.0
245.06326	10.0
254.02156	30.0
297.20685	50.0
325.20667	20.0
351.19556	50.0
379.16705	50.0
382.17902	20.0
389.19022	40.0
393.20956	20.0
397.20496	80.0
397.31665	30.0
415.2066	90.0
418.20239	120.0
421.20834	40.0
423.23972	70.0
428.9957	30.0
431.18399	30.0
431.23013	20.0
433.21848	120.0
439.21265	50.0
442.19644	30.0
443.20935	40.0
456.21362	20.0
457.22061	170.0
460.21118	150.0
470.20358	20.0
470.58295	30.0
471.23157	110.0
473.20502	20.0
474.38742	20.0
474.82901	30.0
475.23727	1000.0
477.50815	20.0
478.17157	20.0
483.2002	20.0
497.2179	30.0
499.2337	90.0
502.19937	10.0
503.43875	10.0
513.24835	30.0
517.24939	380.0
517.29529	60.0
545.22955	30.0
557.23871	310.0
557.92432	20.0
575.25592	70.0
621.24341	90.0

NAME:  NCGC00380187-01_C26H32O13_beta-D-Glucopyranoside, 2-methoxy-4-[tetrahydro-3a,6a-dihydroxy-4-(4-hydroxy-3-methoxyphenyl)-1H,3H-furo[3,4-c]furan-1-yl]phenyl
PRECURSORMZ:  597.18249363783
PRECURSORTYPE:  [M+FA-H]-
FORMULA:  C26H32O13
Ontology: Kingdom: Organic compounds;Superclass: Lignans;Class: Lignan glycosides;
INCHIKEY:  IBQVOWQTGYYRJP-UHFFFAOYNA-N
SMILES:  COC1=C(O)C=CC(=C1)C1OCC2(O)C(OCC12O)C1=CC(OC)=C(OC2OC(CO)C(O)C(O)C2O)C=C1
RETENTIONTIME:  
CCS:  -1
IONMODE:  Negative
INSTRUMENTTYPE:  
INSTRUMENT:  Maxis II HD Q-TOF Bruker
COLLISIONENERGY:  
Comment:  DB#=CCMSLIB00000850514; origin=GNPS
Num Peaks:  21
145.02795	70.0
146.03709	20.0
147.04396	20.0
149.06154	10.0
151.03958	10.0
153.05525	20.0
161.02269	40.0
162.03038	120.0
163.039	260.0
177.05522	90.0
178.02765	20.0
179.07291	10.0
180.04163	30.0
181.05052	30.0
193.0495	160.0
194.05507	40.0
195.06555	1000.0
209.04453	30.0
211.06114	50.0
389.12469	440.0
551.17426	10.0

NAME:  NCGC00380454-01_C17H24O11_2H-Pyran-4-acetic acid, 3-ethenyl-2-(beta-D-glucopyranosyloxy)-3,4-dihydro-5-(methoxycarbonyl)-, (2S,3R,4S)-
PRECURSORMZ:  403.12458514083
PRECURSORTYPE:  [M-H]-
FORMULA:  C17H24O11
Ontology: Kingdom: Organic compounds;Superclass: Lipids and lipid;Class: Prenol lipids;Subclass: Terpene glycosides
INCHIKEY:  MQLSOVRLZHTATK-UHFFFAOYNA-N
SMILES:  COC(=O)C1=COC(OC2OC(CO)C(O)C(O)C2O)C(C=C)C1CC(O)=O
RETENTIONTIME:  
CCS:  206.5198946
IONMODE:  Negative
INSTRUMENTTYPE:  
INSTRUMENT:  Maxis II HD Q-TOF Bruker
COLLISIONENERGY:  
Comment:  DB#=CCMSLIB00000850133; origin=GNPS
Num Peaks:  20
79.05531	280.0
95.04891	340.0
99.04411	270.0
101.02106	630.0
116.64036	100.0
119.04093	210.0
127.04237	310.0
131.03294	230.0
137.05788	170.0
139.00369	200.0
139.04004	160.0
149.02538	190.0
161.04277	150.0
165.05325	650.0
167.36124	150.0
191.03221	180.0
223.05833	260.0
223.07678	320.0
371.10367	1000.0
403.13342	350.0

NAME:  NCGC00380095-01_C20H24O7_2-Butenoic acid, 2-methyl-, dodecahydro-6-hydroxy-10a-methyl-4,7-bis(methylene)-3,8-dioxooxireno[8,9]cyclodeca[1,2-b]furan-5-yl ester, (2Z)-
PRECURSORMZ:  421.15040566083
PRECURSORTYPE:  [M+FA-H]-
FORMULA:  C20H24O7
Ontology: ;;;
INCHIKEY:  NHWGDYFJTDTLPV-UHFFFAOYNA-N
SMILES:  CC=C(C)C(=O)OC1C(O)C2C(CC3(C)OC3CC(=O)C1=C)OC(=O)C2=C
RETENTIONTIME:  
CCS:  -1
IONMODE:  Negative
INSTRUMENTTYPE:  
INSTRUMENT:  Maxis II HD Q-TOF Bruker
COLLISIONENERGY:  
Comment:  DB#=CCMSLIB00000850076; origin=GNPS
Num Peaks:  39
76.26567	40.0
99.04573	1000.0
109.02778	110.0
121.03015	70.0
121.06674	60.0
123.04073	100.0
123.0783	80.0
125.05816	50.0
133.06577	110.0
135.04369	70.0
143.08249	60.0
151.07875	120.0
163.07729	360.0
165.05263	60.0
169.10219	70.0
170.06664	120.0
171.08139	30.0
174.07257	60.0
177.04977	140.0
179.06419	50.0
181.04579	40.0
183.56892	80.0
185.05759	80.0
189.08971	160.0
195.08237	420.0
198.06561	90.0
202.98303	60.0
203.10657	100.0
212.07915	40.0
213.08984	320.0
214.09982	50.0
215.11183	60.0
219.0536	100.0
219.10109	60.0
231.09949	70.0
233.08363	40.0
275.08829	40.0
375.15845	340.0
380.59009	40.0

NAME:  NCGC00380434-01_C26H32O14_Methyl 1-(hexopyranosyloxy)-5,6-dihydroxy-7-({[(2E)-3-(4-hydroxyphenyl)-2-propenoyl]oxy}methyl)-1,4a,5,6,7,7a-hexahydrocyclopenta[c]pyran-4-carboxylate
PRECURSORMZ:  567.17192925783
PRECURSORTYPE:  [M-H]-
FORMULA:  C26H32O14
Ontology: ;;;
INCHIKEY:  SOLWETWNPWWTPC-UHFFFAOYNA-N
SMILES:  COC(=O)C1=COC(OC2OC(CO)C(O)C(O)C2O)C2C(COC(=O)C=CC3=CC=C(O)C=C3)C(O)C(O)C12
RETENTIONTIME:  
CCS:  -1
IONMODE:  Negative
INSTRUMENTTYPE:  
INSTRUMENT:  Maxis II HD Q-TOF Bruker
COLLISIONENERGY:  
Comment:  DB#=CCMSLIB00000849191; origin=GNPS
Num Peaks:  43
77.23504	30.0
79.46684	20.0
97.23362	40.0
99.18693	20.0
101.02578	50.0
111.00744	50.0
111.04321	30.0
117.03136	90.0
119.04671	70.0
121.17712	20.0
133.0253	30.0
135.04335	40.0
139.00528	20.0
143.03175	130.0
145.02933	440.0
155.03622	40.0
161.02843	20.0
163.03806	1000.0
164.9352	10.0
172.4164	10.0
179.02866	70.0
181.04829	40.0
209.04327	120.0
239.09027	20.0
241.0752	140.0
259.08994	20.0
286.10098	30.0
295.07986	30.0
301.11154	30.0
303.08716	60.0
309.34528	40.0
353.52914	20.0
357.22537	30.0
370.21216	20.0
373.08136	140.0
377.14227	40.0
387.09982	40.0
405.11627	620.0
423.12064	10.0
429.11273	20.0
567.16956	700.0
567.31824	10.0
1210.06982	40.0

NAME:  NCGC00380562-01_C41H66O15_Pregn-5-en-20-one, 3-[[O--6-deoxyhexopyranosyl-(1->4)-O--2,6-dideoxy-3-O-methylhexopyranosyl-(1->4)-2,6-dideoxy-3-O-methylhexopyranosyl]oxy]-11,12,14-trihydroxy-, (3beta,8xi,9xi,12beta,14beta)-
PRECURSORMZ:  843.43837397283
PRECURSORTYPE:  [M+FA-H]-
FORMULA:  C41H66O15
Ontology: ;;;
INCHIKEY:  UPGNUKWUJCJKHN-UHFFFAOYNA-N
SMILES:  COC1CC(OC2CCC3(C)C4C(O)C(O)C5(C)C(CCC5(O)C4CC=C3C2)C(C)=O)OC(C)C1OC1CC(OC)C(OC2OC(C)C(O)C(O)C2O)C(C)O1
RETENTIONTIME:  
CCS:  -1
IONMODE:  Negative
INSTRUMENTTYPE:  
INSTRUMENT:  Maxis II HD Q-TOF Bruker
COLLISIONENERGY:  
Comment:  DB#=CCMSLIB00000849938; origin=GNPS
Num Peaks:  26
85.03094	20.0
125.06125	50.0
127.03787	30.0
129.05347	10.0
141.09167	20.0
147.07716	10.0
215.09401	50.0
379.78329	10.0
465.26959	10.0
471.2793	10.0
507.29611	50.0
534.27112	10.0
557.31586	20.0
583.33484	10.0
601.33374	20.0
619.34137	30.0
637.36084	630.0
638.36481	80.0
791.59894	10.0
797.43365	1000.0
798.44043	200.0
799.42639	10.0
799.46564	10.0
822.40503	20.0
843.43799	10.0
844.43188	10.0

NAME:  NCGC00381234-01_C48H74O19_6-Deoxyhexopyranosyl-(1->4)-[hexopyranosyl-(1->6)]-1-O-[27-hydroxy-3,27,28-trioxolup-20(29)-en-28-yl]hexopyranose
PRECURSORMZ:  953.47515371083
PRECURSORTYPE:  [M-H]-
FORMULA:  C48H74O19
Ontology: Kingdom: Organic compounds;Superclass: Lipids and lipid;Class: Prenol lipids;Subclass: Terpene glycosides
INCHIKEY:  LSHAJDRFVTXNOB-UHFFFAOYNA-N
SMILES:  CC1OC(OC2C(O)C(O)C(OC(=O)C34CCC(C3C3CCC5C6(C)CCC(=O)C(C)(C)C6CCC5(C)C3(CC4)C(O)=O)C(C)=C)OC2COC2OC(CO)C(O)C(O)C2O)C(O)C(O)C1O
RETENTIONTIME:  
CCS:  -1
IONMODE:  Negative
INSTRUMENTTYPE:  
INSTRUMENT:  Maxis II HD Q-TOF Bruker
COLLISIONENERGY:  
Comment:  DB#=CCMSLIB00000851325; origin=GNPS
Num Peaks:  5
483.31216	810.0
484.31653	30.0
525.32123	30.0
953.47595	1000.0
954.47858	140.0

NAME:  NCGC00169088-03_C17H14N2O4_Spiro[3H-1,4-benzodiazepine-3,2'-oxirane]-2,5(1H,4H)-dione, 3'-(3-hydroxyphenyl)-4-methyl-, (3S,3'R)-
PRECURSORMZ:  355.09355948683
PRECURSORTYPE:  [M+FA-H]-
FORMULA:  C17H14N2O4
Ontology: ;;;
INCHIKEY:  BDDNYDPRCCDQQJ-UHFFFAOYNA-N
SMILES:  CN1C(=O)C2=CC=CC=C2N=C(O)C11OC1C1=CC(O)=CC=C1
RETENTIONTIME:  
CCS:  -1
IONMODE:  Negative
INSTRUMENTTYPE:  
INSTRUMENT:  Maxis II HD Q-TOF Bruker
COLLISIONENERGY:  
Comment:  DB#=CCMSLIB00000849200; origin=GNPS
Num Peaks:  20
79.61926	60.0
94.57401	50.0
121.02818	1000.0
134.02893	50.0
137.02151	50.0
159.05652	240.0
175.0509	620.0
177.06398	160.0
187.05592	120.0
223.06911	80.0
224.07123	240.0
238.08987	60.0
252.06036	40.0
254.8577	80.0
265.08188	40.0
266.08035	30.0
309.08533	630.0
309.59976	20.0
1017.86011	50.0
1718.14111	50.0

NAME:  NCGC00380365-01_C19H28O13_4-Hydroxy-3,5-dimethoxyphenyl 6-O-[(2S,3R,4R)-3,4-dihydroxy-4-(hydroxymethyl)tetrahydro-2-furanyl]-beta-D-glucopyranoside
PRECURSORMZ:  445.13514982983
PRECURSORTYPE:  [M-H2O-H]-
FORMULA:  C19H28O13
Ontology: Kingdom: Organic compounds;Superclass: Organic oxygen compounds;Class: Organooxygen compounds;Subclass: Carbohydrates and carbohydrate conjugates
INCHIKEY:  BPSJMBKZSUTYNF-UHFFFAOYNA-N
SMILES:  COC1=CC(OC2OC(COC3OCC(O)(CO)C3O)C(O)C(O)C2O)=CC(OC)=C1O
RETENTIONTIME:  
CCS:  -1
IONMODE:  Negative
INSTRUMENTTYPE:  
INSTRUMENT:  Maxis II HD Q-TOF Bruker
COLLISIONENERGY:  
Comment:  DB#=CCMSLIB00000849650; origin=GNPS
Num Peaks:  3
109.02878	20.0
151.03981	1000.0
445.1315	40.0

NAME:  NCGC00380727-01_C23H32O6_(4R,4aS,8aS)-1-Hydroxy-2-(hydroxymethyl)-5,5,8a-trimethyl-4-[(2E,4E,6E)-2,4,6-octatrienoyloxy]-1,4,4a,5,6,7,8,8a-octahydro-1-naphthalenecarboxylic acid
PRECURSORMZ:  403.21261229783
PRECURSORTYPE:  [M-H]-
FORMULA:  C23H32O6
Ontology: Kingdom: Organic compounds;Superclass: Lipids and lipid;Class: Fatty Acyls;Subclass: Fatty acid esters
INCHIKEY:  WQJXWXRSOBXAGZ-UHFFFAOYNA-N
SMILES:  CC=CC=CC=CC(=O)OC1C=C(CO)C(O)(C(O)=O)C2(C)CCCC(C)(C)C12
RETENTIONTIME:  
CCS:  -1
IONMODE:  Negative
INSTRUMENTTYPE:  
INSTRUMENT:  Maxis II HD Q-TOF Bruker
COLLISIONENERGY:  
Comment:  DB#=CCMSLIB00000850922; origin=GNPS
Num Peaks:  18
80.43055	20.0
118.34258	30.0
127.47455	40.0
137.06079	1000.0
147.08095	160.0
148.61227	20.0
175.15018	80.0
191.14311	30.0
203.10762	60.0
203.14467	480.0
205.13025	120.0
207.14119	540.0
220.10385	70.0
221.15739	420.0
222.33333	10.0
247.13333	80.0
265.14447	970.0
403.216	200.0

NAME:  NCGC00380166-01_C28H34O13_beta-D-Glucopyranoside, 4-[(1R,3aR,4S,6aS)-6a-(acetyloxy)tetrahydro-4-(4-hydroxy-3-methoxyphenyl)-1H,3H-furo[3,4-c]furan-1-yl]-2-methoxyphenyl
PRECURSORMZ:  623.19814370283
PRECURSORTYPE:  [M+FA-H]-
FORMULA:  C28H34O13
Ontology: Kingdom: Organic compounds;Superclass: Lignans;Class: Lignan glycosides;
INCHIKEY:  ARPKCZZZMDEOIF-UHFFFAOYNA-N
SMILES:  COC1=C(O)C=CC(=C1)C1OCC2(OC(C)=O)C1COC2C1=CC(OC)=C(OC2OC(CO)C(O)C(O)C2O)C=C1
RETENTIONTIME:  
CCS:  -1
IONMODE:  Negative
INSTRUMENTTYPE:  
INSTRUMENT:  Maxis II HD Q-TOF Bruker
COLLISIONENERGY:  
Comment:  DB#=CCMSLIB00000850888; origin=GNPS
Num Peaks:  35
136.0175	90.0
148.01329	10.0
149.06102	10.0
151.03833	270.0
161.05385	20.0
176.0455	10.0
177.01523	10.0
177.05185	20.0
178.02704	20.0
179.07367	10.0
181.04755	20.0
187.98459	10.0
188.04311	40.0
191.0715	10.0
192.04335	10.0
193.04797	70.0
203.0706	30.0
205.05328	30.0
219.06543	20.0
223.0632	20.0
235.05864	30.0
250.06075	10.0
253.07028	50.0
265.04965	50.0
280.07336	110.0
294.08795	30.0
295.09549	100.0
325.10709	160.0
342.07669	10.0
343.12057	30.0
355.11435	30.0
371.14642	10.0
373.13577	10.0
373.17288	10.0
415.13986	1000.0

NAME:  methoxy-myricetin-3-O-hexoside
PRECURSORMZ:  493.09876431583
PRECURSORTYPE:  [M-H]-
FORMULA:  C22H22O13
Ontology: Kingdom: Organic compounds;Superclass: Phenylpropanoids and polyketides;Class: Flavonoids;Subclass: Flavonoid glycosides
INCHIKEY:  SCHVWZLYQPLPJV-UHFFFAOYNA-N
SMILES:  COC1=C(O)C=C(C=C1O)C1=C(OC2OC(CO)C(O)C(O)C2O)C(=O)C2=C(O)C=C(O)C=C2O1
RETENTIONTIME:  
CCS:  223.3353504
IONMODE:  Negative
INSTRUMENTTYPE:  
INSTRUMENT:  qTof
COLLISIONENERGY:  
Comment:  DB#=CCMSLIB00004678828; origin=GNPS
Num Peaks:  10
287.01755	10.0
315.01404	140.0
316.0209	50.0
330.03708	170.0
331.04486	200.0
332.04962	30.0
478.07309	10.0
493.09686	1000.0
494.10217	210.0
495.10422	40.0

NAME:  NCGC00347846-02_C30H38N2O5_(1E)-6-Hydroxy-12-(1H-indol-3-ylmethyl)-7-methoxy-4,13,13a-trimethyl-5,6,7,8,12,12a,13,13a,14a,14b-decahydro-3H-cycloundeca[d]oxireno[f]isoindole-9,10(4H,11H)-dione
PRECURSORMZ:  505.27079587983
PRECURSORTYPE:  [M-H]-
FORMULA:  C30H38N2O5
Ontology: Kingdom: Organic compounds;Superclass: Organoheterocyclic compounds;Class: Indoles and derivatives;Subclass: Indoles
INCHIKEY:  QTAIHYVDCKOYHV-UHFFFAOYNA-N
SMILES:  COC1CC(=O)C23C(C(CC4=CNC5=CC=CC=C45)N=C2O)C(C)C2(C)OC2C3C=CCC(C)CC1O
RETENTIONTIME:  
CCS:  -1
IONMODE:  Negative
INSTRUMENTTYPE:  
INSTRUMENT:  Maxis II HD Q-TOF Bruker
COLLISIONENERGY:  
Comment:  DB#=CCMSLIB00000849980; origin=GNPS
Num Peaks:  15
116.05095	60.0
226.20033	40.0
233.12686	50.0
273.04694	80.0
290.10925	40.0
290.98434	50.0
340.98621	40.0
360.99689	30.0
369.80252	90.0
388.20432	50.0
396.01678	50.0
401.00458	50.0
430.23959	90.0
472.23953	50.0
473.24661	1000.0

NAME:  Pesticide3_Flufenoxuron_C21H11ClF6N2O3_N-({4-[2-Chloro-4-(trifluoromethyl)phenoxy]-2-fluorophenyl}carbamoyl)-2,6-difluorobenzamide
PRECURSORMZ:  487.02896244783
PRECURSORTYPE:  [M-H]-
FORMULA:  C21H11ClF6N2O3
Ontology: Kingdom: Organic compounds;Superclass: Benzenoids;Class: Benzene and substituted derivatives;Subclass: N
INCHIKEY:  RYLHNOVXKPXDIP-UHFFFAOYSA-N
SMILES:  OC(N=C(O)C1=C(F)C=CC=C1F)=NC1=C(F)C=C(OC2=C(Cl)C=C(C=C2)C(F)(F)F)C=C1
RETENTIONTIME:  
CCS:  174.4133114
IONMODE:  Negative
INSTRUMENTTYPE:  
INSTRUMENT:  Q-Exactive Plus Orbitrap Res 70k
COLLISIONENERGY:  
Comment:  DB#=CCMSLIB00001058293; origin=GNPS
Num Peaks:  27
76.01878	70.0
93.01439	100.0
95.01361	60.0
104.01411	340.0
113.02108	410.0
113.0231	10.0
124.02039	80.0
150.0238	140.0
156.02716	490.0
178.98816	290.0
194.98323	330.0
222.9785	20.0
238.04842	50.0
248.03337	40.0
249.01759	30.0
256.01538	30.0
269.03674	60.0
283.00262	70.0
284.01013	130.0
289.0441	80.0
304.01642	1000.0
329.01178	700.0
367.04947	10.0
411.04089	170.0
447.01727	140.0
467.02414	50.0
487.03076	10.0

NAME:  Pesticide4_Halofenozide_C18H19ClN2O2_N'-Benzoyl-4-chloro-N'-(2-methyl-2-propanyl)benzohydrazide
PRECURSORMZ:  329.10622914783
PRECURSORTYPE:  [M-H]-
FORMULA:  C18H19ClN2O2
Ontology: Kingdom: Organic compounds;Superclass: Benzenoids;Class: Benzene and substituted derivatives;Subclass: Benzoic acids and derivatives
INCHIKEY:  CNKHSLKYRMDDNQ-UHFFFAOYSA-N
SMILES:  CC(C)(C)N(NC(=O)C1=CC=C(Cl)C=C1)C(=O)C1=CC=CC=C1
RETENTIONTIME:  
CCS:  179.1734568
IONMODE:  Negative
INSTRUMENTTYPE:  
INSTRUMENT:  Q-Exactive Plus Orbitrap Res 70k
COLLISIONENERGY:  
Comment:  DB#=CCMSLIB00001058339; origin=GNPS
Num Peaks:  4
121.02955	1000.0
154.99066	30.0
272.03592	10.0
329.10678	150.0

NAME:  NCGC00381073-01_C23H32O9_D-Glucitol, 1,5-anhydro-1-C-[2,6-dihydroxy-3-(methoxycarbonyl)-4-[(3Z,5Z)-3,5-nonadien-1-yl]phenyl]-, (1S)-
PRECURSORMZ:  451.19735615783
PRECURSORTYPE:  [M-H]-
FORMULA:  C23H32O9
Ontology: Kingdom: Organic compounds;Superclass: Organic oxygen compounds;Class: Organooxygen compounds;Subclass: Carbohydrates and carbohydrate conjugates
INCHIKEY:  GNMYZMZOACOUID-UHFFFAOYNA-N
SMILES:  CCCC=CC=CCCC1=CC(O)=C(C2OC(CO)C(O)C(O)C2O)C(O)=C1C(=O)OC
RETENTIONTIME:  
CCS:  -1
IONMODE:  Negative
INSTRUMENTTYPE:  
INSTRUMENT:  Maxis II HD Q-TOF Bruker
COLLISIONENERGY:  
Comment:  DB#=CCMSLIB00000849596; origin=GNPS
Num Peaks:  25
115.05574	10.0
118.04295	10.0
146.04387	10.0
148.48988	10.0
161.02319	50.0
162.03012	30.0
172.01492	10.0
174.96109	20.0
177.02003	20.0
183.08267	20.0
190.02847	30.0
227.14272	10.0
255.14061	20.0
266.09424	10.0
271.12967	20.0
285.16846	10.0
299.12943	1000.0
314.11887	10.0
317.13971	40.0
329.13962	140.0
331.16202	30.0
359.1525	20.0
401.16705	10.0
419.17114	850.0
451.20517	30.0

NAME:  NCGC00381281-01_C23H30O13_alpha-D-Glucopyranoside, 4-O-[(2E)-1-oxo-3-phenyl-2-propen-1-yl]-beta-D-fructofuranosyl, 6-acetate
PRECURSORMZ:  559.16684357383
PRECURSORTYPE:  [M+FA-H]-
FORMULA:  C23H30O13
Ontology: Kingdom: Organic compounds;Superclass: Phenylpropanoids and polyketides;Class: Cinnamic acids and derivatives;Subclass: Cinnamic acid esters
INCHIKEY:  MUVPZRLZLOTAOL-UHFFFAOYNA-N
SMILES:  CC(=O)OCC1OC(OC2(CO)OC(CO)C(OC(=O)C=CC3=CC=CC=C3)C2O)C(O)C(O)C1O
RETENTIONTIME:  
CCS:  -1
IONMODE:  Negative
INSTRUMENTTYPE:  
INSTRUMENT:  Maxis II HD Q-TOF Bruker
COLLISIONENERGY:  
Comment:  DB#=CCMSLIB00000849353; origin=GNPS
Num Peaks:  4
147.045	1000.0
323.09753	20.0
365.10864	40.0
513.15643	10.0

NAME:  NCGC00380918-01_C25H28O12_
PRECURSORMZ:  519.15079988983
PRECURSORTYPE:  [M-H]-
FORMULA:  C25H28O12
Ontology: Kingdom: Organic compounds;Superclass: Phenylpropanoids and polyketides;Class: Cinnamic acids and derivatives;Subclass: Hydroxycinnamic acids and derivatives
INCHIKEY:  QPNFBUARICHXGG-UHFFFAOYNA-N
SMILES:  OCC1OC(OC2OC=C(C3CC(O)C(=C)C23)C(O)=O)C(OC(=O)C=CC2=CC=C(O)C=C2)C(O)C1O
RETENTIONTIME:  
CCS:  -1
IONMODE:  Negative
INSTRUMENTTYPE:  
INSTRUMENT:  Maxis II HD Q-TOF Bruker
COLLISIONENERGY:  
Comment:  DB#=CCMSLIB00000850488; origin=GNPS
Num Peaks:  35
75.87077	10.0
90.75346	10.0
93.03555	30.0
113.02804	40.0
117.03327	40.0
119.04819	90.0
122.80846	10.0
123.04366	240.0
134.03862	10.0
137.06058	20.0
144.84706	20.0
145.0291	1000.0
148.74507	20.0
149.06107	90.0
149.19165	10.0
159.04111	20.0
159.70148	20.0
161.06158	80.0
162.82327	40.0
163.03973	620.0
167.0726	210.0
173.04196	80.0
179.05899	10.0
187.03769	70.0
189.21355	10.0
193.05112	70.0
205.04941	70.0
211.0623	110.0
235.06447	20.0
253.22935	20.0
265.07202	10.0
307.08362	40.0
325.0925	30.0
355.10645	50.0
519.14758	170.0

NAME:  NCGC00380934-01_C25H30O13_(2S,3R,4S)-4-(2-{[(2E)-3-(3,4-Dihydroxyphenyl)-2-propenoyl]oxy}ethyl)-2-(beta-D-glucopyranosyloxy)-3-vinyl-3,4-dihydro-2H-pyran-5-carboxylic acid
PRECURSORMZ:  537.16136457383
PRECURSORTYPE:  [M-H]-
FORMULA:  C25H30O13
Ontology: Kingdom: Organic compounds;Superclass: Lipids and lipid;Class: Prenol lipids;Subclass: Terpene glycosides
INCHIKEY:  ZPEFYJBGAZLAKK-UHFFFAOYNA-N
SMILES:  OCC1OC(OC2OC=C(C(CCOC(=O)C=CC3=CC(O)=C(O)C=C3)C2C=C)C(O)=O)C(O)C(O)C1O
RETENTIONTIME:  
CCS:  234.3822497
IONMODE:  Negative
INSTRUMENTTYPE:  
INSTRUMENT:  Maxis II HD Q-TOF Bruker
COLLISIONENERGY:  
Comment:  DB#=CCMSLIB00000850172; origin=GNPS
Num Peaks:  21
81.30071	10.0
82.51393	20.0
89.02485	30.0
107.05096	20.0
119.0322	50.0
121.08494	30.0
133.03018	170.0
133.08751	10.0
134.03851	40.0
135.04387	660.0
148.05354	20.0
151.07677	60.0
161.02367	1000.0
162.02852	20.0
179.03416	740.0
195.07251	30.0
213.07852	20.0
331.10315	20.0
375.12973	160.0
537.16595	60.0
537.21405	10.0

NAME:  NCGC00381238-01_C31H47NO8_2-[(2E,5E,7E,11E)-10-Hydroxy-3,7,9,11-tetramethyl-2,5,7,11-tridecatetraen-1-yl]-5,6-dimethoxy-3-methyl-4-pyridinyl 6-deoxy-alpha-L-mannopyranoside
PRECURSORMZ:  606.32837002483
PRECURSORTYPE:  [M+FA-H]-
FORMULA:  C31H47NO8
Ontology: Kingdom: Organic compounds;Superclass: Lipids and lipid;Class: Prenol lipids;Subclass: Sesquiterpenoids
INCHIKEY:  ZIBGPNICZWZARG-UHFFFAOYNA-N
SMILES:  COC1=NC(CC=C(C)CC=CC(C)=CC(C)C(O)C(C)=CC)=C(C)C(OC2OC(C)C(O)C(O)C2O)=C1OC
RETENTIONTIME:  
CCS:  -1
IONMODE:  Negative
INSTRUMENTTYPE:  
INSTRUMENT:  Maxis II HD Q-TOF Bruker
COLLISIONENERGY:  
Comment:  DB#=CCMSLIB00000851333; origin=GNPS
Num Peaks:  24
152.45383	20.0
166.04761	30.0
183.09691	20.0
195.05069	10.0
213.06679	30.0
215.07446	20.0
250.10265	20.0
263.0105	40.0
286.18518	10.0
300.15244	30.0
300.18558	10.0
314.18787	10.0
315.18661	80.0
329.19992	20.0
330.20883	160.0
376.97141	10.0
384.22205	70.0
399.25217	10.0
413.48209	10.0
414.2645	1000.0
415.27383	10.0
418.99216	10.0
465.00494	10.0
480.99637	10.0

NAME:  NCGC00380647-01_C17H30O12_alpha-D-Glucopyranoside, alpha-D-glucopyranosyl, 3-(2-methylbutanoate)
PRECURSORMZ:  471.17192895383
PRECURSORTYPE:  [M+FA-H]-
FORMULA:  C17H30O12
Ontology: Kingdom: Organic compounds;Superclass: Lipids and lipid;Class: Saccharolipids;
INCHIKEY:  SFAOCCXTEHOWEV-UHFFFAOYNA-N
SMILES:  CCC(C)C(=O)OC1C(O)C(CO)OC(OC2OC(CO)C(O)C(O)C2O)C1O
RETENTIONTIME:  
CCS:  -1
IONMODE:  Negative
INSTRUMENTTYPE:  
INSTRUMENT:  Maxis II HD Q-TOF Bruker
COLLISIONENERGY:  
Comment:  DB#=CCMSLIB00000850871; origin=GNPS
Num Peaks:  8
101.02472	10.0
101.05991	110.0
143.03368	40.0
161.04585	50.0
323.09793	1000.0
341.11038	10.0
425.16534	190.0
471.18188	20.0

NAME:  NCGC00180427-03_C41H56N8O7_1,4,7,10,13,16,19-Heptaazacyclotricosane-2,5,8,11,14,17,20-heptone, 3-(1H-indol-3-ylmethyl)-6,18-dimethyl-9,15-bis(1-methylethyl)-12-(1-phenylethyl)-
PRECURSORMZ:  817.42539872283
PRECURSORTYPE:  [M+FA-H]-
FORMULA:  C41H56N8O7
Ontology: Kingdom: Organic compounds;Superclass: Organic acids and derivatives;Class: Peptidomimetics;Subclass: Hybrid peptides
INCHIKEY:  NZNSTOHSZZLSNP-UHFFFAOYNA-N
SMILES:  CC(C)C1N=C(O)C(C)N=C(O)CCCN=C(O)C(CC2=CNC3=CC=CC=C23)N=C(O)C(C)N=C(O)C(N=C(O)C(N=C1O)C(C)C1=CC=CC=C1)C(C)C
RETENTIONTIME:  
CCS:  -1
IONMODE:  Negative
INSTRUMENTTYPE:  
INSTRUMENT:  Maxis II HD Q-TOF Bruker
COLLISIONENERGY:  
Comment:  DB#=CCMSLIB00000850934; origin=GNPS
Num Peaks:  34
115.08795	30.0
127.04954	10.0
141.06584	20.0
144.07913	10.0
151.08856	20.0
153.06705	10.0
158.09332	20.0
168.11414	20.0
169.09978	10.0
170.09209	10.0
182.12831	10.0
186.12506	100.0
200.14032	10.0
211.12108	20.0
212.10501	10.0
229.13213	70.0
259.14758	30.0
276.17145	20.0
328.19928	40.0
338.22144	10.0
354.21115	20.0
358.18576	10.0
375.23694	10.0
381.22733	20.0
399.23718	30.0
446.27902	60.0
472.26132	20.0
489.28333	20.0
528.30121	20.0
598.37256	10.0
618.33752	20.0
642.35876	70.0
771.42151	1000.0
772.42603	110.0

NAME:  NCGC00380365-01_C19H28O13_4-Hydroxy-3,5-dimethoxyphenyl 6-O-[(2S,3R,4R)-3,4-dihydroxy-4-(hydroxymethyl)tetrahydro-2-furanyl]-beta-D-glucopyranoside
PRECURSORMZ:  463.14571450983
PRECURSORTYPE:  [M-H]-
FORMULA:  C19H28O13
Ontology: Kingdom: Organic compounds;Superclass: Organic oxygen compounds;Class: Organooxygen compounds;Subclass: Carbohydrates and carbohydrate conjugates
INCHIKEY:  BPSJMBKZSUTYNF-UHFFFAOYNA-N
SMILES:  COC1=CC(OC2OC(COC3OCC(O)(CO)C3O)C(O)C(O)C2O)=CC(OC)=C1O
RETENTIONTIME:  
CCS:  212.3907924
IONMODE:  Negative
INSTRUMENTTYPE:  
INSTRUMENT:  Maxis II HD Q-TOF Bruker
COLLISIONENERGY:  
Comment:  DB#=CCMSLIB00000849646; origin=GNPS
Num Peaks:  26
99.00598	250.0
115.04294	360.0
125.02286	250.0
132.8018	70.0
138.004	90.0
139.00342	410.0
140.01094	280.0
143.03691	90.0
149.04614	350.0
152.00938	300.0
153.01671	330.0
154.02786	850.0
167.03632	230.0
168.04326	340.0
169.05037	1000.0
170.58884	100.0
176.00862	90.0
178.02734	150.0
179.03345	390.0
191.05925	340.0
233.06483	540.0
277.09821	120.0
293.08798	970.0
301.03751	160.0
463.14276	370.0
463.18204	150.0

NAME:  NCGC00380757-01_C22H28O13_3-[6-({6-O-[(2R,3R,4R)-3,4-Dihydroxy-4-(hydroxymethyl)tetrahydro-2-furanyl]-beta-D-glucopyranosyl}oxy)-1-benzofuran-5-yl]propanoic acid
PRECURSORMZ:  499.14571450983
PRECURSORTYPE:  [M-H]-
FORMULA:  C22H28O13
Ontology: Kingdom: Organic compounds;Superclass: Organic oxygen compounds;Class: Organooxygen compounds;Subclass: Carbohydrates and carbohydrate conjugates
INCHIKEY:  NOCZJUUWDACQEY-UHFFFAOYNA-N
SMILES:  OCC1(O)COC(OCC2OC(OC3=C(CCC(O)=O)C=C4C=COC4=C3)C(O)C(O)C2O)C1O
RETENTIONTIME:  
CCS:  -1
IONMODE:  Negative
INSTRUMENTTYPE:  
INSTRUMENT:  Maxis II HD Q-TOF Bruker
COLLISIONENERGY:  
Comment:  DB#=CCMSLIB00000850037; origin=GNPS
Num Peaks:  7
111.8282	10.0
159.0423	10.0
161.06088	420.0
187.03731	20.0
205.05075	1000.0
499.1456	260.0
601.89423	40.0

NAME:  NCGC00169803-03_C42H62O17_Carda-16,20(22)-dienolide, 8,14-epoxy-3-[[O-beta-D-glucopyranosyl-(1->6)-O-beta-D-glucopyranosyl-(1->4)-2,6-dideoxy-3-O-methylhexopyranosyl]oxy]-, (3beta,5beta,8xi,9xi,14xi)-
PRECURSORMZ:  883.39690308383
PRECURSORTYPE:  [M+FA-H]-
FORMULA:  C42H62O17
Ontology: Kingdom: Organic compounds;Superclass: Organic oxygen compounds;Class: Organooxygen compounds;Subclass: Carbohydrates and carbohydrate conjugates
INCHIKEY:  DVFXEUYOOYUTOA-UHFFFAOYNA-N
SMILES:  COC1CC(OC2CCC3(C)C(CCC45OC44CC=C(C6=CC(=O)OC6)C4(C)CCC35)C2)OC(C)C1OC1OC(COC2OC(CO)C(O)C(O)C2O)C(O)C(O)C1O
RETENTIONTIME:  
CCS:  -1
IONMODE:  Negative
INSTRUMENTTYPE:  
INSTRUMENT:  Maxis II HD Q-TOF Bruker
COLLISIONENERGY:  
Comment:  DB#=CCMSLIB00000849216; origin=GNPS
Num Peaks:  53
71.01807	30.0
72.99434	10.0
83.04689	20.0
85.0322	30.0
89.025	30.0
95.01359	10.0
97.03075	30.0
99.00964	30.0
101.02406	120.0
102.72303	10.0
111.00864	20.0
111.04463	30.0
113.02319	190.0
119.03491	50.0
125.02484	40.0
131.09059	20.0
143.03685	40.0
155.0347	20.0
159.02899	60.0
161.04529	290.0
162.0522	30.0
173.04698	10.0
175.07666	20.0
179.05484	90.0
180.06555	10.0
192.03978	10.0
203.05138	20.0
205.03395	20.0
205.08319	10.0
221.07016	50.0
233.06721	10.0
245.06329	30.0
263.07678	140.0
323.09952	140.0
333.18906	20.0
351.19324	10.0
369.21262	20.0
369.24176	20.0
435.13544	10.0
465.81854	10.0
495.27878	10.0
513.28345	200.0
545.01019	10.0
657.32166	30.0
675.34039	270.0
676.33826	30.0
819.37714	50.0
820.3609	10.0
837.39093	1000.0
837.74615	10.0
837.84778	10.0
838.39502	200.0
883.4129	20.0

NAME:  Pesticide3_Teflubenzuron_C14H6Cl2F4N2O2_N-[(3,5-Dichloro-2,4-difluorophenyl)carbamoyl]-2,6-difluorobenzamide
PRECURSORMZ:  378.96696904783
PRECURSORTYPE:  [M-H]-
FORMULA:  C14H6Cl2F4N2O2
Ontology: Kingdom: Organic compounds;Superclass: Benzenoids;Class: Benzene and substituted derivatives;Subclass: Halobenzenes
INCHIKEY:  CJDWRQLODFKPEL-UHFFFAOYSA-N
SMILES:  OC(N=C(O)C1=C(F)C=CC=C1F)=NC1=C(F)C(Cl)=C(F)C(Cl)=C1
RETENTIONTIME:  
CCS:  163.5817967
IONMODE:  Negative
INSTRUMENTTYPE:  
INSTRUMENT:  Q-Exactive Plus Orbitrap Res 70k
COLLISIONENERGY:  
Comment:  DB#=CCMSLIB00001058285; origin=GNPS
Num Peaks:  11
93.01423	20.0
113.02084	60.0
156.02673	40.0
174.95612	10.0
195.95409	1000.0
220.94902	110.0
221.93352	20.0
294.9646	110.0
315.95535	70.0
318.94916	10.0
338.95508	310.0

NAME:  NCGC00380223-01_C20H24N2O5_3-Pyridinecarboxylic acid, 1,4-dihydro-6-(hydroxyphenylmethyl)-1-[2-[(3-methyl-1-oxobutyl)amino]ethyl]-4-oxo-
PRECURSORMZ:  417.16672442883
PRECURSORTYPE:  [M+FA-H]-
FORMULA:  C20H24N2O5
Ontology: Kingdom: Organic compounds;Superclass: Organoheterocyclic compounds;Class: Pyridines and derivatives;Subclass: Pyridinecarboxylic acids and derivatives
INCHIKEY:  YTPQOAKWPUOEEC-UHFFFAOYNA-N
SMILES:  CC(C)CC(O)=NCCN1C=C(C(O)=O)C(=O)C=C1C(O)C1=CC=CC=C1
RETENTIONTIME:  
CCS:  -1
IONMODE:  Negative
INSTRUMENTTYPE:  
INSTRUMENT:  Maxis II HD Q-TOF Bruker
COLLISIONENERGY:  
Comment:  DB#=CCMSLIB00000850826; origin=GNPS
Num Peaks:  15
94.03767	50.0
108.04398	260.0
112.65964	10.0
119.02281	30.0
134.02377	20.0
137.03636	170.0
137.29553	30.0
141.53067	20.0
164.03275	60.0
219.79408	20.0
220.64906	20.0
220.84419	20.0
221.09308	1000.0
235.10968	110.0
1569.47107	20.0

NAME:  NCGC00168838-03_C30H46O5_(1R,2S,5aR,5bR,7aS,10R,12bR)-2-Hydroxy-10-isopropenyl-3,3,5a,5b,12b-pentamethyloctadecahydrodicyclopenta[a,i]phenanthrene-1,7a(1H)-dicarboxylic acid
PRECURSORMZ:  485.32724812883
PRECURSORTYPE:  [M-H]-
FORMULA:  C30H46O5
Ontology: Kingdom: Organic compounds;Superclass: Lipids and lipid;Class: Prenol lipids;Subclass: Triterpenoids
INCHIKEY:  WLCHQSHZHFLMJH-UHFFFAOYNA-N
SMILES:  CC(=C)C1CCC2(CCC3(C)C(CCC4C5(C)C(C(O)C(C)(C)C5CCC34C)C(O)=O)C12)C(O)=O
RETENTIONTIME:  
CCS:  214.0615466
IONMODE:  Negative
INSTRUMENTTYPE:  
INSTRUMENT:  Maxis II HD Q-TOF Bruker
COLLISIONENERGY:  
Comment:  DB#=CCMSLIB00000851364; origin=GNPS
Num Peaks:  2
423.32327	100.0
485.32581	1000.0

NAME:  NCGC00380230-01_C26H40O9_2,4a,6-Trihydroxy-8-isopropyl-1,1-dimethyl-2,3,4,4a,5,10,11,11a-octahydro-1H-dibenzo[a,d][7]annulen-7-yl beta-D-glucopyranoside
PRECURSORMZ:  541.26543541583
PRECURSORTYPE:  [M+FA-H]-
FORMULA:  C26H40O9
Ontology: Kingdom: Organic compounds;Superclass: Lipids and lipid;Class: Prenol lipids;Subclass: Terpene glycosides
INCHIKEY:  XQWLUDAZDUBMCD-UHFFFAOYNA-N
SMILES:  CC(C)C1=C(OC2OC(CO)C(O)C(O)C2O)C(O)=C2CC3(O)CCC(O)C(C)(C)C3CCC2=C1
RETENTIONTIME:  
CCS:  -1
IONMODE:  Negative
INSTRUMENTTYPE:  
INSTRUMENT:  Maxis II HD Q-TOF Bruker
COLLISIONENERGY:  
Comment:  DB#=CCMSLIB00000849241; origin=GNPS
Num Peaks:  20
113.02446	30.0
143.03378	20.0
217.20908	20.0
305.2627	20.0
315.2009	40.0
329.08484	20.0
331.18463	20.0
332.18832	60.0
332.45642	20.0
333.20688	1000.0
347.2197	70.0
349.02109	20.0
375.22644	110.0
375.27667	30.0
405.23309	20.0
435.23431	60.0
495.25858	850.0
496.24945	40.0
541.27515	50.0
1933.98083	30.0

NAME:  NCGC00381088-01_C42H54O23_alpha-D-Glucopyranoside, 3-O-[(2E)-3-(4-hydroxyphenyl)-1-oxo-2-propen-1-yl]-beta-D-fructofuranosyl O-6-deoxy-alpha-L-mannopyranosyl-(1->4)-O-6-deoxy-alpha-L-mannopyranosyl-(1->3)-4-O-[(2E)-3-(4-hydroxyphenyl)-1-oxo-2-propen-1-yl]-
PRECURSORMZ:  971.30379054683
PRECURSORTYPE:  [M+FA-H]-
FORMULA:  C42H54O23
Ontology: Kingdom: Organic compounds;Superclass: Organic oxygen compounds;Class: Organooxygen compounds;Subclass: Carbohydrates and carbohydrate conjugates
INCHIKEY:  RTQZACYXEASSEF-UHFFFAOYNA-N
SMILES:  CC1OC(OC2C(C)OC(OC3C(O)C(OC4(CO)OC(CO)C(O)C4OC(=O)C=CC4=CC=C(O)C=C4)OC(CO)C3OC(=O)C=CC3=CC=C(O)C=C3)C(O)C2O)C(O)C(O)C1O
RETENTIONTIME:  
CCS:  -1
IONMODE:  Negative
INSTRUMENTTYPE:  
INSTRUMENT:  Maxis II HD Q-TOF Bruker
COLLISIONENERGY:  
Comment:  DB#=CCMSLIB00000849611; origin=GNPS
Num Peaks:  19
85.02808	20.0
113.02442	30.0
117.03443	90.0
119.05003	40.0
143.03345	10.0
145.02954	1000.0
146.0331	20.0
163.04063	130.0
185.02058	10.0
205.07146	20.0
231.08681	10.0
307.08188	10.0
453.16599	20.0
633.22693	40.0
779.2627	230.0
780.26288	30.0
925.30066	370.0
926.3031	100.0
947.2782	10.0

NAME:  NCGC00381186-01_C27H31NO5_8H-Pyrano[2,3-f]quinolin-8-one, 2,7,9,10-tetrahydro-10-hydroxy-9-methoxy-10-(4-methoxyphenyl)-2-methyl-2-(4-methyl-3-penten-1-yl)-, (2S,9R,10R)-
PRECURSORMZ:  448.21294664983
PRECURSORTYPE:  [M-H]-
FORMULA:  C27H31NO5
Ontology: Kingdom: Organic compounds;Superclass: Organoheterocyclic compounds;Class: Quinolines and derivatives;Subclass: Phenylquinolines
INCHIKEY:  CPWPNTRWIIAFEG-UHFFFAOYNA-N
SMILES:  COC1C(O)=NC2=C(C3=C(C=C2)C=CC(C)(CCC=C(C)C)O3)C1(O)C1=CC=C(OC)C=C1
RETENTIONTIME:  
CCS:  227.3997471
IONMODE:  Negative
INSTRUMENTTYPE:  
INSTRUMENT:  Maxis II HD Q-TOF Bruker
COLLISIONENERGY:  
Comment:  DB#=CCMSLIB00000850430; origin=GNPS
Num Peaks:  27
146.67896	40.0
220.26555	50.0
222.05594	60.0
238.08746	230.0
240.05527	110.0
248.03819	70.0
249.9101	50.0
250.08835	60.0
254.07893	80.0
278.08435	330.0
291.06561	80.0
302.10635	100.0
308.12811	50.0
310.06873	80.0
314.08963	130.0
315.09106	50.0
328.08704	70.0
328.11642	60.0
340.13077	70.0
364.12177	110.0
376.18979	250.0
378.13678	70.0
383.1524	300.0
398.17862	1000.0
430.22153	250.0
442.15549	40.0
448.2106	750.0

NAME:  NCGC00385746-01_C59H96O25_beta-D-Glucopyranose, 4-O-(6-deoxy-alpha-L-mannopyranosyl)-1-O-[(3beta,5xi,9xi)-3-[[O-6-deoxy-alpha-L-mannopyranosyl-(1->2)-O-beta-D-glucopyranosyl-(1->2)-alpha-L-arabinopyranosyl]oxy]-28-oxoolean-12-en-28-yl]-
PRECURSORMZ:  1249.62227113883
PRECURSORTYPE:  [M+FA-H]-
FORMULA:  C59H96O25
Ontology: Kingdom: Organic compounds;Superclass: Lipids and lipid;Class: Prenol lipids;Subclass: Terpene glycosides
INCHIKEY:  QMTVSBYGSSFPPX-UHFFFAOYNA-N
SMILES:  CC1OC(OC2C(O)C(O)C(OC(=O)C34CCC(C)(C)CC3C3=CCC5C6(C)CCC(OC7OCC(O)C(O)C7OC7OC(CO)C(O)C(O)C7OC7OC(C)C(O)C(O)C7O)C(C)(C)C6CCC5(C)C3(C)CC4)OC2CO)C(O)C(O)C1O
RETENTIONTIME:  
CCS:  -1
IONMODE:  Negative
INSTRUMENTTYPE:  
INSTRUMENT:  Maxis II HD Q-TOF Bruker
COLLISIONENERGY:  
Comment:  DB#=CCMSLIB00000850349; origin=GNPS
Num Peaks:  26
101.02474	50.0
113.02441	10.0
125.02493	40.0
131.03557	20.0
143.03539	50.0
161.04561	110.0
163.06113	40.0
205.07231	60.0
221.06694	20.0
247.08295	130.0
265.09351	30.0
323.09921	50.0
325.11505	20.0
367.12579	100.0
409.13596	50.0
451.14758	10.0
455.35492	30.0
469.1579	650.0
470.1611	80.0
587.39209	10.0
733.45599	1000.0
734.45966	230.0
735.46271	20.0
1203.6189	280.0
1204.62061	130.0
1205.62268	30.0

NAME:  NCGC00380815-01_C31H42O7_5-Heptenoic acid, 2-[(4alpha,5alpha,6beta,8alpha,9beta,13alpha,14beta,16beta,17E)-16-(acetyloxy)-6-hydroxy-4,8,10,14-tetramethyl-3,7-dioxogon-1-en-17-ylidene]-6-methyl-, (2E)-
PRECURSORMZ:  525.28577723983
PRECURSORTYPE:  [M-H]-
FORMULA:  C31H42O7
Ontology: Kingdom: Organic compounds;Superclass: Lipids and lipid;Class: Steroids and steroid derivatives;Subclass: Steroid esters
INCHIKEY:  ZGQQEJUGWPCCHA-UHFFFAOYNA-N
SMILES:  CC1C2C(O)C(=O)C3(C)C(CCC4C(C(CC34C)OC(C)=O)=C(CCC=C(C)C)C(O)=O)C2(C)C=CC1=O
RETENTIONTIME:  
CCS:  235.8123772
IONMODE:  Negative
INSTRUMENTTYPE:  
INSTRUMENT:  Maxis II HD Q-TOF Bruker
COLLISIONENERGY:  
Comment:  DB#=CCMSLIB00000849884; origin=GNPS
Num Peaks:  86
114.14676	30.0
116.95729	20.0
121.0668	90.0
122.03165	20.0
123.07991	30.0
133.06789	20.0
135.07896	10.0
139.10837	30.0
151.07434	50.0
153.09535	40.0
169.08495	60.0
173.05595	30.0
174.51274	20.0
177.12666	20.0
181.07465	40.0
187.15364	20.0
191.03378	20.0
191.13971	10.0
200.08725	30.0
201.16148	10.0
203.07239	80.0
205.12744	20.0
217.1277	30.0
217.77605	30.0
217.91452	10.0
219.03029	50.0
219.09985	60.0
221.11757	50.0
231.13893	20.0
233.15413	30.0
234.00235	20.0
234.08585	10.0
234.11957	30.0
243.25587	30.0
245.13518	20.0
247.17223	40.0
279.13791	30.0
281.19534	40.0
299.19702	20.0
303.18713	20.0
309.18085	10.0
311.19968	60.0
312.16678	20.0
318.18335	30.0
321.14682	20.0
327.19443	90.0
333.22079	20.0
335.20871	10.0
336.17969	20.0
337.21799	10.0
363.99713	20.0
371.22656	20.0
377.20773	20.0
381.20532	20.0
391.23285	230.0
391.35376	20.0
392.23218	10.0
393.08835	10.0
396.16922	20.0
399.21503	20.0
403.26117	50.0
406.25125	170.0
409.24283	50.0
421.27423	560.0
421.35715	10.0
423.38007	10.0
424.97995	20.0
435.19626	40.0
435.22256	50.0
435.28094	10.0
439.28296	30.0
449.23511	10.0
450.23749	70.0
451.24533	50.0
453.25797	30.0
463.27707	40.0
465.2641	1000.0
466.2677	40.0
466.31842	20.0
481.30048	120.0
483.13361	10.0
483.17151	20.0
483.27219	200.0
483.31946	20.0
524.34662	20.0
525.28595	300.0

NAME:  Pesticide1_Acephate_C4H10NO3PS_O,S-Dimethyl acetylphosphoramidothioate
PRECURSORMZ:  182.00462490583
PRECURSORTYPE:  [M-H]-
FORMULA:  C4H10NO3PS
Ontology: Kingdom: Organic compounds;Superclass: Organophosphorus compounds;Class: Organothiophosphorus compounds;
INCHIKEY:  YASYVMFAVPKPKE-UHFFFAOYNA-N
SMILES:  COP(=O)(SC)N=C(C)O
RETENTIONTIME:  
CCS:  136.9621747
IONMODE:  Negative
INSTRUMENTTYPE:  
INSTRUMENT:  Q-Exactive Plus Orbitrap Res 70k
COLLISIONENERGY:  
Comment:  DB#=CCMSLIB00001058303; origin=GNPS
Num Peaks:  12
78.95876	550.0
92.91978	10.0
94.91697	30.0
94.99025	100.0
101.97501	50.0
103.99068	450.0
134.00151	30.0
136.01715	310.0
137.98718	20.0
140.97813	1000.0
181.97729	10.0
182.00468	280.0

NAME:  NCGC00380662-01_C20H27NO11_[(6-O-Hexopyranosylhexopyranosyl)oxy](phenyl)acetonitrile
PRECURSORMZ:  502.15661324083
PRECURSORTYPE:  [M+FA-H]-
FORMULA:  C20H27NO11
Ontology: Kingdom: Organic compounds;Superclass: Organic oxygen compounds;Class: Organooxygen compounds;Subclass: Carbohydrates and carbohydrate conjugates
INCHIKEY:  XUCIJNAGGSZNQT-UHFFFAOYNA-N
SMILES:  OCC1OC(OCC2OC(OC(C#N)C3=CC=CC=C3)C(O)C(O)C2O)C(O)C(O)C1O
RETENTIONTIME:  
CCS:  -1
IONMODE:  Negative
INSTRUMENTTYPE:  
INSTRUMENT:  Maxis II HD Q-TOF Bruker
COLLISIONENERGY:  
Comment:  DB#=CCMSLIB00000850277; origin=GNPS
Num Peaks:  32
71.01507	20.0
89.02328	10.0
91.99401	10.0
101.0253	70.0
113.02477	70.0
119.0347	50.0
125.02572	140.0
131.03503	60.0
138.8118	20.0
139.03954	20.0
143.03448	60.0
145.05429	10.0
147.04314	10.0
149.04175	40.0
159.03102	20.0
161.04451	290.0
175.03819	50.0
179.05714	350.0
188.04768	30.0
189.05061	20.0
203.06155	70.0
213.05673	10.0
221.06601	240.0
231.07674	20.0
244.02066	10.0
245.06242	40.0
263.07962	180.0
294.10077	20.0
323.09897	1000.0
384.99121	10.0
456.15363	400.0
457.62631	10.0

NAME:  NCGC00380314-01_C22H27NO7_3,5,7,9-Undecatetraenoic acid, 2-ethylidene-11-[4-hydroxy-4-(2-hydroxyethyl)-2-oxo-6-oxa-3-azabicyclo[3.1.0]hex-1-yl]-4,10-dimethyl-11-oxo-, methyl ester, (2Z,3E,5E,7E,9E)-
PRECURSORMZ:  416.17147576083
PRECURSORTYPE:  [M-H]-
FORMULA:  C22H27NO7
Ontology: Kingdom: Organic compounds;Superclass: Lipids and lipid;Class: Fatty Acyls;Subclass: Fatty acid esters
INCHIKEY:  OHWILISHWFHITP-UHFFFAOYNA-N
SMILES:  COC(=O)C(=CC)C=C(C)C=CC=CC=C(C)C(=O)C12OC1C(O)(CCO)N=C2O
RETENTIONTIME:  
CCS:  239.6185839
IONMODE:  Negative
INSTRUMENTTYPE:  
INSTRUMENT:  Maxis II HD Q-TOF Bruker
COLLISIONENERGY:  
Comment:  DB#=CCMSLIB00000850298; origin=GNPS
Num Peaks:  28
109.03308	310.0
111.01094	360.0
137.0472	650.0
138.01978	1000.0
138.05638	330.0
139.02596	610.0
151.07481	330.0
165.00481	200.0
175.0808	230.0
188.03629	750.0
202.0504	220.0
225.09023	250.0
231.13602	130.0
239.12439	320.0
246.06711	560.0
249.133	340.0
256.58554	60.0
260.90625	260.0
262.86905	120.0
263.03174	180.0
298.06744	250.0
313.13898	330.0
314.10474	360.0
320.13022	370.0
328.12259	690.0
344.18765	70.0
386.15262	240.0
398.16449	90.0

NAME:  NCGC00163699-03_C26H34O7_2,4,6,8-Decatetraenedioic acid, mono[5-methoxy-4-[2-methyl-3-(3-methyl-2-buten-1-yl)oxiranyl]-1-oxaspiro[2.5]oct-6-yl] ester, (2E,4E,6E,8E)-
PRECURSORMZ:  503.22865598283
PRECURSORTYPE:  [M+FA-H]-
FORMULA:  C26H34O7
Ontology: Kingdom: Organic compounds;Superclass: Lipids and lipid;Class: Fatty Acyls;Subclass: Fatty acids and conjugates
INCHIKEY:  NGGMYCMLYOUNGM-UHFFFAOYNA-N
SMILES:  COC1C(CCC2(CO2)C1C1(C)OC1CC=C(C)C)OC(=O)C=CC=CC=CC=CC(O)=O
RETENTIONTIME:  
CCS:  -1
IONMODE:  Negative
INSTRUMENTTYPE:  
INSTRUMENT:  Maxis II HD Q-TOF Bruker
COLLISIONENERGY:  
Comment:  DB#=CCMSLIB00000849797; origin=GNPS
Num Peaks:  38
111.05134	10.0
112.98736	40.0
117.07132	40.0
122.69348	20.0
130.04219	160.0
130.70053	20.0
131.04977	1000.0
139.07402	70.0
145.07416	60.0
149.05984	80.0
151.08463	30.0
153.04536	40.0
161.05949	40.0
166.06302	30.0
175.04205	40.0
179.06563	20.0
180.08017	70.0
198.99104	50.0
201.13235	20.0
202.98692	40.0
219.13496	20.0
220.13446	60.0
239.10793	50.0
268.14984	20.0
291.00952	40.0
303.01645	20.0
347.00323	30.0
356.96649	10.0
362.99628	40.0
369.23642	30.0
378.97751	30.0
396.9975	40.0
399.0101	30.0
413.23212	70.0
419.01053	40.0
453.15274	20.0
457.22607	470.0
484.98727	10.0

NAME:  NCGC00380503-01_C22H24O10_2-(beta-D-Glucopyranosyloxy)benzyl (2E)-3-(3,4-dihydroxyphenyl)acrylate
PRECURSORMZ:  447.12967052083
PRECURSORTYPE:  [M-H]-
FORMULA:  C22H24O10
Ontology: Kingdom: Organic compounds;Superclass: Organic oxygen compounds;Class: Organooxygen compounds;Subclass: Carbohydrates and carbohydrate conjugates
INCHIKEY:  KMQUGCQVIDIVLT-UHFFFAOYNA-N
SMILES:  OCC1OC(OC2=CC=CC=C2COC(=O)C=CC2=CC(O)=C(O)C=C2)C(O)C(O)C1O
RETENTIONTIME:  
CCS:  223.004575
IONMODE:  Negative
INSTRUMENTTYPE:  
INSTRUMENT:  Maxis II HD Q-TOF Bruker
COLLISIONENERGY:  
Comment:  DB#=CCMSLIB00000850109; origin=GNPS
Num Peaks:  18
123.04364	20.0
133.02963	40.0
134.03708	40.0
135.04427	260.0
137.02083	20.0
139.04312	10.0
150.03401	10.0
161.02322	220.0
178.02812	20.0
178.94785	10.0
179.03494	1000.0
241.08766	20.0
242.61295	10.0
285.07709	130.0
323.0798	40.0
341.08612	20.0
447.13007	340.0
979.72083	20.0

NAME:  NCGC00380545-01_C26H32O14_3-{(E)-2-[4-(beta-D-Glucopyranosyloxy)-2-hydroxyphenyl]vinyl}-5-hydroxyphenyl beta-D-glucopyranoside
PRECURSORMZ:  613.17740825783
PRECURSORTYPE:  [M+FA-H]-
FORMULA:  C26H32O14
Ontology: Kingdom: Organic compounds;Superclass: Phenylpropanoids and polyketides;Class: Stilbenes;Subclass: Stilbene glycosides
INCHIKEY:  HPSWAEGGWLOOKT-UHFFFAOYNA-N
SMILES:  OCC1OC(OC2=CC(O)=C(C=CC3=CC(O)=CC(OC4OC(CO)C(O)C(O)C4O)=C3)C=C2)C(O)C(O)C1O
RETENTIONTIME:  
CCS:  -1
IONMODE:  Negative
INSTRUMENTTYPE:  
INSTRUMENT:  Maxis II HD Q-TOF Bruker
COLLISIONENERGY:  
Comment:  DB#=CCMSLIB00000850220; origin=GNPS
Num Peaks:  8
175.0739	40.0
181.06543	10.0
199.07588	40.0
201.05725	10.0
225.05777	30.0
243.06683	1000.0
405.11935	250.0
567.1734	200.0

NAME:  NCGC00380387-01_C21H27NO11_
PRECURSORMZ:  468.15113424083
PRECURSORTYPE:  [M-H]-
FORMULA:  C21H27NO11
Ontology: Kingdom: Organic compounds;Superclass: Organoheterocyclic compounds;Class: Indoles and derivatives;Subclass: Indolyl carboxylic acids and derivatives
INCHIKEY:  ISMUGWMKUVABAZ-UHFFFAOYNA-N
SMILES:  OCC1OC(OC2C(O)C(O)COC2N2C=C(CC(O)=O)C3=CC=CC=C23)C(O)C(O)C1O
RETENTIONTIME:  
CCS:  -1
IONMODE:  Negative
INSTRUMENTTYPE:  
INSTRUMENT:  Maxis II HD Q-TOF Bruker
COLLISIONENERGY:  
Comment:  DB#=CCMSLIB00000850670; origin=GNPS
Num Peaks:  14
113.02255	10.0
129.89255	10.0
130.06618	360.0
143.03305	10.0
160.0625	20.0
161.06007	20.0
174.05232	40.0
188.0811	20.0
193.34718	10.0
262.1088	110.0
288.073	10.0
306.10297	90.0
424.16113	30.0
468.15161	1000.0

NAME:  NCGC00380832-01_C18H21N3O3_2H-Pyrazino[2,1-b]quinazoline-3,6(1H,4H)-dione, 10-hydroxy-4-(1-methylethyl)-1-(2-methylpropylidene)-, (1Z,4S)-
PRECURSORMZ:  326.15101509583
PRECURSORTYPE:  [M-H]-
FORMULA:  C18H21N3O3
Ontology: Kingdom: Organic compounds;Superclass: Organoheterocyclic compounds;Class: Diazanaphthalenes;Subclass: Benzodiazines
INCHIKEY:  UVGDCLGJXMBOBD-UHFFFAOYNA-N
SMILES:  CC(C)C=C1N=C(O)C(C(C)C)N2C(=O)C3=C(N=C12)C(O)=CC=C3
RETENTIONTIME:  
CCS:  -1
IONMODE:  Negative
INSTRUMENTTYPE:  
INSTRUMENT:  Maxis II HD Q-TOF Bruker
COLLISIONENERGY:  
Comment:  DB#=CCMSLIB00000849902; origin=GNPS
Num Peaks:  17
134.16705	50.0
161.0365	190.0
186.03232	60.0
199.04045	90.0
227.07675	110.0
242.09721	70.0
244.11401	70.0
254.09395	250.0
268.07068	80.0
271.10904	80.0
283.08728	200.0
298.15881	80.0
311.12643	60.0
326.15012	1000.0
326.47983	50.0
327.07095	20.0
327.42703	20.0

NAME:  Pesticide4_Tebufenozide_C22H28N2O2_Benzoic acid, 3,5-dimethyl-, 1-(1,1-dimethylethyl)-2-(4-ethylbenzoyl)hydrazide
PRECURSORMZ:  397.21328069783
PRECURSORTYPE:  [M+FA-H]-
FORMULA:  C22H28N2O2
Ontology: ;;;
INCHIKEY:  QYPNKSZPJQQLRK-UHFFFAOYSA-N
SMILES:  CCC1=CC=C(C=C1)C(=O)NN(C(=O)C1=CC(C)=CC(C)=C1)C(C)(C)C
RETENTIONTIME:  
CCS:  -1
IONMODE:  Negative
INSTRUMENTTYPE:  
INSTRUMENT:  Maxis HD qTOF
COLLISIONENERGY:  
Comment:  DB#=CCMSLIB00001058354; origin=GNPS
Num Peaks:  15
75.62354	10.0
105.07494	10.0
130.9269	10.0
148.2755	20.0
148.78424	30.0
148.90579	10.0
149.05914	950.0
150.0605	10.0
204.13921	20.0
294.13651	20.0
349.46527	20.0
349.62317	20.0
351.01605	10.0
351.20715	1000.0
352.168	20.0

NAME:  NCGC00381196-01_C38H56N6O9_Acetamide, N-[eicosahydro-21-[(4-methoxyphenyl)methyl]-18,22-dimethyl-6-(1-methylethyl)-9-(1-methylpropyl)-5,8,11,16,20,23-hexaoxo-5H,16H-dipyrrolo[2,1-f:2',1'-o][1,4,7,10,13,16]oxapentaazacyclononadecin-17-yl]-
PRECURSORMZ:  785.40907995483
PRECURSORTYPE:  [M+FA-H]-
FORMULA:  C38H56N6O9
Ontology: Kingdom: Organic compounds;Superclass: Organic acids and derivatives;Class: Peptidomimetics;Subclass: Depsipeptides
INCHIKEY:  JEQWQKAKFXGXKA-UHFFFAOYNA-N
SMILES:  CCC(C)C1N=C(O)C2CCCN2C(=O)C(N=C(C)O)C(C)OC(=O)C(CC2=CC=C(OC)C=C2)N(C)C(=O)C2CCCN2C(=O)C(N=C1O)C(C)C
RETENTIONTIME:  
CCS:  -1
IONMODE:  Negative
INSTRUMENTTYPE:  
INSTRUMENT:  Maxis II HD Q-TOF Bruker
COLLISIONENERGY:  
Comment:  DB#=CCMSLIB00000851061; origin=GNPS
Num Peaks:  45
98.02499	10.0
115.05142	30.0
116.07141	140.0
122.0461	10.0
127.08752	150.0
141.10292	20.0
151.12221	20.0
152.07013	60.0
153.06642	20.0
154.08669	10.0
161.05992	10.0
165.06718	10.0
166.12427	30.0
167.11832	20.0
169.09958	40.0
181.09744	20.0
186.1264	10.0
193.0988	20.0
193.13347	10.0
195.11569	20.0
209.12875	280.0
211.10971	80.0
224.13992	50.0
232.13622	50.0
237.12578	30.0
240.1754	20.0
243.0938	10.0
258.11392	30.0
266.15253	10.0
276.12564	20.0
282.18228	40.0
307.16431	20.0
337.22046	20.0
339.20471	10.0
379.2374	30.0
394.24414	30.0
420.26169	20.0
436.25757	1000.0
437.25961	40.0
462.27319	30.0
480.2858	70.0
501.26782	20.0
695.38702	10.0
739.4043	300.0
740.41333	30.0

NAME:  NCGC00380973-01_C21H30O6_
PRECURSORMZ:  423.20244123383
PRECURSORTYPE:  [M+FA-H]-
FORMULA:  C21H30O6
Ontology: Kingdom: Organic compounds;Superclass: Organoheterocyclic compounds;Class: Naphthopyrans;
INCHIKEY:  BKISVXZMCJBOKR-UHFFFAOYNA-N
SMILES:  CCC1CC2C(C)=CC3CCCCC3C2(C)C2(O1)OC(=O)C(C)(O)OC2=O
RETENTIONTIME:  
CCS:  -1
IONMODE:  Negative
INSTRUMENTTYPE:  
INSTRUMENT:  Maxis II HD Q-TOF Bruker
COLLISIONENERGY:  
Comment:  DB#=CCMSLIB00000849781; origin=GNPS
Num Peaks:  7
87.00865	310.0
215.62712	20.0
235.00182	40.0
289.17865	50.0
305.21951	40.0
333.20596	30.0
377.19559	1000.0

NAME:  NCGC00180591-02_C36H58O10_1-O-[(2alpha,3beta,5xi,9xi,18xi)-2,3,23-Trihydroxy-28-oxoolean-12-en-28-yl]-beta-D-glucopyranose
PRECURSORMZ:  695.40120061583
PRECURSORTYPE:  [M+FA-H]-
FORMULA:  C36H58O10
Ontology: Kingdom: Organic compounds;Superclass: Lipids and lipid;Class: Prenol lipids;Subclass: Terpene glycosides
INCHIKEY:  CJHYKSSBQRABTM-UHFFFAOYNA-N
SMILES:  CC1(C)CCC2(CCC3(C)C(=CCC4C5(C)CC(O)C(O)C(C)(CO)C5CCC34C)C2C1)C(=O)OC1OC(CO)C(O)C(O)C1O
RETENTIONTIME:  
CCS:  -1
IONMODE:  Negative
INSTRUMENTTYPE:  
INSTRUMENT:  Maxis II HD Q-TOF Bruker
COLLISIONENERGY:  
Comment:  DB#=CCMSLIB00000849294; origin=GNPS
Num Peaks:  9
207.05217	20.0
473.33167	20.0
474.33005	30.0
486.33392	10.0
487.34366	1000.0
488.34793	20.0
529.34705	10.0
649.39221	30.0
695.40198	110.0

NAME:  NCGC00384677-01_C42H71NO29_
PRECURSORMZ:  1098.40937781783
PRECURSORTYPE:  [M+FA-H]-
FORMULA:  C42H71NO29
Ontology: Kingdom: Organic compounds;Superclass: Organic oxygen compounds;Class: Organooxygen compounds;Subclass: Carbohydrates and carbohydrate conjugates
INCHIKEY:  CLQVYHFCGNGQEU-UHFFFAOYNA-N
SMILES:  CC(C)CC(=O)OC1OC(CO)C(OC2OC(C)C(NC3C=C(CO)C(OC4OC(CO)C(OC5OC(CO)C(OC6OC(CO)C(O)C(O)C6O)C(O)C5O)C(O)C4O)C(O)C3O)C(O)C2O)C(O)C1O
RETENTIONTIME:  
CCS:  -1
IONMODE:  Negative
INSTRUMENTTYPE:  
INSTRUMENT:  Maxis II HD Q-TOF Bruker
COLLISIONENERGY:  
Comment:  DB#=CCMSLIB00000851427; origin=GNPS
Num Peaks:  125
83.01309	20.0
85.03065	20.0
87.0094	330.0
89.02708	20.0
95.01442	10.0
97.02982	60.0
99.04382	20.0
101.02414	160.0
101.06046	160.0
109.03288	30.0
111.00656	30.0
113.02393	90.0
115.04035	30.0
115.07651	30.0
119.03484	20.0
122.06547	10.0
123.04477	50.0
125.02452	90.0
127.04128	10.0
129.02049	10.0
131.04019	30.0
133.00716	10.0
134.06088	20.0
136.03897	30.0
138.05724	10.0
139.04219	30.0
141.05591	80.0
143.03391	160.0
143.06892	20.0
150.05568	40.0
151.0509	10.0
154.05148	20.0
156.06734	20.0
157.04878	10.0
159.03003	20.0
160.07933	10.0
161.04633	430.0
162.0536	40.0
164.06992	30.0
166.08611	40.0
168.06836	30.0
170.08279	10.0
174.07695	20.0
176.07124	10.0
178.08672	90.0
179.03404	10.0
180.06674	90.0
181.04987	10.0
182.08223	30.0
185.08049	30.0
186.08095	20.0
192.06758	20.0
194.08215	10.0
195.06657	10.0
196.10571	20.0
197.08156	10.0
198.0791	40.0
203.05594	30.0
206.08102	80.0
216.08717	250.0
221.06657	100.0
222.07539	30.0
224.08958	60.0
227.09125	10.0
230.09192	20.0
240.08801	20.0
242.10536	140.0
243.10294	10.0
245.10391	300.0
246.09793	120.0
248.09903	10.0
258.09766	40.0
260.11432	180.0
272.11755	10.0
276.1098	70.0
291.0679	20.0
296.11673	20.0
302.12814	80.0
305.12335	20.0
313.64551	10.0
320.13605	390.0
321.14236	80.0
326.12637	70.0
340.14673	20.0
344.13666	130.0
347.09537	10.0
350.12537	30.0
362.14709	1000.0
363.1503	90.0
365.10532	30.0
368.13522	20.0
383.11505	30.0
386.14386	50.0
404.15836	90.0
467.17514	30.0
488.21603	80.0
489.20416	20.0
506.22534	310.0
507.2287	30.0
527.15588	20.0
566.24591	260.0
567.25238	30.0
590.24542	10.0
608.25708	560.0
609.25928	80.0
650.26733	280.0
651.26898	60.0
668.25079	70.0
669.26373	10.0
728.30292	210.0
729.30084	30.0
752.30902	20.0
770.31079	360.0
771.30731	100.0
772.31964	20.0
812.31769	90.0
813.30591	10.0
814.3446	10.0
830.31769	20.0
890.35297	80.0
891.35748	10.0
892.33887	10.0
932.36469	210.0
933.36182	60.0
1052.38843	10.0

NAME:  NCGC00168908-03_C33H42O17_(1aS,1bS,2S,5aR,6S,6aS)-6-({3-O-Acetyl-6-deoxy-2-O-[(2E)-3-(4-methoxyphenyl)-2-propenoyl]-alpha-L-mannopyranosyl}oxy)-1a-(hydroxymethyl)-1a,1b,2,5a,6,6a-hexahydrooxireno[4,5]cyclopenta[1,2-c]pyran-2-yl beta-D-glucopyranoside
PRECURSORMZ:  755.24040243983
PRECURSORTYPE:  [M+FA-H]-
FORMULA:  C33H42O17
Ontology: Kingdom: Organic compounds;Superclass: Phenylpropanoids and polyketides;Class: Cinnamic acids and derivatives;Subclass: Cinnamic acid esters
INCHIKEY:  AUVKOEQGZIDTGI-UHFFFAOYNA-N
SMILES:  COC1=CC=C(C=CC(=O)OC2C(OC3C4OC4(CO)C4C3C=COC4OC3OC(CO)C(O)C(O)C3O)OC(C)C(O)C2OC(C)=O)C=C1
RETENTIONTIME:  
CCS:  -1
IONMODE:  Negative
INSTRUMENTTYPE:  
INSTRUMENT:  Maxis II HD Q-TOF Bruker
COLLISIONENERGY:  
Comment:  DB#=CCMSLIB00000849502; origin=GNPS
Num Peaks:  32
85.02724	30.0
99.0414	10.0
109.03008	20.0
113.02252	20.0
117.03572	20.0
118.0407	30.0
119.05015	140.0
121.03078	20.0
123.04379	50.0
125.02058	10.0
126.03267	20.0
127.03973	70.0
133.02509	20.0
133.06496	90.0
135.04245	50.0
137.02524	20.0
145.0269	40.0
145.04507	10.0
151.03812	120.0
161.0397	10.0
163.0397	80.0
169.05112	20.0
176.05997	10.0
177.05489	1000.0
181.04892	30.0
191.07167	20.0
193.0484	10.0
205.05165	10.0
223.06406	20.0
295.08432	10.0
391.14621	10.0
433.14844	80.0

NAME:  NCGC00169584-03_C28H38O7_Methyl (3beta,5beta,8alpha,9beta,10alpha,13alpha)-3-acetoxy-4,4,8,12,16-pentamethyl-15,17,19-trioxoandrost-11-ene-14-carboxylate
PRECURSORMZ:  485.25447711183
PRECURSORTYPE:  [M-H]-
FORMULA:  C28H38O7
Ontology: Kingdom: Organic compounds;Superclass: Lipids and lipid;Class: Steroids and steroid derivatives;Subclass: Steroid esters
INCHIKEY:  GRBXNADBNJGZRK-UHFFFAOYNA-N
SMILES:  COC(=O)C12C(=O)C(C)C(=O)C1(C)C(C)=CC1C2(C)CCC2C(C)(C)C(CCC12C=O)OC(C)=O
RETENTIONTIME:  
CCS:  -1
IONMODE:  Negative
INSTRUMENTTYPE:  
INSTRUMENT:  Maxis II HD Q-TOF Bruker
COLLISIONENERGY:  
Comment:  DB#=CCMSLIB00000850723; origin=GNPS
Num Peaks:  6
181.0479	10.0
182.05864	30.0
393.21146	10.0
425.23444	80.0
453.23105	40.0
485.25543	1000.0

NAME:  NCGC00380982-01_C22H25NO8_8-Benzoyl-2-[(3E)-1,2-dihydroxy-3-hexen-1-yl]-9-hydroxy-8-methoxy-3-methyl-1-oxa-7-azaspiro[4.4]non-2-ene-4,6-dione
PRECURSORMZ:  430.15074031683
PRECURSORTYPE:  [M-H]-
FORMULA:  C22H25NO8
Ontology: Kingdom: Organic compounds;Superclass: Organic oxygen compounds;Class: Organooxygen compounds;Subclass: Carbonyl compounds
INCHIKEY:  SLYDIPAXCVVRNY-UHFFFAOYNA-N
SMILES:  CCC=CC(O)C(O)C1=C(C)C(=O)C2(O1)C(O)C(OC)(N=C2O)C(=O)C1=CC=CC=C1
RETENTIONTIME:  
CCS:  222.3728907
IONMODE:  Negative
INSTRUMENTTYPE:  
INSTRUMENT:  Maxis II HD Q-TOF Bruker
COLLISIONENERGY:  
Comment:  DB#=CCMSLIB00000850373; origin=GNPS
Num Peaks:  37
73.76098	70.0
111.049	280.0
119.04841	350.0
121.03111	280.0
124.03191	410.0
131.04773	350.0
137.03819	380.0
139.04283	480.0
144.0491	830.0
145.02788	1000.0
148.03662	310.0
156.0825	350.0
159.06558	460.0
160.04044	90.0
183.08275	60.0
184.04109	380.0
188.05061	370.0
190.05759	380.0
198.79305	470.0
200.04308	470.0
200.07358	610.0
211.0611	210.0
212.07539	220.0
214.09784	180.0
224.06699	180.0
226.05508	160.0
227.06094	670.0
228.06317	220.0
241.08952	430.0
242.08607	440.0
243.06244	160.0
253.07057	440.0
254.07159	360.0
270.08786	470.0
286.07541	700.0
314.082	260.0
398.12183	180.0

NAME:  NCGC00380896-01_C32H42O14_
PRECURSORMZ:  695.25565857983
PRECURSORTYPE:  [M+FA-H]-
FORMULA:  C32H42O14
Ontology: Kingdom: Organic compounds;Superclass: Lipids and lipid;Class: Prenol lipids;Subclass: Terpene glycosides
INCHIKEY:  PWYKZGIRJKJYLR-UHFFFAOYNA-N
SMILES:  CC(C)CC(=O)OC1OC=C(COC2OC(CO)C(O)C(O)C2OC(=O)C=CC2=CC=C(O)C=C2)C2CCC(O)(COC(C)=O)C12
RETENTIONTIME:  
CCS:  -1
IONMODE:  Negative
INSTRUMENTTYPE:  
INSTRUMENT:  Maxis II HD Q-TOF Bruker
COLLISIONENERGY:  
Comment:  DB#=CCMSLIB00000849851; origin=GNPS
Num Peaks:  12
117.0337	80.0
119.04924	90.0
145.02885	1000.0
161.05707	20.0
163.04022	130.0
187.03972	80.0
205.05029	120.0
247.09381	20.0
349.09875	10.0
367.10339	100.0
547.18353	60.0
649.24683	350.0

NAME:  NCGC00385736-01_C42H64O16_
PRECURSORMZ:  823.41215952883
PRECURSORTYPE:  [M-H]-
FORMULA:  C42H64O16
Ontology: Kingdom: Organic compounds;Superclass: Lipids and lipid;Class: Prenol lipids;Subclass: Terpene glycosides
INCHIKEY:  PCPOJCNRMQVMOI-UHFFFAOYNA-N
SMILES:  CC1(CO)CC(O)C2(C)CCC3(C)C(=CCC4C3(C)CCC3C(C)(C)C(CCC43C=O)OC3OC(C(O)C(O)C3OC3OC(C(O)C(O)C3O)C(O)=O)C(O)=O)C2C1
RETENTIONTIME:  
CCS:  -1
IONMODE:  Negative
INSTRUMENTTYPE:  
INSTRUMENT:  Maxis II HD Q-TOF Bruker
COLLISIONENERGY:  
Comment:  DB#=CCMSLIB00000849386; origin=GNPS
Num Peaks:  14
85.03177	10.0
103.00394	20.0
113.02561	70.0
133.01355	10.0
157.01228	10.0
175.02534	40.0
193.03587	100.0
235.05089	10.0
289.05597	20.0
333.05453	10.0
351.05713	290.0
352.06897	10.0
823.4137	1000.0
824.4162	110.0

NAME:  NCGC00380467-01_C26H30O13_2H-Pyran-4-acetic acid, 5-carboxy-2-(beta-D-glucopyranosyloxy)-3,4-dihydro-3-[2-[[(2Z)-1-oxo-3-phenyl-2-propen-1-yl]oxy]ethylidene]-, alpha-methyl ester, (2S,3Z,4S)-
PRECURSORMZ:  549.16136457383
PRECURSORTYPE:  [M-H]-
FORMULA:  C26H30O13
Ontology: Kingdom: Organic compounds;Superclass: Lipids and lipid;Class: Prenol lipids;Subclass: Terpene glycosides
INCHIKEY:  JGHUOJAZXGSFRI-UHFFFAOYNA-N
SMILES:  COC(=O)CC1C(=CCOC(=O)C=CC2=CC=CC=C2)C(OC2OC(CO)C(O)C(O)C2O)OC=C1C(O)=O
RETENTIONTIME:  
CCS:  227.1963136
IONMODE:  Negative
INSTRUMENTTYPE:  
INSTRUMENT:  Maxis II HD Q-TOF Bruker
COLLISIONENERGY:  
Comment:  DB#=CCMSLIB00000850148; origin=GNPS
Num Peaks:  22
103.04868	20.0
119.03502	20.0
121.03581	30.0
132.03362	20.0
135.04202	90.0
139.00505	20.0
145.02893	280.0
147.04263	220.0
149.05995	20.0
151.07747	40.0
163.03561	30.0
165.02023	90.0
167.06914	20.0
177.05331	1000.0
179.05385	40.0
195.05746	80.0
221.04488	180.0
237.08139	30.0
239.06041	40.0
299.07361	20.0
369.10376	20.0
616.72504	20.0

NAME:  NCGC00347772-02_C26H30O8_4aH-Phenanthro[2,1-c]pyran-4a-carboxylic acid, 1,3,4,4b,5,7,8,10a,10b,11,12,12a-dodecahydro-6-hydroxy-3,4b,7,7,10a,12a-hexamethyl-12-methylene-1,4,5,8-tetraoxo-, methyl ester, (4bR,10aR,12aS)-
PRECURSORMZ:  469.18679147383
PRECURSORTYPE:  [M-H]-
FORMULA:  C26H30O8
Ontology: Kingdom: Organic compounds;Superclass: Lipids and lipid;Class: Steroids and steroid derivatives;Subclass: Steroid lactones
INCHIKEY:  NETXGRNQKFELFY-UHFFFAOYNA-N
SMILES:  COC(=O)C12C(=O)C(C)OC(=O)C1(C)C(=C)CC1C3(C)C=CC(=O)C(C)(C)C3=C(O)C(=O)C21C
RETENTIONTIME:  
CCS:  -1
IONMODE:  Negative
INSTRUMENTTYPE:  
INSTRUMENT:  Maxis II HD Q-TOF Bruker
COLLISIONENERGY:  
Comment:  DB#=CCMSLIB00000849410; origin=GNPS
Num Peaks:  66
128.71883	10.0
137.02156	20.0
137.06317	10.0
150.24023	10.0
171.02757	90.0
183.0349	30.0
185.00429	20.0
195.0249	10.0
197.03214	10.0
197.09254	20.0
198.0535	20.0
202.06685	10.0
202.09482	20.0
203.10133	10.0
211.11713	10.0
212.071	20.0
217.08466	10.0
223.06622	10.0
224.06886	10.0
226.06882	10.0
230.04126	30.0
231.10106	20.0
232.07112	10.0
238.08334	50.0
239.09444	20.0
241.08029	50.0
247.09906	20.0
253.07332	10.0
256.11359	100.0
266.12775	20.0
270.12543	10.0
271.09637	20.0
271.13336	20.0
277.11105	30.0
281.12177	10.0
283.0993	10.0
288.09955	10.0
309.1853	20.0
319.13763	40.0
322.16077	50.0
324.12244	10.0
334.15979	60.0
335.13037	10.0
341.00351	10.0
342.96344	10.0
343.04242	20.0
349.18326	50.0
350.14014	40.0
375.16193	30.0
378.15775	30.0
393.17081	60.0
395.13055	10.0
397.19864	20.0
407.18945	10.0
409.12372	10.0
409.16159	10.0
425.2067	20.0
426.16354	20.0
437.1604	180.0
437.25711	10.0
439.14188	160.0
441.2041	80.0
451.17084	10.0
454.16183	120.0
469.18628	1000.0
851.81445	20.0

NAME:  NCGC00380682-01_C13H18O8_
PRECURSORMZ:  347.09837008783
PRECURSORTYPE:  [M+FA-H]-
FORMULA:  C13H18O8
Ontology: Kingdom: Organic compounds;Superclass: Organic oxygen compounds;Class: Organooxygen compounds;Subclass: Carbohydrates and carbohydrate conjugates
INCHIKEY:  SJBWDSQCMPAGHA-UHFFFAOYNA-N
SMILES:  COC1=CC(OC2OC(CO)C(O)C(O)C2O)=CC(O)=C1
RETENTIONTIME:  
CCS:  -1
IONMODE:  Negative
INSTRUMENTTYPE:  
INSTRUMENT:  Maxis II HD Q-TOF Bruker
COLLISIONENERGY:  
Comment:  DB#=CCMSLIB00000851470; origin=GNPS
Num Peaks:  5
139.03987	1000.0
163.04057	30.0
181.04604	40.0
301.09354	50.0
302.43405	30.0

NAME:  NCGC00169010-02_C18H18O9_Naphtho[2,3-c]furan-1(3H)-one, 8-(beta-D-glucopyranosyloxy)-9-hydroxy-
PRECURSORMZ:  377.08780570783
PRECURSORTYPE:  [M-H]-
FORMULA:  C18H18O9
Ontology: Kingdom: Organic compounds;Superclass: Organic oxygen compounds;Class: Organooxygen compounds;Subclass: Carbohydrates and carbohydrate conjugates
INCHIKEY:  SGQJDTLFQCDZGS-UHFFFAOYNA-N
SMILES:  OCC1OC(OC2=CC=CC3=CC4=C(C(=O)OC4)C(O)=C23)C(O)C(O)C1O
RETENTIONTIME:  
CCS:  189.2105104
IONMODE:  Negative
INSTRUMENTTYPE:  
INSTRUMENT:  Maxis II HD Q-TOF Bruker
COLLISIONENERGY:  
Comment:  DB#=CCMSLIB00000849806; origin=GNPS
Num Peaks:  4
187.04106	30.0
215.03564	1000.0
376.99359	30.0
377.07864	30.0

NAME:  NCGC00380511-01_C26H36O11_
PRECURSORMZ:  523.21848552683
PRECURSORTYPE:  [M-H]-
FORMULA:  C26H36O11
Ontology: Kingdom: Organic compounds;Superclass: Lipids and lipid;Class: Fatty Acyls;Subclass: Fatty acyl glycosides
INCHIKEY:  CBGLETFGTARBGG-UHFFFAOYNA-N
SMILES:  CC(CCC1C(C)=CC(=O)CC1(C)C)OC1OC(COC(=O)C2=CC(O)=C(O)C(O)=C2)C(O)C(O)C1O
RETENTIONTIME:  
CCS:  228.6874273
IONMODE:  Negative
INSTRUMENTTYPE:  
INSTRUMENT:  Maxis II HD Q-TOF Bruker
COLLISIONENERGY:  
Comment:  DB#=CCMSLIB00000849677; origin=GNPS
Num Peaks:  17
71.01321	10.0
107.02075	10.0
111.00568	20.0
113.02324	20.0
123.00863	30.0
124.01839	20.0
125.03101	20.0
139.00455	20.0
140.01172	10.0
141.01991	50.0
151.00648	60.0
168.0087	10.0
169.01535	70.0
245.57457	10.0
313.05469	10.0
523.2193	1000.0
524.23206	20.0

NAME:  NCGC00381289-01_C26H32O12_Cyclopenta[c]pyran-4-carboxylic acid, 1-(beta-D-glucopyranosyloxy)-1,4a,5,6,7,7a-hexahydro-5-hydroxy-7-methyl-6-[[(2E)-1-oxo-3-phenyl-2-propen-1-yl]oxy]-, methyl ester, (1S,4aS,5S,6R,7R,7aR)-
PRECURSORMZ:  581.18757901783
PRECURSORTYPE:  [M+FA-H]-
FORMULA:  C26H32O12
Ontology: Kingdom: Organic compounds;Superclass: Lipids and lipid;Class: Prenol lipids;Subclass: Terpene glycosides
INCHIKEY:  KWXCZSMMAKGXBP-UHFFFAOYNA-N
SMILES:  COC(=O)C1=COC(OC2OC(CO)C(O)C(O)C2O)C2C(C)C(OC(=O)C=CC3=CC=CC=C3)C(O)C12
RETENTIONTIME:  
CCS:  -1
IONMODE:  Negative
INSTRUMENTTYPE:  
INSTRUMENT:  Maxis II HD Q-TOF Bruker
COLLISIONENERGY:  
Comment:  DB#=CCMSLIB00000849362; origin=GNPS
Num Peaks:  5
147.04422	1000.0
193.05347	10.0
225.0809	20.0
373.1297	260.0
581.18567	30.0

NAME:  NCGC00381048-01_C25H26O7_
PRECURSORMZ:  437.16057672483
PRECURSORTYPE:  [M-H]-
FORMULA:  C25H26O7
Ontology: Kingdom: Organic compounds;Superclass: Lipids and lipid;Class: Prenol lipids;Subclass: Terpene lactones
INCHIKEY:  YEOVVCBEYCCOOP-UHFFFAOYNA-N
SMILES:  CC(C)=CCCC(C)=CCC1=C(O)C(C2OC(=O)C3=C2C(O)=CC(=C3)C(O)=O)=C(O)C=C1
RETENTIONTIME:  
CCS:  -1
IONMODE:  Negative
INSTRUMENTTYPE:  
INSTRUMENT:  Maxis II HD Q-TOF Bruker
COLLISIONENERGY:  
Comment:  DB#=CCMSLIB00000849698; origin=GNPS
Num Peaks:  22
93.03345	250.0
161.0296	70.0
173.06709	110.0
175.55412	70.0
191.00427	110.0
192.008	120.0
201.05295	120.0
213.09	80.0
239.08873	140.0
240.07671	90.0
251.035	100.0
262.1048	100.0
266.08606	100.0
279.10892	150.0
279.94885	40.0
280.10779	90.0
281.12122	80.0
331.17047	30.0
349.17447	410.0
393.17786	1000.0
416.96619	90.0
437.16177	520.0

NAME:  NCGC00381209-01_C34H36O11_5,6-Bis(benzoyloxy)-3,4a,10a-trihydroxy-4,7,11b-trimethyl-9-oxo-1,2,3,4,4a,5,6,6a,7,9,10a,11,11a,11b-tetradecahydrophenanthro[3,2-b]furan-4-carboxylic acid
PRECURSORMZ:  619.21848552683
PRECURSORTYPE:  [M-H]-
FORMULA:  C34H36O11
Ontology: Kingdom: Organic compounds;Superclass: Lipids and lipid;Class: Steroids and steroid derivatives;Subclass: Steroid lactones
INCHIKEY:  WHOBGBIOIFGGMR-UHFFFAOYNA-N
SMILES:  CC1C2C(OC(=O)C3=CC=CC=C3)C(OC(=O)C3=CC=CC=C3)C3(O)C(C)(CCC(O)C3(C)C(O)=O)C2CC2(O)OC(=O)C=C12
RETENTIONTIME:  
CCS:  -1
IONMODE:  Negative
INSTRUMENTTYPE:  
INSTRUMENT:  Maxis II HD Q-TOF Bruker
COLLISIONENERGY:  
Comment:  DB#=CCMSLIB00000850790; origin=GNPS
Num Peaks:  12
121.02971	820.0
269.15759	80.0
287.16501	10.0
313.14557	40.0
331.1517	80.0
391.19962	10.0
435.18417	120.0
497.17743	20.0
513.22473	30.0
557.21899	1000.0
558.22858	20.0
619.22174	120.0

NAME:  NCGC00381024-01_C42H64O17_beta-D-Glucopyranose, 1-O-[(2E)-6-[[3,4-bis-O-[(2E)-6-hydroxy-2,6-dimethyl-1-oxo-2,7-octadien-1-yl]-beta-D-glucopyranosyl]oxy]-2,6-dimethyl-1-oxo-2,7-octadien-1-yl]-
PRECURSORMZ:  885.41255314883
PRECURSORTYPE:  [M+FA-H]-
FORMULA:  C42H64O17
Ontology: Kingdom: Organic compounds;Superclass: Lipids and lipid;Class: Saccharolipids;
INCHIKEY:  OIMUSOLEDHKDCV-UHFFFAOYNA-N
SMILES:  CC(=CCCC(C)(OC1OC(CO)C(OC(=O)C(C)=CCCC(C)(O)C=C)C(OC(=O)C(C)=CCCC(C)(O)C=C)C1O)C=C)C(=O)OC1OC(CO)C(O)C(O)C1O
RETENTIONTIME:  
CCS:  -1
IONMODE:  Negative
INSTRUMENTTYPE:  
INSTRUMENT:  Maxis II HD Q-TOF Bruker
COLLISIONENERGY:  
Comment:  DB#=CCMSLIB00000851181; origin=GNPS
Num Peaks:  28
85.03072	20.0
111.08197	10.0
113.0234	80.0
119.03101	10.0
121.1033	20.0
139.11281	180.0
143.03682	20.0
155.06886	20.0
161.04568	40.0
165.09209	30.0
183.10233	900.0
184.10588	30.0
197.11844	30.0
225.11172	70.0
301.16763	10.0
309.13068	10.0
327.14572	310.0
328.14951	30.0
345.15549	50.0
369.16373	10.0
493.24716	320.0
494.24936	30.0
511.25385	400.0
512.26068	50.0
553.27136	10.0
677.35535	1000.0
678.36053	160.0
719.36743	30.0

NAME:  NCGC00168940-03_C26H34O12_4-{[(3S,4R,5S)-3-Hydroxy-5-(4-hydroxy-3-methoxyphenyl)-4-(hydroxymethyl)tetrahydro-3-furanyl]methyl}-2-methoxyphenyl beta-D-glucopyranoside
PRECURSORMZ:  583.20322908283
PRECURSORTYPE:  [M+FA-H]-
FORMULA:  C26H34O12
Ontology: Kingdom: Organic compounds;Superclass: Lignans;Class: Lignan glycosides;
INCHIKEY:  SXGSYHDLSPXCMU-UHFFFAOYNA-N
SMILES:  COC1=C(O)C=CC(=C1)C1OCC(O)(CC2=CC(OC)=C(OC3OC(CO)C(O)C(O)C3O)C=C2)C1CO
RETENTIONTIME:  
CCS:  -1
IONMODE:  Negative
INSTRUMENTTYPE:  
INSTRUMENT:  Maxis II HD Q-TOF Bruker
COLLISIONENERGY:  
Comment:  DB#=CCMSLIB00000849620; origin=GNPS
Num Peaks:  9
189.05476	20.0
203.07088	20.0
256.0762	10.0
257.08484	20.0
312.10257	10.0
327.12329	20.0
360.12216	90.0
375.14597	1000.0
537.198	120.0

NAME:  NCGC00380764-01_C23H32O5_2,4-Dihydroxy-6-(hydroxymethyl)-3-[(6-hydroxy-1,2,5,5-tetramethyl-1,2,3,4,4a,5,6,7-octahydro-1-naphthalenyl)methyl]benzaldehyde
PRECURSORMZ:  387.21769767783
PRECURSORTYPE:  [M-H]-
FORMULA:  C23H32O5
Ontology: ;;;
INCHIKEY:  KCAICXOYUFVURO-UHFFFAOYNA-N
SMILES:  CC1CCC2C(=CCC(O)C2(C)C)C1(C)CC1=C(O)C=C(CO)C(C=O)=C1O
RETENTIONTIME:  
CCS:  -1
IONMODE:  Negative
INSTRUMENTTYPE:  
INSTRUMENT:  Maxis II HD Q-TOF Bruker
COLLISIONENERGY:  
Comment:  DB#=CCMSLIB00000850401; origin=GNPS
Num Peaks:  15
107.04781	20.0
123.0449	20.0
150.03365	30.0
150.84515	10.0
151.03944	80.0
162.03535	30.0
167.0374	20.0
179.03284	270.0
180.04083	290.0
181.05246	20.0
182.45811	10.0
212.03424	30.0
386.39169	10.0
387.21603	1000.0
388.21844	10.0

NAME:  NCGC00380597-01_C28H38O10_Methyl 5-acetoxy-6,10-dihydroxy-2,4b,7,7,10a,12a-hexamethyl-12-methylene-1,4,8-trioxohexadecahydro-2H-naphtho[1,2-h]isochromene-2-carboxylate
PRECURSORMZ:  579.24469997183
PRECURSORTYPE:  [M+FA-H]-
FORMULA:  C28H38O10
Ontology: Kingdom: Organic compounds;Superclass: Lipids and lipid;Class: Steroids and steroid derivatives;Subclass: Steroid lactones
INCHIKEY:  BTGVTHAIJREEMO-UHFFFAOYNA-N
SMILES:  COC(=O)C1(C)OC(=O)C2C3(C)C(OC(C)=O)C(O)C4C(C)(C)C(=O)CC(O)C4(C)C3CC(=C)C2(C)C1=O
RETENTIONTIME:  
CCS:  -1
IONMODE:  Negative
INSTRUMENTTYPE:  
INSTRUMENT:  Maxis II HD Q-TOF Bruker
COLLISIONENERGY:  
Comment:  DB#=CCMSLIB00000849270; origin=GNPS
Num Peaks:  72
113.06079	70.0
117.01874	280.0
120.58719	70.0
145.06345	90.0
173.07689	90.0
187.07368	70.0
190.06581	30.0
197.06374	50.0
223.82463	80.0
231.13576	60.0
241.08038	50.0
244.2065	40.0
244.35648	40.0
245.67436	50.0
255.10695	60.0
255.17477	100.0
257.20392	50.0
272.62039	80.0
279.31088	50.0
280.9725	50.0
289.00592	70.0
290.84763	110.0
311.19766	50.0
315.19199	60.0
323.16629	330.0
325.10266	70.0
332.20456	90.0
341.21097	80.0
343.1604	40.0
351.14841	60.0
361.20178	40.0
371.22803	100.0
379.17557	50.0
385.1568	80.0
387.21948	170.0
389.21057	60.0
395.19073	20.0
397.19455	70.0
400.17322	120.0
401.19617	180.0
408.98825	40.0
413.20877	30.0
415.20676	390.0
418.207	60.0
431.20609	290.0
432.19821	70.0
433.22543	280.0
435.19531	90.0
439.18683	60.0
441.19379	70.0
442.14603	80.0
442.20099	550.0
443.19608	80.0
457.22418	1000.0
459.21533	80.0
460.20517	180.0
471.2403	80.0
473.19919	40.0
473.22885	50.0
474.47592	40.0
474.81644	20.0
475.24347	890.0
483.19296	50.0
489.25226	140.0
489.30075	110.0
501.16141	70.0
501.22073	820.0
519.21124	70.0
523.03284	50.0
533.24878	230.0
541.00232	80.0
576.27155	40.0

NAME:  NCGC00381061-01_C30H51N5O9_Pyrrolo[1,2-d][1,4,7,10,13,16]oxapentaazacyclononadecine-1,4,7,10,14,17(11H,16H)-hexone, 16-(2,3-dihydroxypropyl)dodecahydro-5,8,9,21-tetramethyl-6-(1-methylethyl)-3-(1-methylpropyl)-
PRECURSORMZ:  624.36140178983
PRECURSORTYPE:  [M-H]-
FORMULA:  C30H51N5O9
Ontology: Kingdom: Organic compounds;Superclass: Organic acids and derivatives;Class: Peptidomimetics;Subclass: Depsipeptides
INCHIKEY:  FFVWTCUZUPVJAB-UHFFFAOYNA-N
SMILES:  CCC(C)C1N=C(O)C2C(C)CCN2C(=O)C(CC(O)CO)OC(=O)CCN=C(O)C(C)N(C)C(=O)C(C(C)C)N(C)C1=O
RETENTIONTIME:  
CCS:  -1
IONMODE:  Negative
INSTRUMENTTYPE:  
INSTRUMENT:  Maxis II HD Q-TOF Bruker
COLLISIONENERGY:  
Comment:  DB#=CCMSLIB00000850952; origin=GNPS
Num Peaks:  51
101.79191	20.0
115.25256	30.0
127.04907	30.0
128.0744	90.0
135.04642	40.0
137.02019	40.0
139.04002	20.0
165.10063	160.0
166.12622	30.0
167.53107	10.0
169.09943	40.0
172.20773	60.0
173.097	120.0
195.15164	30.0
206.1167	30.0
220.74393	30.0
225.16086	50.0
242.84038	20.0
252.12752	30.0
254.18195	50.0
254.21498	30.0
282.18015	40.0
286.18359	30.0
310.25391	40.0
337.17493	10.0
350.21375	20.0
368.22205	70.0
382.27057	20.0
399.26147	30.0
420.29016	50.0
421.27112	30.0
424.26654	30.0
431.32571	20.0
437.62921	20.0
438.1767	10.0
438.27286	40.0
438.30832	380.0
439.31711	30.0
450.26874	20.0
492.31808	50.0
522.32898	10.0
534.33722	40.0
552.33868	210.0
553.35754	40.0
564.34937	20.0
566.32483	20.0
606.35547	30.0
624.36121	1000.0
625.36108	10.0
636.0614	30.0
636.17578	20.0

NAME:  NCGC00380526-01_C22H30O6_1-Naphthalenecarboxylic acid, 3-(acetyloxy)-5-[2-(3-furanyl)ethyl]-3,4,4a,5,6,7,8,8a-octahydro-8a-(hydroxymethyl)-5,6-dimethyl-
PRECURSORMZ:  435.20244123383
PRECURSORTYPE:  [M+FA-H]-
FORMULA:  C22H30O6
Ontology: Kingdom: Organic compounds;Superclass: Lipids and lipid;Class: Prenol lipids;Subclass: Diterpenoids
INCHIKEY:  NRNSOEIINXSQRA-UHFFFAOYNA-N
SMILES:  CC1CCC2(CO)C(CC(OC(C)=O)C=C2C(O)=O)C1(C)CCC1=COC=C1
RETENTIONTIME:  
CCS:  -1
IONMODE:  Negative
INSTRUMENTTYPE:  
INSTRUMENT:  Maxis II HD Q-TOF Bruker
COLLISIONENERGY:  
Comment:  DB#=CCMSLIB00000851355; origin=GNPS
Num Peaks:  22
115.98185	20.0
127.03624	30.0
137.10135	40.0
173.94395	50.0
223.14691	20.0
241.16121	40.0
245.15199	60.0
249.46426	30.0
269.15286	80.0
271.16812	40.0
286.16632	50.0
301.18521	470.0
313.15564	40.0
331.16049	40.0
338.23322	60.0
343.15582	130.0
345.17102	1000.0
346.186	50.0
366.20078	30.0
375.18228	900.0
415.01691	20.0
435.21231	70.0

NAME:  Pesticide8_Hydramethylnon_C25H24F6N4_2(1H)-Pyrimidinone, tetrahydro-5,5-dimethyl-, 2-[(2E)-3-[4-(trifluoromethyl)phenyl]-1-[(E)-2-[4-(trifluoromethyl)phenyl]ethenyl]-2-propen-1-ylidene]hydrazone
PRECURSORMZ:  529.1599170269
PRECURSORTYPE:  [M+Cl]-
FORMULA:  C25H24F6N4
Ontology: Kingdom: Organic compounds;Superclass: Benzenoids;Class: Benzene and substituted derivatives;Subclass: Trifluoromethylbenzenes
INCHIKEY:  IQVNEKKDSLOHHK-UHFFFAOYSA-N
SMILES:  CC1(C)CNC(NN=C(C=CC2=CC=C(C=C2)C(F)(F)F)C=CC2=CC=C(C=C2)C(F)(F)F)=NC1
RETENTIONTIME:  
CCS:  -1
IONMODE:  Negative
INSTRUMENTTYPE:  
INSTRUMENT:  Q-Exactive Plus Orbitrap Res 70k
COLLISIONENERGY:  
Comment:  DB#=CCMSLIB00001058430; origin=GNPS
Num Peaks:  65
72.18398	10.0
75.00591	20.0
75.57742	20.0
75.87604	20.0
82.6011	20.0
91.26109	20.0
94.41627	20.0
95.9932	20.0
98.56296	20.0
100.14073	20.0
100.9909	20.0
101.81879	20.0
105.97985	20.0
109.43014	20.0
112.70673	20.0
112.73369	20.0
121.35108	20.0
131.57536	20.0
131.83701	20.0
137.72374	20.0
141.73824	20.0
145.02724	480.0
148.25806	20.0
148.32957	20.0
159.04288	80.0
163.24321	20.0
168.94029	20.0
173.12688	20.0
176.49521	20.0
177.37141	20.0
182.22682	20.0
184.56906	20.0
189.01707	30.0
196.09424	30.0
216.59038	20.0
219.08574	20.0
219.10419	20.0
219.94566	20.0
220.06949	30.0
237.06525	840.0
238.06035	130.0
252.85034	20.0
255.11169	20.0
276.13223	530.0
282.30896	20.0
287.44067	20.0
288.50101	20.0
294.12241	80.0
296.00922	20.0
296.1384	330.0
302.47284	20.0
343.03479	20.0
347.14987	100.0
352.98337	20.0
355.09381	110.0
364.98242	30.0
381.08386	30.0
383.09912	170.0
388.98254	20.0
401.19302	20.0
404.9967	20.0
421.15057	20.0
448.98282	20.0
480.02463	30.0
493.18298	1000.0

NAME:  NCGC00380217-01_C20H28O4_4a(2H)-Phenanthrenecarboxylic acid, 7-ethenyl-1,3,4,4b,5,6,7,9,10,10a-decahydro-4b-hydroxy-1,1,7-trimethyl-9-oxo-
PRECURSORMZ:  331.19148292983
PRECURSORTYPE:  [M-H]-
FORMULA:  C20H28O4
Ontology: Kingdom: Organic compounds;Superclass: Benzenoids;Class: Phenanthrenes and derivatives;Subclass: Hydrophenanthrenes
INCHIKEY:  VIDNIVWPSMVGJV-UHFFFAOYNA-N
SMILES:  CC1(C)CCCC2(C1CC(=O)C1=CC(C)(CCC21O)C=C)C(O)=O
RETENTIONTIME:  
CCS:  184.4376543
IONMODE:  Negative
INSTRUMENTTYPE:  
INSTRUMENT:  Maxis II HD Q-TOF Bruker
COLLISIONENERGY:  
Comment:  DB#=CCMSLIB00000850817; origin=GNPS
Num Peaks:  8
137.70514	30.0
214.1353	70.0
218.10037	80.0
226.13176	70.0
241.15961	50.0
269.19067	1000.0
270.18878	20.0
331.19043	380.0

NAME:  NCGC00169689-02_C48H78O19_beta-D-Glucopyranose, O-6-deoxy-alpha-L-mannopyranosyl-(1->4)-O-beta-D-glucopyranosyl-(1->6)-1-O-[(2alpha,3beta,5xi,9xi,18xi)-2,3,23-trihydroxy-28-oxours-12-en-28-yl]-
PRECURSORMZ:  939.49588915983
PRECURSORTYPE:  [M-H2O-H]-
FORMULA:  C48H78O19
Ontology: Kingdom: Organic compounds;Superclass: Lipids and lipid;Class: Prenol lipids;Subclass: Terpene glycosides
INCHIKEY:  WYQVAPGDARQUBT-UHFFFAOYNA-N
SMILES:  CC1CCC2(CCC3(C)C(=CCC4C5(C)CC(O)C(O)C(C)(CO)C5CCC34C)C2C1C)C(=O)OC1OC(COC2OC(CO)C(OC3OC(C)C(O)C(O)C3O)C(O)C2O)C(O)C(O)C1O
RETENTIONTIME:  
CCS:  -1
IONMODE:  Negative
INSTRUMENTTYPE:  
INSTRUMENT:  Maxis II HD Q-TOF Bruker
COLLISIONENERGY:  
Comment:  DB#=CCMSLIB00000850544; origin=GNPS
Num Peaks:  57
84.02146	30.0
85.02942	100.0
89.02377	20.0
95.0118	40.0
97.02766	20.0
99.00713	40.0
113.023	180.0
121.02832	30.0
138.9987	20.0
153.05627	10.0
157.00784	20.0
242.93852	20.0
250.44901	10.0
292.96313	20.0
304.94519	30.0
308.03033	40.0
342.00064	10.0
356.05109	10.0
367.00153	10.0
369.01935	10.0
408.99017	10.0
437.34781	20.0
453.35797	40.0
454.34753	20.0
455.35516	40.0
476.49472	30.0
478.36902	10.0
482.94064	20.0
483.3295	20.0
489.11661	20.0
497.36923	10.0
523.3764	50.0
524.38324	10.0
537.35645	50.0
538.3576	10.0
567.36945	10.0
569.37823	110.0
569.45062	20.0
570.38403	20.0
584.77386	10.0
587.39478	20.0
613.36761	110.0
613.6366	10.0
632.39545	20.0
679.76294	20.0
686.71045	20.0
696.70386	10.0
731.43805	50.0
793.45398	20.0
877.50446	50.0
921.5014	20.0
937.49713	20.0
937.94098	20.0
939.50031	1000.0
940.49701	200.0
941.52161	30.0
941.66077	20.0

NAME:  NCGC00380762-01_C25H34O7_7-Formyl-4,7'-dihydroxy-6-(hydroxymethyl)-2',5',5',8a'-tetramethyl-3',4',4a',5',6',7',8',8a'-octahydro-2'H,3H-spiro[1-benzofuran-2,1'-naphthalen]-6'-yl acetate
PRECURSORMZ:  445.22317698283
PRECURSORTYPE:  [M-H]-
FORMULA:  C25H34O7
Ontology: Kingdom: Organic compounds;Superclass: Organoheterocyclic compounds;Class: Benzofurans;
INCHIKEY:  ZTVXBYHCHQJAQR-UHFFFAOYNA-N
SMILES:  CC1CCC2C(C)(C)C(OC(C)=O)C(O)CC2(C)C11CC2=C(O)C=C(CO)C(C=O)=C2O1
RETENTIONTIME:  
CCS:  -1
IONMODE:  Negative
INSTRUMENTTYPE:  
INSTRUMENT:  Maxis II HD Q-TOF Bruker
COLLISIONENERGY:  
Comment:  DB#=CCMSLIB00000850397; origin=GNPS
Num Peaks:  8
177.08499	10.0
179.03717	20.0
345.20987	20.0
355.19424	40.0
375.21109	20.0
385.1987	120.0
386.21411	10.0
445.224	1000.0

NAME:  NCGC00380795-01_C19H22O5_(1R,2R,5R,8R,9S,10R,12S)-12-Hydroxy-11-methyl-6-methylene-16-oxo-15-oxapentacyclo[9.3.2.1~5,8~.0~1,10~.0~2,8~]heptadec-13-ene-9-carboxylic acid
PRECURSORMZ:  375.14492635583
PRECURSORTYPE:  [M+FA-H]-
FORMULA:  C19H22O5
Ontology: Kingdom: Organic compounds;Superclass: Lipids and lipid;Class: Prenol lipids;Subclass: Diterpenoids
INCHIKEY:  SEEGHKWOBVVBTQ-UHFFFAOYNA-N
SMILES:  [H]C12CC3(CC1=C)C(CC2)C12OC(=O)C(C)(C1C3C(O)=O)C(O)C=C2
RETENTIONTIME:  
CCS:  -1
IONMODE:  Negative
INSTRUMENTTYPE:  
INSTRUMENT:  Maxis II HD Q-TOF Bruker
COLLISIONENERGY:  
Comment:  DB#=CCMSLIB00000850682; origin=GNPS
Num Peaks:  16
83.05148	20.0
145.06084	30.0
199.07629	10.0
211.11296	70.0
219.12486	30.0
221.13152	10.0
222.70265	40.0
223.15047	630.0
237.12494	130.0
239.13931	20.0
243.1382	30.0
255.16304	10.0
285.14655	40.0
329.1384	1000.0
1107.6001	10.0
1129.12427	10.0

NAME:  NCGC00169148-03_C22H26O12_Benzoic acid, 4-hydroxy-, 1-(hexopyranosyloxy)-1,4a,5,7a-tetrahydro-4a-hydroxy-7-(hydroxymethyl)cyclopenta[c]pyran-5-yl ester
PRECURSORMZ:  481.13514982483
PRECURSORTYPE:  [M-H]-
FORMULA:  C22H26O12
Ontology: Kingdom: Organic compounds;Superclass: Lipids and lipid;Class: Prenol lipids;Subclass: Terpene glycosides
INCHIKEY:  RUMMZUFGTMKLMC-UHFFFAOYNA-N
SMILES:  OCC1OC(OC2OC=CC3(O)C(OC(=O)C4=CC=C(O)C=C4)C=C(CO)C23)C(O)C(O)C1O
RETENTIONTIME:  
CCS:  207.0475912
IONMODE:  Negative
INSTRUMENTTYPE:  
INSTRUMENT:  Maxis II HD Q-TOF Bruker
COLLISIONENERGY:  
Comment:  DB#=CCMSLIB00000849509; origin=GNPS
Num Peaks:  17
93.03251	60.0
108.02247	10.0
111.04338	60.0
111.1804	10.0
136.01541	90.0
137.0233	1000.0
151.03955	20.0
163.03261	30.0
179.05264	10.0
181.05045	70.0
236.96407	10.0
258.04498	10.0
283.05951	20.0
301.06927	510.0
302.06946	10.0
343.09799	10.0
481.13525	270.0

NAME:  NCGC00380271-01_C24H40O11_2-Cyclohexen-1-one, 3,5,5-trimethyl-4-[3-[(6-O-beta-D-xylopyranosyl-beta-D-glucopyranosyl)oxy]butyl]-
PRECURSORMZ:  549.25526465583
PRECURSORTYPE:  [M+FA-H]-
FORMULA:  C24H40O11
Ontology: Kingdom: Organic compounds;Superclass: Lipids and lipid;Class: Fatty Acyls;Subclass: Fatty acyl glycosides
INCHIKEY:  LYJZPTUVRHPVNB-UHFFFAOYNA-N
SMILES:  CC(CCC1C(C)=CC(=O)CC1(C)C)OC1OC(COC2OCC(O)C(O)C2O)C(O)C(O)C1O
RETENTIONTIME:  
CCS:  -1
IONMODE:  Negative
INSTRUMENTTYPE:  
INSTRUMENT:  Maxis II HD Q-TOF Bruker
COLLISIONENERGY:  
Comment:  DB#=CCMSLIB00000851139; origin=GNPS
Num Peaks:  16
89.02325	10.0
101.02257	30.0
113.02219	20.0
125.02244	10.0
131.03458	20.0
149.04362	70.0
159.02632	30.0
161.0448	180.0
191.05432	20.0
209.15334	20.0
215.05362	10.0
293.08716	10.0
311.09445	10.0
371.20792	650.0
503.24973	1000.0
549.24634	10.0

NAME:  NCGC00380716-01_C19H30O6_(2E)-3-(4-Acetoxy-2,3-dihydroxy-2,5,5,8a-tetramethyldecahydro-1-naphthalenyl)acrylic acid
PRECURSORMZ:  399.20244123383
PRECURSORTYPE:  [M+FA-H]-
FORMULA:  C19H30O6
Ontology: Kingdom: Organic compounds;Superclass: Organic acids and derivatives;Class: Carboxylic acids and derivatives;Subclass: Dicarboxylic acids and derivatives
INCHIKEY:  OZESVNMBZAEFCX-UHFFFAOYNA-N
SMILES:  CC(=O)OC1C(O)C(C)(O)C(C=CC(O)=O)C2(C)CCCC(C)(C)C12
RETENTIONTIME:  
CCS:  -1
IONMODE:  Negative
INSTRUMENTTYPE:  
INSTRUMENT:  Maxis II HD Q-TOF Bruker
COLLISIONENERGY:  
Comment:  DB#=CCMSLIB00000850102; origin=GNPS
Num Peaks:  20
85.0291	110.0
130.96976	70.0
140.76482	40.0
141.05533	70.0
151.11232	90.0
193.15666	80.0
231.17641	620.0
232.17253	70.0
237.15071	1000.0
249.18553	190.0
273.1918	70.0
290.93845	40.0
291.19711	60.0
292.76541	40.0
293.17914	420.0
295.17932	60.0
353.19537	790.0
398.2128	50.0
795.56537	80.0
1483.02563	20.0

NAME:  NCGC00381334-01_C49H72O26_alpha-D-Glucopyranoside, O-6-O-[(2E)-2-methyl-1-oxo-2-buten-1-yl]-beta-D-glucopyranosyl-(1->2)-6-O-[(2E)-2-methyl-1-oxo-2-buten-1-yl]-alpha-D-glucopyranosyl O-3,6-bis-O-[(2E)-2-methyl-1-oxo-2-buten-1-yl]-beta-D-glucopyranosyl-(1->2)-6-O-[(2E)-2-methyl-1-oxo-2-buten-1-yl]-
PRECURSORMZ:  1121.42938498583
PRECURSORTYPE:  [M+FA-H]-
FORMULA:  C49H72O26
Ontology: Kingdom: Organic compounds;Superclass: Lipids and lipid;Class: Saccharolipids;
INCHIKEY:  SUEAHVAYPMIWAF-UHFFFAOYNA-N
SMILES:  CC=C(C)C(=O)OCC1OC(OC2C(O)C(O)C(COC(=O)C(C)=CC)OC2OC2OC(COC(=O)C(C)=CC)C(O)C(O)C2OC2OC(COC(=O)C(C)=CC)C(O)C(OC(=O)C(C)=CC)C2O)C(O)C(O)C1O
RETENTIONTIME:  
CCS:  -1
IONMODE:  Negative
INSTRUMENTTYPE:  
INSTRUMENT:  Maxis II HD Q-TOF Bruker
COLLISIONENERGY:  
Comment:  DB#=CCMSLIB00000849773; origin=GNPS
Num Peaks:  116
85.02575	20.0
87.01194	20.0
89.02389	20.0
91.05548	10.0
97.02993	20.0
99.00749	20.0
99.04504	1000.0
100.04872	10.0
101.02472	20.0
111.0098	20.0
112.98649	20.0
113.02608	80.0
113.06111	60.0
115.03391	10.0
116.79529	10.0
119.01934	20.0
119.03668	30.0
125.02531	210.0
135.04172	10.0
137.02103	40.0
139.08331	10.0
141.0549	90.0
143.03351	200.0
151.03642	10.0
151.08575	10.0
154.03128	10.0
156.08298	10.0
161.04337	90.0
165.01453	10.0
165.06201	10.0
167.03397	20.0
179.05472	110.0
189.07677	20.0
192.95062	20.0
195.06879	10.0
200.99654	20.0
201.07436	60.0
202.08055	10.0
203.05525	70.0
213.04213	10.0
221.06456	20.0
222.06966	10.0
225.08769	10.0
226.08022	10.0
227.06313	20.0
231.04222	20.0
243.084	30.0
245.07405	50.0
261.09641	20.0
263.08493	10.0
269.06616	40.0
284.10065	10.0
285.0983	10.0
287.07507	20.0
303.11172	90.0
304.13791	20.0
305.02286	10.0
305.08862	70.0
306.09918	10.0
308.97824	10.0
323.09784	20.0
327.10315	20.0
341.09515	10.0
343.13742	10.0
345.11487	20.0
351.10437	20.0
356.74677	10.0
380.31039	10.0
387.12933	30.0
405.13803	10.0
413.10489	10.0
431.13312	10.0
449.12805	40.0
456.88495	10.0
467.14938	50.0
471.11411	10.0
485.15634	30.0
487.18439	30.0
513.14807	20.0
531.16742	20.0
549.18152	60.0
563.151	10.0
567.19714	20.0
581.17963	10.0
585.20013	10.0
593.16583	20.0
594.03662	10.0
611.18225	90.0
631.22418	30.0
649.2276	60.0
650.25128	40.0
675.21771	70.0
693.22601	130.0
694.23584	30.0
711.23004	70.0
711.30109	20.0
712.24188	10.0
731.30536	10.0
745.28473	10.0
750.26599	20.0
775.25928	80.0
776.27826	20.0
793.27325	220.0
794.27765	90.0
811.28882	70.0
812.29449	30.0
875.32275	170.0
876.32074	60.0
893.34015	150.0
894.3277	50.0
911.35248	10.0
975.3689	70.0
976.3595	20.0
993.38019	50.0
1075.37842	20.0
1385.40686	20.0

NAME:  Pesticide8_Hydramethylnon_C25H24F6N4_2(1H)-Pyrimidinone, tetrahydro-5,5-dimethyl-, 2-[(2E)-3-[4-(trifluoromethyl)phenyl]-1-[(E)-2-[4-(trifluoromethyl)phenyl]ethenyl]-2-propen-1-ylidene]hydrazone
PRECURSORMZ:  493.18323931483
PRECURSORTYPE:  [M-H]-
FORMULA:  C25H24F6N4
Ontology: Kingdom: Organic compounds;Superclass: Benzenoids;Class: Benzene and substituted derivatives;Subclass: Trifluoromethylbenzenes
INCHIKEY:  IQVNEKKDSLOHHK-UHFFFAOYSA-N
SMILES:  CC1(C)CNC(NN=C(C=CC2=CC=C(C=C2)C(F)(F)F)C=CC2=CC=C(C=C2)C(F)(F)F)=NC1
RETENTIONTIME:  
CCS:  205.5318664
IONMODE:  Negative
INSTRUMENTTYPE:  
INSTRUMENT:  Q-Exactive Plus Orbitrap Res 70k
COLLISIONENERGY:  
Comment:  DB#=CCMSLIB00001058426; origin=GNPS
Num Peaks:  33
95.06121	10.0
121.07719	20.0
126.10375	20.0
145.02702	540.0
159.04265	50.0
164.03174	10.0
176.08807	30.0
184.03777	30.0
189.0168	120.0
196.09457	40.0
200.06279	30.0
217.05867	10.0
220.06914	80.0
224.05687	20.0
236.04428	10.0
237.06494	1000.0
238.06	170.0
240.10074	20.0
242.11603	10.0
255.11128	40.0
256.12595	20.0
276.13187	690.0
294.12311	70.0
296.138	320.0
315.08087	20.0
335.08649	10.0
347.14929	110.0
355.0932	170.0
363.09305	20.0
381.08328	70.0
383.09879	210.0
437.12125	30.0
493.18237	350.0

NAME:  NCGC00381205-01_C27H38O6_(5xi,8alpha,9xi,10alpha)-14-Acetoxy-15-{[(2Z)-2-methyl-2-butenoyl]oxy}kaur-16-en-18-oic acid
PRECURSORMZ:  503.26504149183
PRECURSORTYPE:  [M+FA-H]-
FORMULA:  C27H38O6
Ontology: Kingdom: Organic compounds;Superclass: Lipids and lipid;Class: Prenol lipids;Subclass: Diterpenoids
INCHIKEY:  ALSZHZPQTCVXIR-UHFFFAOYNA-N
SMILES:  [H]C12CCC3C(CCC4C3(C)CCCC4(C)C(O)=O)(C(OC(=O)C(C)=CC)C1=C)C2OC(C)=O
RETENTIONTIME:  
CCS:  -1
IONMODE:  Negative
INSTRUMENTTYPE:  
INSTRUMENT:  Maxis II HD Q-TOF Bruker
COLLISIONENERGY:  
Comment:  DB#=CCMSLIB00000851085; origin=GNPS
Num Peaks:  11
99.04279	120.0
172.56847	10.0
176.03165	20.0
219.91333	30.0
351.01022	30.0
357.20615	1000.0
374.60181	20.0
435.99976	40.0
457.25995	770.0
503.02618	20.0
1018.31818	10.0

NAME:  NCGC00385222-01_C19H26O13_beta-D-Fructofuranosyl 6-O-(4-hydroxybenzoyl)-alpha-D-glucopyranoside
PRECURSORMZ:  461.13006444483
PRECURSORTYPE:  [M-H]-
FORMULA:  C19H26O13
Ontology: Kingdom: Organic compounds;Superclass: Organic oxygen compounds;Class: Organooxygen compounds;Subclass: Carbohydrates and carbohydrate conjugates
INCHIKEY:  CDTIMEVVBBGLIF-UHFFFAOYNA-N
SMILES:  OCC1OC(CO)(OC2OC(COC(=O)C3=CC=C(O)C=C3)C(O)C(O)C2O)C(O)C1O
RETENTIONTIME:  
CCS:  220.2096474
IONMODE:  Negative
INSTRUMENTTYPE:  
INSTRUMENT:  Maxis II HD Q-TOF Bruker
COLLISIONENERGY:  
Comment:  DB#=CCMSLIB00000850010; origin=GNPS
Num Peaks:  22
80.60772	10.0
90.34724	20.0
93.03451	20.0
101.02303	20.0
135.04187	30.0
135.67876	10.0
136.01852	50.0
136.66774	20.0
137.0239	800.0
138.03049	30.0
161.0442	20.0
179.03125	140.0
179.05522	60.0
209.04544	100.0
239.05669	370.0
251.04391	20.0
281.06738	210.0
299.07236	110.0
323.11679	10.0
438.44394	20.0
458.97656	20.0
461.1286	1000.0

NAME:  quercetin-3-O-hexosyl(1-2)deoxyhexosyl-7-O-hexoside
PRECURSORMZ:  771.19893185583
PRECURSORTYPE:  [M-H]-
FORMULA:  C33H40O21
Ontology: Kingdom: Organic compounds;Superclass: Phenylpropanoids and polyketides;Class: Flavonoids;Subclass: Flavonoid glycosides
INCHIKEY:  AIBMEMZXSFVTAD-UHFFFAOYNA-N
SMILES:  CC1OC(O)C(O)C(O)C1OC1C(O)C(O)C(CO)OC1OC1=C(OC2=CC(OC3OC(CO)C(O)C(O)C3O)=CC(O)=C2C1=O)C1=CC(O)=C(O)C=C1
RETENTIONTIME:  
CCS:  -1
IONMODE:  Negative
INSTRUMENTTYPE:  
INSTRUMENT:  qTof
COLLISIONENERGY:  
Comment:  DB#=CCMSLIB00004678819; origin=GNPS
Num Peaks:  114
128.43028	30.0
138.05667	10.0
147.49078	20.0
147.51842	10.0
150.04198	30.0
153.04427	20.0
167.02916	20.0
174.99776	20.0
181.19672	20.0
181.76184	10.0
189.02003	20.0
191.04527	10.0
201.90216	10.0
233.96758	10.0
255.00404	20.0
258.06158	20.0
258.38498	10.0
269.04132	20.0
276.99469	20.0
284.01337	10.0
289.06778	30.0
290.05722	10.0
299.02588	50.0
299.1275	10.0
300.02786	70.0
301.03983	140.0
302.0361	20.0
304.52292	20.0
313.03439	40.0
320.91119	20.0
340.55823	10.0
343.04718	40.0
344.03323	30.0
347.01401	20.0
379.87607	40.0
380.86765	10.0
399.20654	20.0
410.0145	20.0
410.11319	10.0
419.02411	20.0
431.82748	20.0
460.15063	30.0
462.08286	320.0
462.24203	20.0
462.56168	10.0
462.93015	30.0
463.07895	140.0
463.29184	10.0
464.09271	40.0
464.36505	10.0
464.42816	10.0
478.75449	10.0
489.09079	10.0
493.88	20.0
501.13898	20.0
505.10809	10.0
512.97473	10.0
515.77332	20.0
516.76044	10.0
519.34576	10.0
534.56219	10.0
534.60986	10.0
538.03522	20.0
538.83868	10.0
566.82574	40.0
587.06989	10.0
596.93878	20.0
605.26575	20.0
606.91467	10.0
607.68329	20.0
609.14471	1000.0
609.36493	40.0
609.84637	30.0
610.15247	330.0
610.38843	30.0
610.52612	10.0
610.86475	10.0
611.08502	10.0
611.16223	30.0
611.62836	20.0
612.47009	10.0
612.63031	10.0
615.87439	20.0
630.966	20.0
651.1449	30.0
651.26074	20.0
653.16937	20.0
657.75311	10.0
662.02191	10.0
667.24115	10.0
668.76208	20.0
694.98291	10.0
712.00726	10.0
712.0733	20.0
771.19977	690.0
771.56299	20.0
771.66083	10.0
771.94495	10.0
772.20551	260.0
772.37531	20.0
772.5318	20.0
773.20691	50.0
773.36292	10.0
774.18298	30.0
775.0238	10.0
778.66467	10.0
779.78058	10.0
781.47925	20.0
802.14124	20.0
809.89905	20.0
816.47552	10.0
863.15894	10.0
894.50012	20.0
898.89111	20.0

NAME:  NCGC00380724-01_C28H47NO8_(3R,5R,6S,7S,9R,11E,13S,14R)-14-Ethyl-13-hydroxy-3,5,7,9,13-pentamethyl-2,4,10-trioxooxacyclotetradec-11-en-6-yl 3,4,6-trideoxy-3-(dimethylamino)-D-xylo-hexopyranoside
PRECURSORMZ:  570.32837002483
PRECURSORTYPE:  [M+FA-H]-
FORMULA:  C28H47NO8
Ontology: Kingdom: Organic compounds;Superclass: Organic oxygen compounds;Class: Organooxygen compounds;Subclass: Carbohydrates and carbohydrate conjugates
INCHIKEY:  UZQBOFAUUTZOQE-UHFFFAOYNA-N
SMILES:  CCC1OC(=O)C(C)C(=O)C(C)C(OC2OC(C)CC(C2O)N(C)C)C(C)CC(C)C(=O)C=CC1(C)O
RETENTIONTIME:  
CCS:  -1
IONMODE:  Negative
INSTRUMENTTYPE:  
INSTRUMENT:  Maxis II HD Q-TOF Bruker
COLLISIONENERGY:  
Comment:  DB#=CCMSLIB00000850913; origin=GNPS
Num Peaks:  36
85.03452	50.0
103.8903	20.0
109.06705	20.0
123.07784	10.0
125.10102	20.0
129.05487	20.0
136.04836	20.0
137.07272	20.0
137.09758	220.0
145.01616	20.0
145.84554	10.0
149.09966	30.0
163.11226	10.0
165.13062	50.0
167.10619	20.0
174.11395	60.0
179.10765	1000.0
185.05035	20.0
189.12611	50.0
193.11977	10.0
207.1338	10.0
219.12141	30.0
221.15555	20.0
229.16574	10.0
235.1465	10.0
247.16806	60.0
287.20395	30.0
291.15964	150.0
305.21667	90.0
349.20062	390.0
349.27856	20.0
372.23178	20.0
402.83478	10.0
466.28104	60.0
524.32361	160.0
526.26678	20.0

NAME:  Pesticide5_Prothioconazole_C14H15Cl2N3OS_Redigo
PRECURSORMZ:  342.02401224783
PRECURSORTYPE:  [M-H]-
FORMULA:  C14H15Cl2N3OS
Ontology: Kingdom: Organic compounds;Superclass: Benzenoids;Class: Benzene and substituted derivatives;Subclass: Halobenzenes
INCHIKEY:  MNHVNIJQQRJYDH-UHFFFAOYNA-N
SMILES:  OC(CN1NC=NC1=S)(CC1=CC=CC=C1Cl)C1(Cl)CC1
RETENTIONTIME:  
CCS:  173.2263468
IONMODE:  Negative
INSTRUMENTTYPE:  
INSTRUMENT:  Q-Exactive Plus Orbitrap Res 70k
COLLISIONENERGY:  
Comment:  DB#=CCMSLIB00001058471; origin=GNPS
Num Peaks:  17
71.99075	20.0
98.98937	120.0
99.9973	710.0
110.036	10.0
114.01311	30.0
122.03607	50.0
125.00659	20.0
125.01655	340.0
146.03603	10.0
147.04373	30.0
180.02394	210.0
183.00436	40.0
216.00032	70.0
264.03696	120.0
278.01648	30.0
306.04807	190.0
342.02438	1000.0

NAME:  NCGC00380924-01_C48H76O18_(3beta,5xi,9xi,18xi)-3-{[6-Deoxyhexopyranosyl-(1->4)-6-deoxyhexopyranosyl-(1->3)hexopyranosyl]oxy}urs-12-ene-27,28-dioic acid
PRECURSORMZ:  939.49588915483
PRECURSORTYPE:  [M-H]-
FORMULA:  C48H76O18
Ontology: Kingdom: Organic compounds;Superclass: Lipids and lipid;Class: Prenol lipids;Subclass: Terpene glycosides
INCHIKEY:  CPLXLUNIGVIJMQ-UHFFFAOYNA-N
SMILES:  CC1CCC2(CCC3(C(O)=O)C(=CCC4C5(C)CCC(OC6OC(CO)C(O)C(OC7OC(C)C(OC8OC(C)C(O)C(O)C8O)C(O)C7O)C6O)C(C)(C)C5CCC34C)C2C1C)C(O)=O
RETENTIONTIME:  
CCS:  -1
IONMODE:  Negative
INSTRUMENTTYPE:  
INSTRUMENT:  Maxis II HD Q-TOF Bruker
COLLISIONENERGY:  
Comment:  DB#=CCMSLIB00000850505; origin=GNPS
Num Peaks:  20
85.03017	10.0
101.02514	20.0
113.02374	140.0
143.035	20.0
161.04419	20.0
163.06088	20.0
307.09851	10.0
441.33792	140.0
569.38519	60.0
570.39172	10.0
587.39624	370.0
588.39978	50.0
683.42615	20.0
731.43732	80.0
749.45093	110.0
750.45471	20.0
895.50934	660.0
896.51184	170.0
939.49701	1000.0
940.49933	280.0

NAME:  NCGC00381293-01_C55H92O24_Hexopyranoside, (3beta,9xi,11alpha,12beta,14beta,20S)-8,11,12,14,20-pentahydroxypregn-5-en-3-yl O-hexopyranosyl-(1->4)-O--6-deoxy-3-O-methylhexopyranosyl-(1->4)-O--2,6-dideoxy-3-O-methylhexopyranosyl-(1->4)-O--2,6-dideoxy-3-O-methylhexopyranosyl-(1->4)-2,6-dideoxy-3-O-methyl-
PRECURSORMZ:  1135.59057738983
PRECURSORTYPE:  [M-H]-
FORMULA:  C55H92O24
Ontology: Kingdom: Organic compounds;Superclass: Lipids and lipid;Class: Steroids and steroid derivatives;Subclass: Steroidal glycosides
INCHIKEY:  FZAVQTYIBVEBHF-UHFFFAOYNA-N
SMILES:  COC1CC(OC2CCC3(C)C4C(O)C(O)C5(C)C(CCC5(O)C4(O)CC=C3C2)C(C)O)OC(C)C1OC1CC(OC)C(OC2CC(OC)C(OC3OC(C)C(OC4OC(CO)C(O)C(O)C4O)C(OC)C3O)C(C)O2)C(C)O1
RETENTIONTIME:  
CCS:  -1
IONMODE:  Negative
INSTRUMENTTYPE:  
INSTRUMENT:  Maxis II HD Q-TOF Bruker
COLLISIONENERGY:  
Comment:  DB#=CCMSLIB00000849374; origin=GNPS
Num Peaks:  99
71.01217	30.0
72.72414	20.0
73.02631	30.0
81.0337	20.0
82.0357	30.0
83.05317	30.0
85.02792	100.0
87.00722	20.0
99.05052	40.0
101.0237	140.0
103.04079	20.0
111.00417	30.0
111.04514	350.0
113.02471	120.0
113.6122	20.0
114.94904	20.0
124.05158	30.0
125.02308	30.0
126.03859	20.0
127.03977	110.0
128.04364	20.0
133.06299	30.0
135.04865	20.0
137.06044	90.0
137.10123	20.0
140.0513	30.0
141.09509	40.0
142.09328	20.0
143.03191	50.0
144.04243	30.0
149.0938	100.0
151.04413	30.0
161.04427	50.0
169.12617	20.0
175.11525	30.0
177.09163	50.0
179.04401	30.0
187.1169	20.0
203.10965	20.0
209.13589	10.0
213.01482	40.0
214.99634	30.0
221.07733	30.0
229.1088	60.0
231.10349	20.0
239.15244	20.0
245.10257	20.0
255.12277	10.0
265.15698	20.0
266.16614	30.0
267.59546	40.0
271.11911	30.0
283.16553	20.0
309.18298	50.0
327.2059	20.0
328.19324	20.0
341.16046	10.0
368.21628	20.0
373.18237	40.0
395.95529	20.0
399.20129	20.0
404.14093	20.0
427.24023	30.0
472.27942	20.0
533.25604	70.0
541.80096	10.0
557.34332	20.0
615.36615	30.0
663.36108	10.0
669.40363	20.0
673.23505	20.0
695.36133	20.0
696.32208	20.0
715.40399	30.0
727.06427	20.0
759.41138	10.0
766.117	10.0
775.37531	20.0
776.3609	20.0
777.48883	10.0
795.43805	20.0
813.46753	60.0
837.4787	20.0
838.47015	20.0
911.4519	20.0
919.55194	30.0
955.53247	10.0
956.53357	20.0
973.53302	310.0
974.46686	20.0
974.5473	110.0
1069.48083	20.0
1079.74207	10.0
1099.56189	10.0
1100.58728	20.0
1135.58643	1000.0
1136.60449	350.0
1137.59814	30.0
1229.04626	30.0

NAME:  NCGC00380575-01_C49H78O18_Olean-12-en-28-oic acid, 23-hydroxy-3-[[O-pentopyranosyl-(1->3)-O--6-deoxyhexopyranosyl-(1->4)-6-O-acetylhexopyranosyl]oxy]-, (3beta,5xi,9xi)-
PRECURSORMZ:  999.51701821983
PRECURSORTYPE:  [M+FA-H]-
FORMULA:  C49H78O18
Ontology: Kingdom: Organic compounds;Superclass: Lipids and lipid;Class: Prenol lipids;Subclass: Terpene glycosides
INCHIKEY:  JDQAJUDONPAIME-UHFFFAOYNA-N
SMILES:  CC1OC(OC2C(O)C(O)C(OC3CCC4(C)C(CCC5(C)C4CC=C4C6CC(C)(C)CCC6(CCC54C)C(O)=O)C3(C)CO)OC2COC(C)=O)C(O)C(OC2OCC(O)C(O)C2O)C1O
RETENTIONTIME:  
CCS:  -1
IONMODE:  Negative
INSTRUMENTTYPE:  
INSTRUMENT:  Maxis II HD Q-TOF Bruker
COLLISIONENERGY:  
Comment:  DB#=CCMSLIB00000849548; origin=GNPS
Num Peaks:  46
87.00948	10.0
89.02459	10.0
97.03081	10.0
99.01155	10.0
101.02483	30.0
109.03063	10.0
113.02376	50.0
114.02957	10.0
119.03494	10.0
127.04056	80.0
131.03281	30.0
143.03397	30.0
145.05174	40.0
149.04556	30.0
161.04311	10.0
169.05156	10.0
179.05667	30.0
187.06207	30.0
205.06058	10.0
349.11057	10.0
423.32919	110.0
439.32114	20.0
453.3331	10.0
471.34763	380.0
472.35489	60.0
525.36615	30.0
567.38953	10.0
585.38196	210.0
586.37878	30.0
603.39319	570.0
604.39264	80.0
731.43591	50.0
732.45831	10.0
749.44824	150.0
750.45721	30.0
773.45325	40.0
774.4436	20.0
803.46753	10.0
893.48859	430.0
894.48773	90.0
911.50104	450.0
912.49921	70.0
953.51337	1000.0
954.51709	320.0
955.5047	20.0
1410.64954	10.0

NAME:  NCGC00380999-01_C23H32O7_1-Phenanthrenecarboxylic acid, 10-(acetyloxy)-1,2,3,4,4a,9,10,10a-octahydro-4,5,9-trihydroxy-1,4a-dimethyl-7-(1-methylethyl)-, methyl ester
PRECURSORMZ:  419.20752691783
PRECURSORTYPE:  [M-H]-
FORMULA:  C23H32O7
Ontology: Kingdom: Organic compounds;Superclass: Lipids and lipid;Class: Prenol lipids;Subclass: Diterpenoids
INCHIKEY:  WBEFPLHFVLPKHQ-UHFFFAOYNA-N
SMILES:  COC(=O)C1(C)CCC(O)C2(C)C1C(OC(C)=O)C(O)C1=C2C(O)=CC(=C1)C(C)C
RETENTIONTIME:  
CCS:  -1
IONMODE:  Negative
INSTRUMENTTYPE:  
INSTRUMENT:  Maxis II HD Q-TOF Bruker
COLLISIONENERGY:  
Comment:  DB#=CCMSLIB00000850769; origin=GNPS
Num Peaks:  22
87.04218	80.0
144.05774	100.0
187.10425	20.0
191.10683	90.0
215.10818	160.0
225.13454	50.0
245.15761	90.0
253.12434	380.0
267.14096	80.0
271.13324	250.0
285.14725	380.0
288.84015	50.0
288.88013	80.0
302.13126	80.0
303.15884	200.0
341.17316	80.0
358.92447	50.0
359.1861	1000.0
360.92288	30.0
362.36835	50.0
419.20413	830.0
435.04416	10.0

NAME:  NCGC00381024-01_C42H64O17_beta-D-Glucopyranose, 1-O-[(2E)-6-[[3,4-bis-O-[(2E)-6-hydroxy-2,6-dimethyl-1-oxo-2,7-octadien-1-yl]-beta-D-glucopyranosyl]oxy]-2,6-dimethyl-1-oxo-2,7-octadien-1-yl]-
PRECURSORMZ:  839.40707414883
PRECURSORTYPE:  [M-H]-
FORMULA:  C42H64O17
Ontology: Kingdom: Organic compounds;Superclass: Lipids and lipid;Class: Saccharolipids;
INCHIKEY:  OIMUSOLEDHKDCV-UHFFFAOYNA-N
SMILES:  CC(=CCCC(C)(OC1OC(CO)C(OC(=O)C(C)=CCCC(C)(O)C=C)C(OC(=O)C(C)=CCCC(C)(O)C=C)C1O)C=C)C(=O)OC1OC(CO)C(O)C(O)C1O
RETENTIONTIME:  
CCS:  -1
IONMODE:  Negative
INSTRUMENTTYPE:  
INSTRUMENT:  Maxis II HD Q-TOF Bruker
COLLISIONENERGY:  
Comment:  DB#=CCMSLIB00000851178; origin=GNPS
Num Peaks:  50
73.03839	20.0
85.02943	30.0
89.02317	20.0
95.0106	10.0
101.02272	40.0
113.02456	90.0
119.03615	20.0
120.63918	10.0
121.09924	20.0
123.07807	20.0
125.02315	10.0
127.07257	20.0
139.11316	120.0
155.07498	20.0
159.02727	30.0
161.04652	110.0
165.09271	140.0
167.10686	70.0
179.05241	20.0
181.88554	10.0
183.10365	400.0
184.10619	20.0
189.10133	20.0
197.11917	40.0
219.09933	10.0
225.11278	80.0
237.11346	10.0
267.13626	10.0
285.1366	20.0
287.93661	10.0
301.16919	20.0
327.14462	260.0
345.155	460.0
346.15994	20.0
385.82388	10.0
386.24991	20.0
394.36035	10.0
397.71005	20.0
423.05246	20.0
477.25473	10.0
493.24561	40.0
511.255	250.0
512.26398	20.0
591.78632	10.0
655.29932	430.0
656.3056	40.0
673.30444	250.0
674.32172	20.0
839.40802	1000.0
840.41107	210.0

NAME:  3,4-dimethoxy-myricetin-3-O-dideoxyhexosyl(1-2)-dideoxyhexoside
PRECURSORMZ:  637.17740856283
PRECURSORTYPE:  [M-H]-
FORMULA:  C29H34O16
Ontology: Kingdom: Organic compounds;Superclass: Phenylpropanoids and polyketides;Class: Flavonoids;Subclass: Flavonoid glycosides
INCHIKEY:  DSGWYVYHOBRRMY-UHFFFAOYNA-N
SMILES:  COC1=CC(=CC(O)=C1OC)C1=C(OC2OC(C)C(O)C(O)C2OC2OC(C)C(O)C(O)C2O)C(=O)C2=C(O)C=C(O)C=C2O1
RETENTIONTIME:  
CCS:  -1
IONMODE:  Negative
INSTRUMENTTYPE:  
INSTRUMENT:  qTof
COLLISIONENERGY:  
Comment:  DB#=CCMSLIB00004678862; origin=GNPS
Num Peaks:  11
329.03	120.0
330.03729	80.0
331.04535	10.0
344.05826	120.0
345.06409	140.0
346.05585	10.0
637.17969	1000.0
637.49512	10.0
638.18445	280.0
639.18146	60.0
640.17535	10.0

NAME:  NCGC00179976-03_C34H42O17_(1aS,1bS,2S,5aR,6S,6aS)-6-({2,4-Di-O-acetyl-6-deoxy-3-O-[(2E)-3-phenyl-2-propenoyl]-alpha-L-mannopyranosyl}oxy)-1a-(hydroxymethyl)-1a,1b,2,5a,6,6a-hexahydrooxireno[4,5]cyclopenta[1,2-c]pyran-2-yl beta-D-glucopyranoside
PRECURSORMZ:  767.24040243983
PRECURSORTYPE:  [M+FA-H]-
FORMULA:  C34H42O17
Ontology: Kingdom: Organic compounds;Superclass: Phenylpropanoids and polyketides;Class: Cinnamic acids and derivatives;Subclass: Cinnamic acid esters
INCHIKEY:  XTDOKCBBQODVJW-UHFFFAOYNA-N
SMILES:  CC1OC(OC2C3OC3(CO)C3C2C=COC3OC2OC(CO)C(O)C(O)C2O)C(OC(C)=O)C(OC(=O)C=CC2=CC=CC=C2)C1OC(C)=O
RETENTIONTIME:  
CCS:  -1
IONMODE:  Negative
INSTRUMENTTYPE:  
INSTRUMENT:  Maxis II HD Q-TOF Bruker
COLLISIONENERGY:  
Comment:  DB#=CCMSLIB00000849533; origin=GNPS
Num Peaks:  42
85.02969	20.0
99.04431	20.0
108.01952	10.0
109.02913	10.0
113.02467	70.0
119.03413	10.0
123.04427	50.0
124.01803	20.0
125.02473	40.0
126.03233	90.0
127.04012	270.0
133.02948	20.0
135.0443	110.0
137.02713	30.0
138.03125	20.0
145.03049	20.0
147.04512	1000.0
148.04814	30.0
151.03957	200.0
153.06911	10.0
155.03531	10.0
161.04752	40.0
163.04108	190.0
165.06392	20.0
171.04688	20.0
171.07709	10.0
175.03223	10.0
177.06059	30.0
180.03712	10.0
181.0519	100.0
185.09467	10.0
193.04573	30.0
211.07269	10.0
214.06496	10.0
215.07034	30.0
222.33684	10.0
223.06075	110.0
343.12283	20.0
403.13675	30.0
445.15149	500.0
446.1561	20.0
529.16705	20.0

NAME:  NCGC00380126-01_C42H64O17_Carda-5,20(22)-dienolide, 3-[[O-beta-D-glucopyranosyl-(1->6)-O-beta-D-glucopyranosyl-(1->4)-2,6-dideoxy-3-O-methyl-alpha-L-arabino-hexopyranosyl]oxy]-14-hydroxy-, (3beta,8xi,9xi)-
PRECURSORMZ:  885.41255314883
PRECURSORTYPE:  [M+FA-H]-
FORMULA:  C42H64O17
Ontology: Kingdom: Organic compounds;Superclass: Lipids and lipid;Class: Steroids and steroid derivatives;Subclass: Steroidal glycosides
INCHIKEY:  SGHWOXDXPYEOMN-UHFFFAOYNA-N
SMILES:  COC1CC(OC2CCC3(C)C4CCC5(C)C(CCC5(O)C4CC=C3C2)C2=CC(=O)OC2)OC(C)C1OC1OC(COC2OC(CO)C(O)C(O)C2O)C(O)C(O)C1O
RETENTIONTIME:  
CCS:  -1
IONMODE:  Negative
INSTRUMENTTYPE:  
INSTRUMENT:  Maxis II HD Q-TOF Bruker
COLLISIONENERGY:  
Comment:  DB#=CCMSLIB00000850712; origin=GNPS
Num Peaks:  23
85.02951	30.0
101.02406	40.0
113.02322	50.0
119.03297	20.0
125.02354	30.0
143.03429	20.0
159.02858	30.0
161.04515	180.0
179.05371	70.0
221.06633	30.0
245.06615	10.0
263.07605	60.0
323.09711	110.0
371.22455	10.0
409.13574	20.0
515.30225	130.0
677.35352	230.0
678.35779	50.0
819.38391	20.0
820.39667	10.0
839.40875	1000.0
840.41187	190.0
885.41351	20.0

NAME:  NCGC00380907-01_C42H66O16_6-O-Hexopyranosyl-1-O-(3,19,23-trihydroxy-23,28-dioxoolean-12-en-28-yl)hexopyranose
PRECURSORMZ:  825.42780959283
PRECURSORTYPE:  [M-H]-
FORMULA:  C42H66O16
Ontology: Kingdom: Organic compounds;Superclass: Lipids and lipid;Class: Prenol lipids;Subclass: Triterpenoids
INCHIKEY:  RURURFCCQXQDSO-UHFFFAOYNA-N
SMILES:  CC1(C)CCC2(CCC3(C)C(=CCC4C5(C)CCC(O)C(C)(C5CCC34C)C(O)=O)C2C1O)C(=O)OC1OC(COC2OC(CO)C(O)C(O)C2O)C(O)C(O)C1O
RETENTIONTIME:  
CCS:  -1
IONMODE:  Negative
INSTRUMENTTYPE:  
INSTRUMENT:  Maxis II HD Q-TOF Bruker
COLLISIONENERGY:  
Comment:  DB#=CCMSLIB00000851103; origin=GNPS
Num Peaks:  9
439.32129	90.0
455.31497	20.0
471.31418	30.0
483.31189	40.0
501.32266	330.0
502.32547	20.0
543.33362	20.0
825.42914	1000.0
826.43481	150.0

NAME:  Pesticide4_Metaflumizone_C24H16F6N4O2_(2E)-2-{2-(4-Cyanophenyl)-1-[3-(trifluoromethyl)phenyl]ethylidene}-N-[4-(trifluoromethoxy)phenyl]hydrazinecarboxamide
PRECURSORMZ:  551.11594729683
PRECURSORTYPE:  [M+FA-H]-
FORMULA:  C24H16F6N4O2
Ontology: Kingdom: Organic compounds;Superclass: Phenylpropanoids and polyketides;Class: Stilbenes;
INCHIKEY:  MIFOMMKAVSCNKQ-UHFFFAOYSA-N
SMILES:  OC(NC1=CC=C(OC(F)(F)F)C=C1)=NN=C(CC1=CC=C(C=C1)C#N)C1=CC(=CC=C1)C(F)(F)F
RETENTIONTIME:  
CCS:  -1
IONMODE:  Negative
INSTRUMENTTYPE:  
INSTRUMENT:  Maxis HD qTOF
COLLISIONENERGY:  
Comment:  DB#=CCMSLIB00001058373; origin=GNPS
Num Peaks:  7
116.03802	10.0
199.0452	10.0
274.08209	10.0
285.06372	30.0
302.09161	1000.0
328.07288	40.0
505.11972	20.0

NAME:  NCGC00169454-03_C20H18O7_2-Furancarboxylic acid, 2,5-dihydro-3-(4-hydroxyphenyl)-2-[(4-hydroxyphenyl)methyl]-4-methoxy-5-oxo-, methyl ester
PRECURSORMZ:  369.09797646783
PRECURSORTYPE:  [M-H]-
FORMULA:  C20H18O7
Ontology: Kingdom: Organic compounds;Superclass: Lipids and lipid;Class: Fatty Acyls;Subclass: Fatty acid esters
INCHIKEY:  DYMYDSWEIIXYNX-UHFFFAOYNA-N
SMILES:  COC(=O)C1(CC2=CC=C(O)C=C2)OC(=O)C(OC)=C1C1=CC=C(O)C=C1
RETENTIONTIME:  
CCS:  -1
IONMODE:  Negative
INSTRUMENTTYPE:  
INSTRUMENT:  Maxis II HD Q-TOF Bruker
COLLISIONENERGY:  
Comment:  DB#=CCMSLIB00000849476; origin=GNPS
Num Peaks:  14
105.04124	10.0
107.63311	40.0
133.02945	280.0
134.02733	30.0
203.03246	20.0
205.01393	1000.0
244.76682	20.0
244.98993	20.0
247.82545	20.0
248.03172	900.0
248.09523	20.0
262.77097	30.0
263.056	860.0
295.06363	40.0

NAME:  NCGC00380915-01_C47H62O27_
PRECURSORMZ:  1057.34057028383
PRECURSORTYPE:  [M-H]-
FORMULA:  C47H62O27
Ontology: Kingdom: Organic compounds;Superclass: Organic oxygen compounds;Class: Organooxygen compounds;Subclass: Carbohydrates and carbohydrate conjugates
INCHIKEY:  BCDXICZIQKHPLV-UHFFFAOYNA-N
SMILES:  CC1OC(OC2C(C)OC(OC3C(OC4OCC(O)(CO)C4O)C(OC4(COC(=O)C=CC5=CC=C(O)C=C5)OC(CO)C(O)C4O)OC(CO)C3OC(=O)C=CC3=CC=C(O)C=C3)C(O)C2O)C(O)C(O)C1O
RETENTIONTIME:  
CCS:  -1
IONMODE:  Negative
INSTRUMENTTYPE:  
INSTRUMENT:  Maxis II HD Q-TOF Bruker
COLLISIONENERGY:  
Comment:  DB#=CCMSLIB00000850483; origin=GNPS
Num Peaks:  24
101.02386	10.0
113.02371	40.0
117.03379	90.0
119.0496	50.0
134.86375	10.0
143.03407	20.0
145.02896	1000.0
146.03293	20.0
161.04613	20.0
163.03963	140.0
217.07185	10.0
337.11398	70.0
363.13007	20.0
381.1398	20.0
423.14713	10.0
585.19885	30.0
731.23975	10.0
765.27295	20.0
893.29181	10.0
911.30475	200.0
912.3075	40.0
1057.34204	600.0
1058.34436	190.0
1059.34485	20.0

NAME:  NCGC00380865-01_C28H42O10_4H-Cyclopenta[a]cyclopropa[f]cycloundecen-4-one, 4a-(acetyloxy)-9-[(hexopyranosyloxy)methyl]-1,1a,4a,5,6,7,7a,10,11,11a-decahydro-7-hydroxy-1,1,3,6-tetramethyl-, (8E)-
PRECURSORMZ:  583.27600009983
PRECURSORTYPE:  [M+FA-H]-
FORMULA:  C28H42O10
Ontology: Kingdom: Organic compounds;Superclass: Lipids and lipid;Class: Prenol lipids;Subclass: Terpene glycosides
INCHIKEY:  WJZFXCPBSLOUNH-UHFFFAOYNA-N
SMILES:  CC1CC2(OC(C)=O)C(C=C(COC3OC(CO)C(O)C(O)C3O)CCC3C(C=C(C)C2=O)C3(C)C)C1O
RETENTIONTIME:  
CCS:  -1
IONMODE:  Negative
INSTRUMENTTYPE:  
INSTRUMENT:  Maxis II HD Q-TOF Bruker
COLLISIONENERGY:  
Comment:  DB#=CCMSLIB00000850529; origin=GNPS
Num Peaks:  31
113.6686	70.0
122.03654	50.0
123.04337	80.0
137.02644	90.0
161.04211	70.0
165.05629	140.0
179.05573	50.0
180.04863	90.0
180.07056	50.0
186.27306	30.0
201.12874	120.0
225.76788	180.0
253.12201	30.0
257.15189	120.0
261.08295	70.0
269.21716	50.0
281.08749	30.0
297.18234	470.0
299.19583	60.0
315.19907	1000.0
324.1004	110.0
339.09906	50.0
376.16919	40.0
438.11981	70.0
477.24805	510.0
535.19354	40.0
537.27942	320.0
581.90515	30.0
582.24445	100.0
583.27075	590.0
585.97516	30.0

NAME:  NCGC00380173-01_C25H28O12_Cyclopenta[c]pyran-4-carboxylic acid, 1,4a,5,6,7,7a-hexahydro-6-hydroxy-1-[[6-O-[(2E)-3-(4-hydroxyphenyl)-1-oxo-2-propen-1-yl]-beta-D-glucopyranosyl]oxy]-7-methylene-
PRECURSORMZ:  519.15079988983
PRECURSORTYPE:  [M-H]-
FORMULA:  C25H28O12
Ontology: Kingdom: Organic compounds;Superclass: Phenylpropanoids and polyketides;Class: Cinnamic acids and derivatives;Subclass: Hydroxycinnamic acids and derivatives
INCHIKEY:  DFXWNJDFYDFQCW-UHFFFAOYNA-N
SMILES:  OC1CC2C(C(OC3OC(COC(=O)C=CC4=CC=C(O)C=C4)C(O)C(O)C3O)OC=C2C(O)=O)C1=C
RETENTIONTIME:  
CCS:  -1
IONMODE:  Negative
INSTRUMENTTYPE:  
INSTRUMENT:  Maxis II HD Q-TOF Bruker
COLLISIONENERGY:  
Comment:  DB#=CCMSLIB00000850895; origin=GNPS
Num Peaks:  43
93.04297	20.0
94.80938	20.0
95.07935	50.0
98.62953	20.0
99.15682	10.0
113.02676	20.0
117.03374	50.0
119.05105	120.0
123.04511	250.0
123.37157	20.0
133.06133	30.0
133.72528	30.0
137.0537	10.0
138.0697	20.0
145.02867	1000.0
147.04179	10.0
149.05771	210.0
161.05959	210.0
163.0381	630.0
167.07077	160.0
177.05672	190.0
187.05556	20.0
193.05006	300.0
203.07471	20.0
205.04973	700.0
211.05835	50.0
218.0547	20.0
235.06041	340.0
235.10986	10.0
259.06027	20.0
265.02399	20.0
265.07117	690.0
307.08173	420.0
309.08875	10.0
324.51773	20.0
325.09448	120.0
355.09653	10.0
474.43265	20.0
475.16162	190.0
519.14984	450.0
1053.24023	10.0
1406.43396	20.0
1581.90234	20.0

NAME:  NCGC00380533-01_C16H18O10_
PRECURSORMZ:  369.08272032783
PRECURSORTYPE:  [M-H]-
FORMULA:  C16H18O10
Ontology: Kingdom: Organic compounds;Superclass: Organic oxygen compounds;Class: Organooxygen compounds;Subclass: Carbohydrates and carbohydrate conjugates
INCHIKEY:  YJSHRIGISKAHBT-UHFFFAOYNA-N
SMILES:  OCC1OC(OC2=CC3=C(OCO3)C=C2C=CC(O)=O)C(O)C(O)C1O
RETENTIONTIME:  
CCS:  -1
IONMODE:  Negative
INSTRUMENTTYPE:  
INSTRUMENT:  Maxis II HD Q-TOF Bruker
COLLISIONENERGY:  
Comment:  DB#=CCMSLIB00000850196; origin=GNPS
Num Peaks:  13
73.30621	10.0
83.83394	20.0
89.04723	30.0
108.04983	20.0
113.12895	30.0
123.03927	10.0
134.03749	270.0
135.04671	200.0
161.02072	20.0
163.03987	930.0
207.02998	1000.0
369.07742	80.0
728.43317	20.0

NAME:  NCGC00347652-02_C35H53N5O7_12-Benzyl-3-isobutyl-6,9-diisopropyl-5,8-dimethyldodecahydro-1H,3H-pyrrolo[1,2-q][1,4,7,10,13,17]oxapentaazacyclononadecine-1,4,7,10,13,17(14H)-hexone
PRECURSORMZ:  700.39270161483
PRECURSORTYPE:  [M+FA-H]-
FORMULA:  C35H53N5O7
Ontology: Kingdom: Organic compounds;Superclass: Organic acids and derivatives;Class: Peptidomimetics;Subclass: Depsipeptides
INCHIKEY:  RPJBXUNEXVNBIF-UHFFFAOYNA-N
SMILES:  CC(C)CC1OC(=O)C2CCCN2C(=O)CCN=C(O)C(CC2=CC=CC=C2)N=C(O)C(C(C)C)N(C)C(=O)C(C(C)C)N(C)C1=O
RETENTIONTIME:  
CCS:  -1
IONMODE:  Negative
INSTRUMENTTYPE:  
INSTRUMENT:  Maxis II HD Q-TOF Bruker
COLLISIONENERGY:  
Comment:  DB#=CCMSLIB00000850745; origin=GNPS
Num Peaks:  44
112.08026	10.0
115.08727	10.0
126.05632	30.0
127.08768	40.0
130.0905	10.0
141.06488	70.0
155.07703	20.0
156.06502	20.0
160.07693	50.0
163.04315	10.0
172.07776	10.0
179.12024	90.0
184.10588	10.0
193.09871	10.0
201.06979	10.0
210.15947	10.0
211.14526	10.0
214.08009	10.0
217.10942	10.0
228.09973	20.0
228.17171	120.0
229.13165	10.0
234.15846	20.0
251.13445	30.0
259.14514	20.0
265.00928	10.0
288.17361	20.0
303.03433	10.0
306.69705	10.0
316.15988	20.0
358.21423	260.0
372.21997	10.0
402.24084	80.0
429.24576	40.0
442.23245	30.0
484.28952	20.0
485.25861	20.0
486.30533	30.0
556.315	30.0
564.35834	10.0
582.36841	30.0
636.38446	40.0
654.38763	1000.0
655.38611	40.0

NAME:  NCGC00169773-02_C20H28O10_4-Vinylphenyl 6-O-(6-deoxy-alpha-L-mannopyranosyl)-beta-D-glucopyranoside
PRECURSORMZ:  473.16644964983
PRECURSORTYPE:  [M+FA-H]-
FORMULA:  C20H28O10
Ontology: Kingdom: Organic compounds;Superclass: Organic oxygen compounds;Class: Organooxygen compounds;Subclass: Carbohydrates and carbohydrate conjugates
INCHIKEY:  KVPBAPOAIIQDGQ-UHFFFAOYNA-N
SMILES:  CC1OC(OCC2OC(OC3=CC=C(C=C)C=C3)C(O)C(O)C2O)C(O)C(O)C1O
RETENTIONTIME:  
CCS:  -1
IONMODE:  Negative
INSTRUMENTTYPE:  
INSTRUMENT:  Maxis II HD Q-TOF Bruker
COLLISIONENERGY:  
Comment:  DB#=CCMSLIB00000850600; origin=GNPS
Num Peaks:  16
101.17323	20.0
119.05067	1000.0
119.13938	10.0
123.02133	40.0
125.02289	130.0
127.90293	10.0
161.04723	50.0
162.23247	40.0
162.44078	30.0
163.06172	470.0
205.07457	60.0
247.08522	270.0
265.06589	50.0
306.55911	20.0
306.76266	30.0
307.10803	500.0

NAME:  NCGC00380273-01_C43H66O16_beta-D-Glucopyranose, 1-O-[(3beta,5xi,9xi)-3-(beta-D-glucopyranuronosyloxy)-30-methoxy-28,30-dioxoolean-12-en-28-yl]-
PRECURSORMZ:  837.42780959283
PRECURSORTYPE:  [M-H]-
FORMULA:  C43H66O16
Ontology: Kingdom: Organic compounds;Superclass: Lipids and lipid;Class: Prenol lipids;Subclass: Terpene glycosides
INCHIKEY:  MUEUOXPTUMGVJS-UHFFFAOYNA-N
SMILES:  COC(=O)C1(C)CCC2(CCC3(C)C(=CCC4C5(C)CCC(OC6OC(C(O)C(O)C6O)C(O)=O)C(C)(C)C5CCC34C)C2C1)C(=O)OC1OC(CO)C(O)C(O)C1O
RETENTIONTIME:  
CCS:  294.5221922
IONMODE:  Negative
INSTRUMENTTYPE:  
INSTRUMENT:  Maxis II HD Q-TOF Bruker
COLLISIONENERGY:  
Comment:  DB#=CCMSLIB00000850180; origin=GNPS
Num Peaks:  5
113.02361	10.0
613.37189	30.0
675.375	60.0
837.42816	1000.0
838.43109	100.0

NAME:  NCGC00380162-01_C16H28O12_alpha-D-Glucopyranoside, alpha-D-glucopyranosyl, 3-(2-methylpropanoate)
PRECURSORMZ:  457.15627888983
PRECURSORTYPE:  [M+FA-H]-
FORMULA:  C16H28O12
Ontology: Kingdom: Organic compounds;Superclass: Organic oxygen compounds;Class: Organooxygen compounds;Subclass: Carbohydrates and carbohydrate conjugates
INCHIKEY:  QVYMNCVNZVHQEC-UHFFFAOYNA-N
SMILES:  CC(C)C(=O)OC1C(O)C(CO)OC(OC2OC(CO)C(O)C(O)C2O)C1O
RETENTIONTIME:  
CCS:  -1
IONMODE:  Negative
INSTRUMENTTYPE:  
INSTRUMENT:  Maxis II HD Q-TOF Bruker
COLLISIONENERGY:  
Comment:  DB#=CCMSLIB00000850883; origin=GNPS
Num Peaks:  24
87.04496	20.0
88.51353	20.0
123.37508	30.0
125.02615	60.0
143.03568	80.0
155.03354	30.0
161.04475	60.0
166.54546	40.0
168.32477	20.0
179.05696	100.0
181.048	20.0
199.41255	10.0
200.56178	20.0
218.18149	10.0
221.06528	20.0
245.07111	30.0
276.88077	10.0
287.07971	20.0
322.06543	10.0
323.09698	1000.0
324.10406	30.0
336.08978	20.0
411.1474	560.0
457.16428	20.0

NAME:  kaempferol-3-O-hexoxyl(1-6)hexoside
PRECURSORMZ:  609.14610843383
PRECURSORTYPE:  [M-H]-
FORMULA:  C27H30O16
Ontology: ;;;
INCHIKEY:  BITPRCODIALMOV-UHFFFAOYNA-N
SMILES:  OCC1OC(OCC2OC(OC3=C(OC4=CC(O)=CC(O)=C4C3=O)C3=CC=C(O)C=C3)C(O)C(O)C2O)C(O)C(O)C1O
RETENTIONTIME:  
CCS:  254.957302
IONMODE:  Negative
INSTRUMENTTYPE:  
INSTRUMENT:  qTof
COLLISIONENERGY:  
Comment:  DB#=CCMSLIB00004678823; origin=GNPS
Num Peaks:  22
179.0011	20.0
255.03403	30.0
283.02579	10.0
284.03363	650.0
284.16846	20.0
285.04111	370.0
286.04529	50.0
299.05893	20.0
317.06625	60.0
327.04382	10.0
356.96786	10.0
429.08411	70.0
430.09372	20.0
461.10846	20.0
465.11707	20.0
489.10071	10.0
609.14813	1000.0
609.48969	10.0
610.151	320.0
610.87854	10.0
611.15979	60.0
612.18109	20.0

NAME:  NCGC00180527-03_C23H28O11_beta-D-Glucopyranoside, (1aR,2S,5S,5aR)-5b-[(benzoyloxy)methyl]tetrahydro-5-hydroxy-2-methyl-2,5-methano-1H-3,4-dioxacyclobuta[cd]pentalen-1a(2H)-yl
PRECURSORMZ:  525.16136426983
PRECURSORTYPE:  [M+FA-H]-
FORMULA:  C23H28O11
Ontology: ;;;
INCHIKEY:  YKRGDOXKVOZESV-UHFFFAOYNA-N
SMILES:  [H]C12OC3(O)CC(C)(O1)C1(CC3C21COC(=O)C1=CC=CC=C1)OC1OC(CO)C(O)C(O)C1O
RETENTIONTIME:  
CCS:  -1
IONMODE:  Negative
INSTRUMENTTYPE:  
INSTRUMENT:  Maxis II HD Q-TOF Bruker
COLLISIONENERGY:  
Comment:  DB#=CCMSLIB00000849572; origin=GNPS
Num Peaks:  17
121.02869	1000.0
122.13055	50.0
129.01418	60.0
137.06088	70.0
147.03412	100.0
149.05495	20.0
155.10234	60.0
165.05367	50.0
177.06018	80.0
326.10495	20.0
326.58615	30.0
327.11856	120.0
357.13004	30.0
431.12823	90.0
449.14447	510.0
479.15619	40.0
1270.08423	30.0

NAME:  NCGC00385679-01_C24H28O13_Cyclopenta[c]pyran-4-carboxylic acid, 1-(beta-D-glucopyranosyloxy)-1,4a,5,7a-tetrahydro-7-[[(4-hydroxy-3-methoxybenzoyl)oxy]methyl]-
PRECURSORMZ:  569.15119350983
PRECURSORTYPE:  [M+FA-H]-
FORMULA:  C24H28O13
Ontology: Kingdom: Organic compounds;Superclass: Phenylpropanoids and polyketides;Class: Tannins;Subclass: Hydrolyzable tannins
INCHIKEY:  RYWDJUUPROVLNV-UHFFFAOYNA-N
SMILES:  COC1=C(O)C=CC(=C1)C(=O)OCC1=CCC2C1C(OC1OC(CO)C(O)C(O)C1O)OC=C2C(O)=O
RETENTIONTIME:  
CCS:  -1
IONMODE:  Negative
INSTRUMENTTYPE:  
INSTRUMENT:  Maxis II HD Q-TOF Bruker
COLLISIONENERGY:  
Comment:  DB#=CCMSLIB00000849821; origin=GNPS
Num Peaks:  22
108.01608	40.0
115.63548	30.0
121.06535	50.0
131.05037	170.0
143.03641	20.0
149.05966	330.0
152.00809	60.0
166.03313	30.0
167.03549	1000.0
175.04396	250.0
193.05093	310.0
298.46915	20.0
299.09241	130.0
300.22308	10.0
317.10422	170.0
355.11362	50.0
361.04977	40.0
361.08243	30.0
479.16486	30.0
518.96649	10.0
522.95764	10.0
523.14709	680.0

NAME:  Pesticide3_Novaluron_C17H9ClF8N2O4_N-({3-Chloro-4-[1,1,2-trifluoro-2-(trifluoromethoxy)ethoxy]phenyl}carbamoyl)-2,6-difluorobenzamide
PRECURSORMZ:  491.00503334783
PRECURSORTYPE:  [M-H]-
FORMULA:  C17H9ClF8N2O4
Ontology: Kingdom: Organic compounds;Superclass: Benzenoids;Class: Phenol ethers;
INCHIKEY:  NJPPVKZQTLUDBO-UHFFFAOYNA-N
SMILES:  OC(N=C(O)C1=C(F)C=CC=C1F)=NC1=CC(Cl)=C(OC(F)(F)C(F)OC(F)(F)F)C=C1
RETENTIONTIME:  
CCS:  162.2580474
IONMODE:  Negative
INSTRUMENTTYPE:  
INSTRUMENT:  Q-Exactive Plus Orbitrap Res 70k
COLLISIONENERGY:  
Comment:  DB#=CCMSLIB00001058277; origin=GNPS
Num Peaks:  15
84.9903	1000.0
93.01443	30.0
113.0211	150.0
140.99883	90.0
156.02673	120.0
162.98271	80.0
165.994	70.0
167.98605	50.0
251.02658	10.0
260.99969	10.0
305.01453	400.0
307.99213	110.0
332.98755	120.0
427.9939	20.0
470.99835	310.0

NAME:  NCGC00169815-02_C36H56O9_Urs-12-ene-27,28-dioic acid, 3-[(6-deoxy-alpha-L-mannopyranosyl)oxy]-, (3beta,5xi,9xi)-
PRECURSORMZ:  631.38515693083
PRECURSORTYPE:  [M-H]-
FORMULA:  C36H56O9
Ontology: Kingdom: Organic compounds;Superclass: Lipids and lipid;Class: Prenol lipids;Subclass: Terpene glycosides
INCHIKEY:  PUOQHFWXBKTHST-UHFFFAOYNA-N
SMILES:  CC1CCC2(CCC3(C(O)=O)C(=CCC4C5(C)CCC(OC6OC(C)C(O)C(O)C6O)C(C)(C)C5CCC34C)C2C1C)C(O)=O
RETENTIONTIME:  
CCS:  269.2813845
IONMODE:  Negative
INSTRUMENTTYPE:  
INSTRUMENT:  Maxis II HD Q-TOF Bruker
COLLISIONENERGY:  
Comment:  DB#=CCMSLIB00000851142; origin=GNPS
Num Peaks:  2
587.39648	1000.0
588.4007	20.0

NAME:  NCGC00385720-01_C26H38O12_7-Hydroxy-1-({2-O-[(2E,6E)-8-hydroxy-2,6-dimethyl-2,6-octadienoyl]-beta-D-glucopyranosyl}oxy)-7-methyl-1,4a,5,6,7,7a-hexahydrocyclopenta[c]pyran-4-carboxylic acid
PRECURSORMZ:  541.22905021183
PRECURSORTYPE:  [M-H]-
FORMULA:  C26H38O12
Ontology: Kingdom: Organic compounds;Superclass: Lipids and lipid;Class: Prenol lipids;Subclass: Terpene glycosides
INCHIKEY:  KWJHGUHLTYVPID-UHFFFAOYNA-N
SMILES:  CC(CCC=C(C)C(=O)OC1C(OC2OC=C(C3CCC(C)(O)C23)C(O)=O)OC(CO)C(O)C1O)=CCO
RETENTIONTIME:  
CCS:  -1
IONMODE:  Negative
INSTRUMENTTYPE:  
INSTRUMENT:  Maxis II HD Q-TOF Bruker
COLLISIONENERGY:  
Comment:  DB#=CCMSLIB00000851007; origin=GNPS
Num Peaks:  35
76.3729	10.0
83.04919	10.0
84.02419	20.0
101.02545	40.0
107.04716	20.0
113.02534	70.0
119.03468	20.0
121.06483	20.0
121.09924	20.0
125.0599	70.0
127.35091	10.0
132.1279	10.0
133.06627	20.0
139.01399	10.0
139.11246	10.0
145.9276	10.0
151.0779	220.0
161.04517	110.0
169.08675	170.0
172.93912	20.0
180.03636	10.0
183.1055	230.0
184.62784	20.0
197.11673	20.0
205.8143	20.0
207.09807	20.0
213.07875	200.0
225.11354	30.0
253.09409	20.0
313.12161	10.0
355.09674	10.0
357.12131	1000.0
375.12921	200.0
376.13397	10.0
541.23114	220.0

NAME:  Pesticide3_Chlorfluazuron_C20H9Cl3F5N3O3_Benzamide, N-[[[3,5-dichloro-4-[[3-chloro-5-(trifluoromethyl)-2-pyridinyl]oxy]phenyl]amino]carbonyl]-2,6-difluoro-
PRECURSORMZ:  537.95568864783
PRECURSORTYPE:  [M-H]-
FORMULA:  C20H9Cl3F5N3O3
Ontology: Kingdom: Organic compounds;Superclass: Benzenoids;Class: Benzene and substituted derivatives;Subclass: N
INCHIKEY:  UISUNVFOGSJSKD-UHFFFAOYSA-N
SMILES:  OC(N=C(O)C1=C(F)C=CC=C1F)=NC1=CC(Cl)=C(OC2=C(Cl)C=C(C=N2)C(F)(F)F)C(Cl)=C1
RETENTIONTIME:  
CCS:  169.9835785
IONMODE:  Negative
INSTRUMENTTYPE:  
INSTRUMENT:  Q-Exactive Plus Orbitrap Res 70k
COLLISIONENERGY:  
Comment:  DB#=CCMSLIB00001058298; origin=GNPS
Num Peaks:  22
93.01447	30.0
110.04119	10.0
113.02085	190.0
136.02057	20.0
156.02678	90.0
173.95236	30.0
174.95996	1000.0
179.98384	30.0
195.97888	150.0
199.95558	70.0
284.98782	20.0
293.97723	20.0
294.96109	20.0
318.96649	50.0
338.9743	30.0
354.94287	630.0
379.93771	120.0
402.00772	80.0
445.99704	90.0
474.94452	30.0
481.97223	20.0
517.95166	330.0

NAME:  NCGC00385668-01_C21H24O8_4-[(E)-2-(3-Hydroxy-5-methoxyphenyl)vinyl]phenyl beta-D-glucopyranoside
PRECURSORMZ:  403.13984128083
PRECURSORTYPE:  [M-H]-
FORMULA:  C21H24O8
Ontology: Kingdom: Organic compounds;Superclass: Phenylpropanoids and polyketides;Class: Stilbenes;Subclass: Stilbene glycosides
INCHIKEY:  IIISUZGWBIPYEJ-UHFFFAOYNA-N
SMILES:  COC1=CC(C=CC2=CC=C(OC3OC(CO)C(O)C(O)C3O)C=C2)=CC(O)=C1
RETENTIONTIME:  
CCS:  227.6064362
IONMODE:  Negative
INSTRUMENTTYPE:  
INSTRUMENT:  Maxis II HD Q-TOF Bruker
COLLISIONENERGY:  
Comment:  DB#=CCMSLIB00000850616; origin=GNPS
Num Peaks:  5
183.04488	30.0
208.05127	40.0
225.05496	60.0
226.06595	130.0
241.0878	1000.0

NAME:  NCGC00380744-01_C22H32O11_beta-D-Glucopyranoside, 4-hydroxy-3-(3-methyl-2-buten-1-yl)phenyl 6-O-[(2R,3R,4R)-tetrahydro-3,4-dihydroxy-4-(hydroxymethyl)-2-furanyl]-
PRECURSORMZ:  471.18718539783
PRECURSORTYPE:  [M-H]-
FORMULA:  C22H32O11
Ontology: ;;;
INCHIKEY:  UEAATLOMPYZOFF-UHFFFAOYNA-N
SMILES:  CC(C)=CCC1=CC(OC2OC(COC3OCC(O)(CO)C3O)C(O)C(O)C2O)=CC=C1O
RETENTIONTIME:  
CCS:  -1
IONMODE:  Negative
INSTRUMENTTYPE:  
INSTRUMENT:  Maxis II HD Q-TOF Bruker
COLLISIONENERGY:  
Comment:  DB#=CCMSLIB00000849437; origin=GNPS
Num Peaks:  14
89.02913	150.0
101.03049	110.0
125.02578	350.0
143.02878	60.0
148.06447	120.0
149.04532	100.0
161.03978	100.0
177.09605	340.0
191.05379	230.0
233.06638	1000.0
233.88658	40.0
293.08603	940.0
471.18854	730.0
635.3891	130.0

NAME:  NCGC00380499-01_C21H32O10_1-O-{(2E,4E)-5-[(1R,3S,5S,8S)-3,8-Dihydroxy-1,5-dimethyl-6-oxabicyclo[3.2.1]oct-8-yl]-3-methyl-2,4-pentadienoyl}-beta-D-glucopyranose
PRECURSORMZ:  489.19774977783
PRECURSORTYPE:  [M+FA-H]-
FORMULA:  C21H32O10
Ontology: Kingdom: Organic compounds;Superclass: Lipids and lipid;Class: Prenol lipids;Subclass: Sesquiterpenoids
INCHIKEY:  HCLCMXGQPIHMSN-UHFFFAOYNA-N
SMILES:  CC(C=CC1(O)C2(C)COC1(C)CC(O)C2)=CC(=O)OC1OC(CO)C(O)C(O)C1O
RETENTIONTIME:  
CCS:  -1
IONMODE:  Negative
INSTRUMENTTYPE:  
INSTRUMENT:  Maxis II HD Q-TOF Bruker
COLLISIONENERGY:  
Comment:  DB#=CCMSLIB00000849319; origin=GNPS
Num Peaks:  21
97.06319	20.0
125.06184	10.0
151.07603	20.0
153.05214	20.0
169.08939	20.0
171.11865	10.0
189.12228	20.0
207.14494	10.0
237.15157	90.0
279.1619	10.0
281.14142	1000.0
281.20981	10.0
291.15372	10.0
295.15945	40.0
305.14444	70.0
307.14294	10.0
323.15015	120.0
353.1619	20.0
382.64862	20.0
413.17502	20.0
442.20193	10.0

NAME:  NCGC00380603-02_C15H17NO5_Benzoic acid, 4-[[tetrahydro-2-[(1E)-3-hydroxy-1-buten-1-yl]-5-oxo-3-furanyl]amino]-
PRECURSORMZ:  336.10887519883
PRECURSORTYPE:  [M+FA-H]-
FORMULA:  C15H17NO5
Ontology: Kingdom: Organic compounds;Superclass: Benzenoids;Class: Benzene and substituted derivatives;Subclass: Benzoic acids and derivatives
INCHIKEY:  IZSWILLJDXDGDJ-UHFFFAOYNA-N
SMILES:  CC(O)C=CC1OC(=O)CC1NC1=CC=C(C=C1)C(O)=O
RETENTIONTIME:  
CCS:  -1
IONMODE:  Negative
INSTRUMENTTYPE:  
INSTRUMENT:  Maxis II HD Q-TOF Bruker
COLLISIONENERGY:  
Comment:  DB#=CCMSLIB00000849749; origin=GNPS
Num Peaks:  13
90.77975	20.0
92.05136	100.0
94.2777	80.0
132.08069	30.0
134.06036	100.0
135.0305	50.0
144.05225	70.0
156.84361	40.0
158.09834	160.0
202.08348	110.0
246.11096	140.0
247.11418	40.0
290.10321	1000.0

NAME:  NCGC00381274-01_C18H34O12_3-Hydroxy-3-(hydroxymethyl)-4-methylpentyl 6-O-[(2S,3R,4R)-3,4-dihydroxy-4-(hydroxymethyl)tetrahydro-2-furanyl]-beta-D-glucopyranoside
PRECURSORMZ:  441.19775008283
PRECURSORTYPE:  [M-H]-
FORMULA:  C18H34O12
Ontology: Kingdom: Organic compounds;Superclass: Lipids and lipid;Class: Fatty Acyls;Subclass: Fatty acyl glycosides
INCHIKEY:  MHJYRHBCBPGGHL-UHFFFAOYNA-N
SMILES:  CC(C)C(O)(CO)CCOC1OC(COC2OCC(O)(CO)C2O)C(O)C(O)C1O
RETENTIONTIME:  
CCS:  -1
IONMODE:  Negative
INSTRUMENTTYPE:  
INSTRUMENT:  Maxis II HD Q-TOF Bruker
COLLISIONENERGY:  
Comment:  DB#=CCMSLIB00000850568; origin=GNPS
Num Peaks:  11
131.03185	110.0
147.10175	140.0
149.04376	240.0
161.04463	120.0
179.05885	70.0
191.06358	200.0
221.06575	70.0
233.06401	50.0
309.15341	170.0
441.19928	1000.0
441.3251	60.0

NAME:  NCGC00380800-01_C36H50N2O7_(5R,13S,14R,15R)-15,22-Dihydroxy-5-methoxy-14,16-dimethyl-3-oxo-2-azabicyclo[18.3.1]tetracosa-1(24),6,8,10,16,20,22-heptaen-13-yl N-(cyclohexylcarbonyl)-D-alaninate
PRECURSORMZ:  667.36000450583
PRECURSORTYPE:  [M+FA-H]-
FORMULA:  C36H50N2O7
Ontology: Kingdom: Organic compounds;Superclass: Organic acids and derivatives;Class: Carboxylic acids and derivatives;Subclass: Amino acids
INCHIKEY:  WACCDLYIHBADOZ-UHFFFAOYNA-N
SMILES:  COC1CC(O)=NC2=CC(O)=CC(CCC=C(C)C(O)C(C)C(CC=CC=CC=C1)OC(=O)C(C)N=C(O)C1CCCCC1)=C2
RETENTIONTIME:  
CCS:  -1
IONMODE:  Negative
INSTRUMENTTYPE:  
INSTRUMENT:  Maxis II HD Q-TOF Bruker
COLLISIONENERGY:  
Comment:  DB#=CCMSLIB00000850991; origin=GNPS
Num Peaks:  19
88.03846	40.0
119.08823	20.0
146.05727	20.0
147.03201	10.0
154.12573	20.0
172.03851	20.0
180.10277	100.0
198.11298	1000.0
199.1205	20.0
230.08069	130.0
270.11426	10.0
292.12857	10.0
350.17734	80.0
382.20465	70.0
390.2038	10.0
408.22079	60.0
422.24438	10.0
440.24619	80.0
621.35443	40.0

NAME:  NCGC00380773-01_C20H25ClO6_
PRECURSORMZ:  441.13216874783
PRECURSORTYPE:  [M+FA-H]-
FORMULA:  C20H25ClO6
Ontology: Kingdom: Organic compounds;Superclass: Organoheterocyclic compounds;Class: Azaphilones;
INCHIKEY:  GOQQRZOTZSUDEC-UHFFFAOYNA-N
SMILES:  CCC(C)C=C(C)C=CC1=CC2=C(Cl)C(=O)C(C)(O)C(=O)C2(O)C(OC)O1
RETENTIONTIME:  
CCS:  -1
IONMODE:  Negative
INSTRUMENTTYPE:  
INSTRUMENT:  Maxis II HD Q-TOF Bruker
COLLISIONENERGY:  
Comment:  DB#=CCMSLIB00000851379; origin=GNPS
Num Peaks:  40
76.742	160.0
159.84613	70.0
173.05626	160.0
181.00174	190.0
196.99095	170.0
199.03941	120.0
199.10666	260.0
207.03053	140.0
209.04396	360.0
213.12616	140.0
215.06937	150.0
233.49014	110.0
241.05476	110.0
243.1393	170.0
244.10405	180.0
255.13885	250.0
257.11829	120.0
257.16629	150.0
259.06433	280.0
271.13242	150.0
273.11105	980.0
283.10318	120.0
285.11667	440.0
291.08243	60.0
299.1199	220.0
302.08136	210.0
304.09122	170.0
316.12143	270.0
317.14563	130.0
319.10846	130.0
321.08994	320.0
327.11771	440.0
331.15378	90.0
343.12103	130.0
344.12473	1000.0
345.14017	750.0
359.15302	630.0
363.10742	140.0
376.1124	70.0
927.36981	150.0

NAME:  NCGC00380708-03_C20H20O6_Dimethyl 2,4-bis(4-hydroxyphenyl)-1,3-cyclobutanedicarboxylate
PRECURSORMZ:  401.12419091183
PRECURSORTYPE:  [M+FA-H]-
FORMULA:  C20H20O6
Ontology: ;;;
INCHIKEY:  OEWCQSJKSNWJTH-UHFFFAOYSA-N
SMILES:  COC(=O)C1C(C(C1C1=CC=C(O)C=C1)C(=O)OC)C1=CC=C(O)C=C1
RETENTIONTIME:  
CCS:  -1
IONMODE:  Negative
INSTRUMENTTYPE:  
INSTRUMENT:  Maxis II HD Q-TOF Bruker
COLLISIONENERGY:  
Comment:  DB#=CCMSLIB00000851115; origin=GNPS
Num Peaks:  8
210.07172	20.0
210.86411	20.0
211.07645	1000.0
211.2272	20.0
211.54012	10.0
212.0807	10.0
401.0336	20.0
593.48932	10.0

NAME:  NCGC00380875-01_C21H32O11_4-(4-Hydroxyphenyl)-2-butanyl 6-O-[(4xi)-alpha-L-threo-pentofuranosyl]-beta-D-glucopyranoside
PRECURSORMZ:  459.18718539783
PRECURSORTYPE:  [M-H]-
FORMULA:  C21H32O11
Ontology: Kingdom: Organic compounds;Superclass: Lipids and lipid;Class: Fatty Acyls;Subclass: Fatty acyl glycosides
INCHIKEY:  DJDISCKFJXDADJ-UHFFFAOYNA-N
SMILES:  CC(CCC1=CC=C(O)C=C1)OC1OC(COC2OC(CO)C(O)C2O)C(O)C(O)C1O
RETENTIONTIME:  
CCS:  214.952809
IONMODE:  Negative
INSTRUMENTTYPE:  
INSTRUMENT:  Maxis II HD Q-TOF Bruker
COLLISIONENERGY:  
Comment:  DB#=CCMSLIB00000849460; origin=GNPS
Num Peaks:  9
99.00828	60.0
101.02558	10.0
138.89709	10.0
149.04514	10.0
165.09079	200.0
268.61636	10.0
327.14551	1000.0
459.18832	520.0
460.19067	10.0

NAME:  NCGC00380541-01_C55H89NO20_
PRECURSORMZ:  1128.59599681783
PRECURSORTYPE:  [M+FA-H]-
FORMULA:  C55H89NO20
Ontology: Kingdom: Organic compounds;Superclass: Lipids and lipid;Class: Prenol lipids;Subclass: Terpene glycosides
INCHIKEY:  YXLFAIVUWSKRHO-UHFFFAOYNA-N
SMILES:  CC1OC(OC2C(O)C(C)OC(OCC3OC(OC4CCC5(C)C(CCC6(C)C5CC=C5C7CC(C)(C)CCC7(CCC65C)C(=O)OC5OCC(O)C(O)C5O)C4(C)C)C(N=C(C)O)C(O)C3O)C2O)C(O)C(O)C1O
RETENTIONTIME:  
CCS:  -1
IONMODE:  Negative
INSTRUMENTTYPE:  
INSTRUMENT:  Maxis II HD Q-TOF Bruker
COLLISIONENERGY:  
Comment:  DB#=CCMSLIB00000850211; origin=GNPS
Num Peaks:  35
89.02377	10.0
100.04057	10.0
112.04079	10.0
136.04155	10.0
149.04514	20.0
154.05037	20.0
163.0607	10.0
166.05107	20.0
184.06114	50.0
202.07195	30.0
455.35324	180.0
456.35843	20.0
581.3855	20.0
592.40326	10.0
622.41235	140.0
623.41608	30.0
640.42352	140.0
641.427	20.0
658.43408	160.0
659.43604	30.0
772.46472	30.0
786.47931	40.0
790.47632	60.0
791.4834	20.0
804.49133	660.0
805.49524	180.0
806.49353	20.0
936.534	1000.0
937.53748	350.0
938.53998	60.0
1082.59155	120.0
1083.59106	50.0
1084.60071	10.0
1128.59802	60.0
1129.60596	20.0

NAME:  NCGC00380820-01_C19H24O7_1H-2-Benzoxacyclotetradecin-1,7(8H)-dione, 3,4,5,6,9,10-hexahydro-8,9,16-trihydroxy-14-methoxy-3-methyl-, (3S,8S,9R,11E)-
PRECURSORMZ:  409.15040566083
PRECURSORTYPE:  [M+FA-H]-
FORMULA:  C19H24O7
Ontology: Kingdom: Organic compounds;Superclass: Phenylpropanoids and polyketides;Class: Macrolides and analogues;Subclass: Zearalenones
INCHIKEY:  WFIUAGOQGGAREU-UHFFFAOYNA-N
SMILES:  COC1=CC(O)=C2C(=C1)C=CCC(O)C(O)C(=O)CCCC(C)OC2=O
RETENTIONTIME:  
CCS:  -1
IONMODE:  Negative
INSTRUMENTTYPE:  
INSTRUMENT:  Maxis II HD Q-TOF Bruker
COLLISIONENERGY:  
Comment:  DB#=CCMSLIB00000849899; origin=GNPS
Num Peaks:  20
125.05584	40.0
146.03723	40.0
173.08414	40.0
174.02933	240.0
177.05847	30.0
189.05466	530.0
200.64946	20.0
205.0975	50.0
207.06323	60.0
217.05481	80.0
231.74435	10.0
232.06961	20.0
232.35846	10.0
235.06541	60.0
272.08209	30.0
301.14163	20.0
335.14655	30.0
345.14026	100.0
363.14386	1000.0
366.83987	30.0

NAME:  NCGC00380707-01_C26H42O11_(5xi,6alpha,7alpha,9xi,16xi)-16-(beta-D-Glucopyranosyloxy)-6,7,17-trihydroxykauran-19-oic acid
PRECURSORMZ:  575.27091471983
PRECURSORTYPE:  [M+FA-H]-
FORMULA:  C26H42O11
Ontology: Kingdom: Organic compounds;Superclass: Lipids and lipid;Class: Prenol lipids;Subclass: Terpene glycosides
INCHIKEY:  QUCGBWQRLWOVBR-UHFFFAOYNA-N
SMILES:  [H]C12CC3(CC1(CO)OC1OC(CO)C(O)C(O)C1O)C(O)C(O)C1C(C)(CCCC1(C)C(O)=O)C3CC2
RETENTIONTIME:  
CCS:  -1
IONMODE:  Negative
INSTRUMENTTYPE:  
INSTRUMENT:  Maxis II HD Q-TOF Bruker
COLLISIONENERGY:  
Comment:  DB#=CCMSLIB00000851400; origin=GNPS
Num Peaks:  2
349.20261	100.0
529.26697	1000.0

NAME:  Pesticide5_Sulfentrazone_C11H10Cl2F2N4O3S_N-{2,4-Dichloro-5-[4-(difluoromethyl)-3-methyl-5-oxo-4,5-dihydro-1H-1,2,4-triazol-1-yl]phenyl}methanesulfonamide
PRECURSORMZ:  384.97459664783
PRECURSORTYPE:  [M-H]-
FORMULA:  C11H10Cl2F2N4O3S
Ontology: Kingdom: Organic compounds;Superclass: Organoheterocyclic compounds;Class: Azoles;Subclass: Triazoles
INCHIKEY:  OORLZFUTLGXMEF-UHFFFAOYSA-N
SMILES:  CC1=NN(C(=O)N1C(F)F)C1=C(Cl)C=C(Cl)C(NS(C)(=O)=O)=C1
RETENTIONTIME:  
CCS:  170.5116969
IONMODE:  Negative
INSTRUMENTTYPE:  
INSTRUMENT:  Maxis HD qTOF
COLLISIONENERGY:  
Comment:  DB#=CCMSLIB00001058312; origin=GNPS
Num Peaks:  18
150.9612	20.0
174.00571	20.0
198.9482	70.0
199.94917	20.0
201.95187	20.0
225.95764	30.0
231.00429	20.0
239.97377	40.0
244.96426	20.0
251.97789	20.0
256.00342	10.0
278.9776	50.0
305.98593	50.0
306.9971	220.0
308.99695	20.0
334.97559	40.0
364.96881	10.0
384.97549	1000.0

NAME:  NCGC00347780-02_C38H61NO9_3-[(2-Acetamido-2-deoxyhexopyranosyl)oxy]-16-hydroxyolean-12-en-28-oic acid
PRECURSORMZ:  674.42735609583
PRECURSORTYPE:  [M-H]-
FORMULA:  C38H61NO9
Ontology: Kingdom: Organic compounds;Superclass: Lipids and lipid;Class: Prenol lipids;Subclass: Terpene glycosides
INCHIKEY:  ZZVZUHRMTUSANL-UHFFFAOYNA-N
SMILES:  CC(O)=NC1C(O)C(O)C(CO)OC1OC1CCC2(C)C(CCC3(C)C2CC=C2C4CC(C)(C)CCC4(C(O)CC32C)C(O)=O)C1(C)C
RETENTIONTIME:  
CCS:  262.8307737
IONMODE:  Negative
INSTRUMENTTYPE:  
INSTRUMENT:  Maxis II HD Q-TOF Bruker
COLLISIONENERGY:  
Comment:  DB#=CCMSLIB00000849944; origin=GNPS
Num Peaks:  12
100.04057	60.0
101.0245	10.0
112.04121	30.0
140.03352	20.0
142.0507	20.0
154.05186	20.0
200.05682	20.0
202.07155	230.0
596.40082	20.0
612.42969	90.0
674.42883	1000.0
675.43201	100.0

NAME:  NCGC00380418-01_C30H46O8_(1alpha,2alpha,3beta,5xi,9xi,13xi,14xi,18xi)-1,2,3,22,23,29-Hexahydroxy-13,27-cycloolean-11-en-28-oic acid
PRECURSORMZ:  533.31199198883
PRECURSORTYPE:  [M-H]-
FORMULA:  C30H46O8
Ontology: Kingdom: Organic compounds;Superclass: Lipids and lipid;Class: Prenol lipids;Subclass: Sesterterpenoids
INCHIKEY:  IXIMDUAPYHOVHL-UHFFFAOYNA-N
SMILES:  CC1(CO)CC(O)C2(CCC34CC3(C=CC3C5(C)C(O)C(O)C(O)C(C)(CO)C5CCC43C)C2C1)C(O)=O
RETENTIONTIME:  
CCS:  -1
IONMODE:  Negative
INSTRUMENTTYPE:  
INSTRUMENT:  Maxis II HD Q-TOF Bruker
COLLISIONENERGY:  
Comment:  DB#=CCMSLIB00000850289; origin=GNPS
Num Peaks:  4
288.79489	10.0
485.2923	70.0
515.30579	30.0
533.31305	1000.0

NAME:  Pesticide3_Diuron_C9H10Cl2N2O_3-(3,4-Dichlorophenyl)-1,1-dimethylurea
PRECURSORMZ:  231.00974194783
PRECURSORTYPE:  [M-H]-
FORMULA:  C9H10Cl2N2O
Ontology: Kingdom: Organic compounds;Superclass: Benzenoids;Class: Benzene and substituted derivatives;Subclass: N
INCHIKEY:  XMTQQYYKAHVGBJ-UHFFFAOYSA-N
SMILES:  CN(C)C(O)=NC1=CC(Cl)=C(Cl)C=C1
RETENTIONTIME:  
CCS:  145.6207773
IONMODE:  Negative
INSTRUMENTTYPE:  
INSTRUMENT:  Q-Exactive Plus Orbitrap Res 70k
COLLISIONENERGY:  
Comment:  DB#=CCMSLIB00001058257; origin=GNPS
Num Peaks:  6
149.97549	120.0
159.97284	210.0
185.95195	600.0
186.01743	10.0
231.00961	1000.0
231.07542	20.0

NAME:  NCGC00381330-01_C18H20N2O9_2,4(1H,3H)-Pyrimidinedione, 1-[3-O-(4-hydroxy-2-methoxy-6-methylbenzoyl)-alpha-D-ribofuranosyl]-
PRECURSORMZ:  407.10960377983
PRECURSORTYPE:  [M-H]-
FORMULA:  C18H20N2O9
Ontology: Kingdom: Organic compounds;Superclass: Nucleosides;Class: Pyrimidine nucleosides;
INCHIKEY:  LOUBNBRAJPSMEC-UHFFFAOYNA-N
SMILES:  COC1=C(C(=O)OC2C(CO)OC(C2O)N2C=CC(O)=NC2=O)C(C)=CC(O)=C1
RETENTIONTIME:  
CCS:  -1
IONMODE:  Negative
INSTRUMENTTYPE:  
INSTRUMENT:  Maxis II HD Q-TOF Bruker
COLLISIONENERGY:  
Comment:  DB#=CCMSLIB00000851162; origin=GNPS
Num Peaks:  21
111.02033	990.0
122.03767	60.0
137.05907	520.0
152.0354	100.0
163.03773	50.0
172.05722	50.0
180.19316	20.0
181.04927	1000.0
181.44464	50.0
182.0452	60.0
218.09167	90.0
225.05208	290.0
232.98308	80.0
233.08478	40.0
243.06473	70.0
269.02478	80.0
295.06561	40.0
364.0997	70.0
407.07736	70.0
407.11218	280.0
443.81662	30.0

NAME:  NCGC00380724-01_C28H47NO8_(3R,5R,6S,7S,9R,11E,13S,14R)-14-Ethyl-13-hydroxy-3,5,7,9,13-pentamethyl-2,4,10-trioxooxacyclotetradec-11-en-6-yl 3,4,6-trideoxy-3-(dimethylamino)-D-xylo-hexopyranoside
PRECURSORMZ:  560.2995687369
PRECURSORTYPE:  [M+Cl]-
FORMULA:  C28H47NO8
Ontology: Kingdom: Organic compounds;Superclass: Organic oxygen compounds;Class: Organooxygen compounds;Subclass: Carbohydrates and carbohydrate conjugates
INCHIKEY:  UZQBOFAUUTZOQE-UHFFFAOYNA-N
SMILES:  CCC1OC(=O)C(C)C(=O)C(C)C(OC2OC(C)CC(C2O)N(C)C)C(C)CC(C)C(=O)C=CC1(C)O
RETENTIONTIME:  
CCS:  -1
IONMODE:  Negative
INSTRUMENTTYPE:  
INSTRUMENT:  Maxis II HD Q-TOF Bruker
COLLISIONENERGY:  
Comment:  DB#=CCMSLIB00000850909; origin=GNPS
Num Peaks:  23
114.92339	110.0
125.10099	110.0
137.09978	460.0
149.10071	150.0
153.05472	130.0
160.97586	70.0
174.11536	300.0
179.10851	1000.0
201.11147	130.0
211.09357	60.0
219.15007	40.0
223.13678	70.0
242.46826	330.0
273.32965	50.0
291.16513	130.0
305.20673	170.0
349.2027	960.0
381.12051	50.0
466.29034	170.0
524.32257	750.0
528.59747	50.0
677.43829	60.0
705.53284	50.0

NAME:  NCGC00380744-01_C22H32O11_beta-D-Glucopyranoside, 4-hydroxy-3-(3-methyl-2-buten-1-yl)phenyl 6-O-[(2R,3R,4R)-tetrahydro-3,4-dihydroxy-4-(hydroxymethyl)-2-furanyl]-
PRECURSORMZ:  517.19266439783
PRECURSORTYPE:  [M+FA-H]-
FORMULA:  C22H32O11
Ontology: Kingdom: Organic compounds;Superclass: Organic oxygen compounds;Class: Organooxygen compounds;Subclass: Carbohydrates and carbohydrate conjugates
INCHIKEY:  UEAATLOMPYZOFF-UHFFFAOYNA-N
SMILES:  CC(C)=CCC1=CC(OC2OC(COC3OCC(O)(CO)C3O)C(O)C(O)C2O)=CC=C1O
RETENTIONTIME:  
CCS:  -1
IONMODE:  Negative
INSTRUMENTTYPE:  
INSTRUMENT:  Maxis II HD Q-TOF Bruker
COLLISIONENERGY:  
Comment:  DB#=CCMSLIB00000849440; origin=GNPS
Num Peaks:  29
86.45225	20.0
89.02437	70.0
96.27365	10.0
101.02657	60.0
115.03971	90.0
121.02628	70.0
125.02297	380.0
131.03255	70.0
133.02724	20.0
134.03296	50.0
135.04199	30.0
143.03012	20.0
148.71248	30.0
148.80853	30.0
149.04286	460.0
159.02229	30.0
161.04555	60.0
176.08273	80.0
177.09187	210.0
188.06021	30.0
191.05632	220.0
193.77588	20.0
195.42174	20.0
199.49712	10.0
233.06299	320.0
293.08865	1000.0
339.14597	50.0
471.18625	640.0
517.15668	30.0

NAME:  NCGC00380381-01_C24H27NO9_
PRECURSORMZ:  518.16678400083
PRECURSORTYPE:  [M+FA-H]-
FORMULA:  C24H27NO9
Ontology: Kingdom: Organic compounds;Superclass: Lipids and lipid;Class: Saccharolipids;
INCHIKEY:  YOTVUKXKJYRTAR-UHFFFAOYNA-N
SMILES:  OC1C(COC(=O)CC2C(O)=NC3=CC=CC=C23)OC(OCCC2=CC=C(O)C=C2)C(O)C1O
RETENTIONTIME:  
CCS:  -1
IONMODE:  Negative
INSTRUMENTTYPE:  
INSTRUMENT:  Maxis II HD Q-TOF Bruker
COLLISIONENERGY:  
Comment:  DB#=CCMSLIB00000850661; origin=GNPS
Num Peaks:  13
95.43698	10.0
116.05051	50.0
119.04969	10.0
144.04584	110.0
146.06134	180.0
161.04086	10.0
162.05441	70.0
172.04053	700.0
190.0498	410.0
232.05852	10.0
292.08224	10.0
299.11639	20.0
472.16235	1000.0

NAME:  NCGC00381200-01_C11H16O5_
PRECURSORMZ:  273.09797616283
PRECURSORTYPE:  [M+FA-H]-
FORMULA:  C11H16O5
Ontology: Kingdom: Organic compounds;Superclass: Organoheterocyclic compounds;Class: Pyrans;Subclass: Pyranones and derivatives
INCHIKEY:  OLSZGECXFBCCRZ-UHFFFAOYNA-N
SMILES:  CC1=CC(=O)OC(C)(CC(C)(O)C(O)=O)C1
RETENTIONTIME:  
CCS:  -1
IONMODE:  Negative
INSTRUMENTTYPE:  
INSTRUMENT:  Maxis II HD Q-TOF Bruker
COLLISIONENERGY:  
Comment:  DB#=CCMSLIB00000851070; origin=GNPS
Num Peaks:  10
81.03549	90.0
125.05988	610.0
139.07784	90.0
143.07301	240.0
144.06848	150.0
165.09222	100.0
183.10687	180.0
209.08496	80.0
227.09299	1000.0
1266.99817	40.0

NAME:  NCGC00381216-01_C24H28O8_Furo[4,3,2-ij]pyrano[4',3':4,5]cyclohepta[1,2-f][2]benzopyran-1,5,9,13(2H,11H)-tetrone, 3a,5a,6,8,12,13a,13b,13c-octahydro-7-(hydroxymethyl)-2,5a,11,11,13a-pentamethyl-
PRECURSORMZ:  443.17114140983
PRECURSORTYPE:  [M-H]-
FORMULA:  C24H28O8
Ontology: Kingdom: Organic compounds;Superclass: Organoheterocyclic compounds;Class: Furopyrans;
INCHIKEY:  JIEVZPUBUDASNE-UHFFFAOYNA-N
SMILES:  CC1OC2OC(=O)C3(C)CC4=C(CO)C5=C(CC(=O)C4(C)C(C23)C1=O)C(C)(C)OC(=O)C5
RETENTIONTIME:  
CCS:  -1
IONMODE:  Negative
INSTRUMENTTYPE:  
INSTRUMENT:  Maxis II HD Q-TOF Bruker
COLLISIONENERGY:  
Comment:  DB#=CCMSLIB00000849913; origin=GNPS
Num Peaks:  36
125.05448	10.0
151.04536	10.0
163.07335	10.0
171.10858	10.0
206.83427	10.0
207.06772	160.0
227.10457	10.0
229.06863	10.0
241.16028	10.0
243.14076	10.0
253.15637	20.0
265.12445	10.0
265.15427	10.0
275.14798	10.0
281.15948	20.0
287.08823	10.0
293.15256	10.0
293.19617	10.0
304.13248	10.0
307.1647	20.0
309.16064	10.0
319.16714	80.0
319.23367	10.0
321.14331	10.0
325.14664	30.0
325.1817	40.0
337.14114	10.0
337.18134	180.0
355.1933	40.0
363.16794	20.0
369.17053	40.0
381.17419	40.0
397.16574	10.0
399.18176	120.0
413.15646	10.0
443.17285	1000.0

NAME:  NCGC00380250-01_C21H23NO8_(2E)-4-({(3S,3aR,4E,7aS)-7-Hydroxy-4-[(2E,4E)-1-hydroxy-2,4-hexadien-1-ylidene]-3,6,7a-trimethyl-2,5-dioxo-2,3,3a,4,5,7a-hexahydro-1-benzofuran-3-yl}amino)-4-oxo-2-butenoic acid
PRECURSORMZ:  416.13509025283
PRECURSORTYPE:  [M-H]-
FORMULA:  C21H23NO8
Ontology: Kingdom: Organic compounds;Superclass: Organic acids and derivatives;Class: Carboxylic acids and derivatives;Subclass: Amino acids
INCHIKEY:  WVVJWXDENDJFEC-UHFFFAOYNA-N
SMILES:  CC=CC=CC(O)=C1C2C(C)(N=C(O)C=CC(O)=O)C(=O)OC2(C)C(O)=C(C)C1=O
RETENTIONTIME:  
CCS:  218.4177911
IONMODE:  Negative
INSTRUMENTTYPE:  
INSTRUMENT:  Maxis II HD Q-TOF Bruker
COLLISIONENERGY:  
Comment:  DB#=CCMSLIB00000851135; origin=GNPS
Num Peaks:  40
82.02396	40.0
96.04314	40.0
98.46207	10.0
110.06089	60.0
132.98999	20.0
150.05197	20.0
154.0481	70.0
166.95122	30.0
168.02875	1000.0
176.03966	30.0
189.08302	10.0
190.0844	20.0
202.05717	20.0
203.05211	20.0
203.10765	20.0
216.10475	50.0
217.08517	40.0
218.07828	120.0
227.05753	20.0
229.11961	20.0
230.38803	10.0
230.81244	10.0
231.06627	20.0
231.10745	30.0
247.11282	30.0
256.10355	20.0
257.12332	10.0
262.06934	80.0
275.12418	20.0
276.09277	10.0
304.08218	70.0
310.14059	10.0
316.12192	20.0
318.13861	10.0
344.14163	10.0
372.14026	70.0
372.17499	30.0
410.39716	20.0
415.73257	10.0
416.13574	150.0

NAME:  kaempferol-7-O-deoxyhexoside
PRECURSORMZ:  431.09837039183
PRECURSORTYPE:  [M-H]-
FORMULA:  C21H20O10
Ontology: Kingdom: Organic compounds;Superclass: Phenylpropanoids and polyketides;Class: Flavonoids;Subclass: Flavonoid glycosides
INCHIKEY:  HQNOUCSPWAGQND-UHFFFAOYNA-N
SMILES:  CC1OC(OC2=CC(O)=C3C(=O)C(O)=C(OC3=C2)C2=CC=C(O)C=C2)C(O)C(O)C1O
RETENTIONTIME:  
CCS:  208.4711434
IONMODE:  Negative
INSTRUMENTTYPE:  
INSTRUMENT:  qTof
COLLISIONENERGY:  
Comment:  DB#=CCMSLIB00004678854; origin=GNPS
Num Peaks:  12
227.03447	30.0
228.04414	20.0
255.02968	40.0
256.03305	10.0
257.04559	20.0
284.03259	360.0
285.03989	1000.0
286.04266	130.0
287.04471	20.0
431.09909	650.0
432.10226	170.0
433.13892	20.0

NAME:  NCGC00380506-01_C21H28O10_2-Hydroxycyclohexyl 6-O-[(2E)-3-(3,4-dihydroxyphenyl)-2-propenoyl]-beta-D-glucopyranoside
PRECURSORMZ:  439.16097064983
PRECURSORTYPE:  [M-H]-
FORMULA:  C21H28O10
Ontology: Kingdom: Organic compounds;Superclass: Phenylpropanoids and polyketides;Class: Cinnamic acids and derivatives;Subclass: Hydroxycinnamic acids and derivatives
INCHIKEY:  CSGSKMJWQQEEQK-UHFFFAOYNA-N
SMILES:  OC1CCCCC1OC1OC(COC(=O)C=CC2=CC(O)=C(O)C=C2)C(O)C(O)C1O
RETENTIONTIME:  
CCS:  -1
IONMODE:  Negative
INSTRUMENTTYPE:  
INSTRUMENT:  Maxis II HD Q-TOF Bruker
COLLISIONENERGY:  
Comment:  DB#=CCMSLIB00000850118; origin=GNPS
Num Peaks:  10
81.84631	10.0
133.03078	50.0
135.04579	70.0
158.56343	10.0
161.02325	770.0
173.57666	10.0
179.03549	180.0
376.06329	10.0
438.26364	20.0
439.16388	1000.0

NAME:  NCGC00380931-01_C26H42O10_
PRECURSORMZ:  559.27600009983
PRECURSORTYPE:  [M+FA-H]-
FORMULA:  C26H42O10
Ontology: Kingdom: Organic compounds;Superclass: Lipids and lipid;Class: Fatty Acyls;Subclass: Fatty acyl glycosides
INCHIKEY:  YKVWDRYOZQXKSV-UHFFFAOYNA-N
SMILES:  CC1(CCOC2OC(CO)C(O)C(O)C2O)CCC23OC2(C1)C(O)CC1C(C)(CCCC31C)C(O)=O
RETENTIONTIME:  
CCS:  -1
IONMODE:  Negative
INSTRUMENTTYPE:  
INSTRUMENT:  Maxis II HD Q-TOF Bruker
COLLISIONENERGY:  
Comment:  DB#=CCMSLIB00000851436; origin=GNPS
Num Peaks:  2
513.27026	1000.0
514.28516	10.0

NAME:  Pesticide4_Flutolanil_C17H16F3NO2_Benzamide, N-[3-(1-methylethoxy)phenyl]-2-(trifluoromethyl)-
PRECURSORMZ:  322.10603679583
PRECURSORTYPE:  [M-H]-
FORMULA:  C17H16F3NO2
Ontology: Kingdom: Organic compounds;Superclass: Benzenoids;Class: Benzene and substituted derivatives;Subclass: Anilides
INCHIKEY:  PTCGDEVVHUXTMP-UHFFFAOYSA-N
SMILES:  CC(C)OC1=CC=CC(=C1)N=C(O)C1=CC=CC=C1C(F)(F)F
RETENTIONTIME:  
CCS:  173.6761569
IONMODE:  Negative
INSTRUMENTTYPE:  
INSTRUMENT:  Q-Exactive Plus Orbitrap Res 70k
COLLISIONENERGY:  
Comment:  DB#=CCMSLIB00001058353; origin=GNPS
Num Peaks:  6
134.02473	60.0
145.02711	1000.0
189.01694	230.0
240.0471	50.0
260.05267	40.0
322.10617	340.0

NAME:  NCGC00179753-02_C31H40O16_(1S,4aR,5S,7aS)-5-({6-Deoxy-4-O-[(2E)-3-(3-hydroxy-4-methoxyphenyl)-2-propenoyl]-alpha-L-mannopyranosyl}oxy)-7-(hydroxymethyl)-1,4a,5,7a-tetrahydrocyclopenta[c]pyran-1-yl beta-D-glucopyranoside
PRECURSORMZ:  667.22435875583
PRECURSORTYPE:  [M-H]-
FORMULA:  C31H40O16
Ontology: ;;;
INCHIKEY:  NGNMVXFBFBZQAG-UHFFFAOYNA-N
SMILES:  COC1=C(O)C=C(C=CC(=O)OC2C(C)OC(OC3C=C(CO)C4C3C=COC4OC3OC(CO)C(O)C(O)C3O)C(O)C2O)C=C1
RETENTIONTIME:  
CCS:  253.729589
IONMODE:  Negative
INSTRUMENTTYPE:  
INSTRUMENT:  Maxis II HD Q-TOF Bruker
COLLISIONENERGY:  
Comment:  DB#=CCMSLIB00000849905; origin=GNPS
Num Peaks:  21
133.02817	40.0
134.03714	230.0
135.04497	40.0
147.04541	20.0
149.06001	20.0
161.04402	10.0
165.05511	470.0
176.04381	10.0
178.02547	60.0
179.05975	20.0
192.04364	120.0
193.05055	1000.0
207.06567	200.0
220.03555	50.0
235.06133	370.0
249.07362	10.0
264.06485	30.0
279.08749	390.0
327.10352	10.0
487.16092	70.0
667.22705	460.0

NAME:  NCGC00385693-01_C32H48O8_Propanedioic acid, mono[12-(acetyloxy)-4,4,8,10,14-pentamethyl-17-(tetrahydro-2-methyl-5-oxo-2-furanyl)gonan-3-yl] ester
PRECURSORMZ:  559.32764205383
PRECURSORTYPE:  [M-H]-
FORMULA:  C32H48O8
Ontology: ;;;
INCHIKEY:  COUZJTKJINDPEN-UHFFFAOYNA-N
SMILES:  CC(=O)OC1CC2C3(C)CCC(OC(=O)CC(O)=O)C(C)(C)C3CCC2(C)C2(C)CCC(C12)C1(C)CCC(=O)O1
RETENTIONTIME:  
CCS:  240.3215514
IONMODE:  Negative
INSTRUMENTTYPE:  
INSTRUMENT:  Maxis II HD Q-TOF Bruker
COLLISIONENERGY:  
Comment:  DB#=CCMSLIB00000851123; origin=GNPS
Num Peaks:  12
288.9938	40.0
345.01016	30.0
387.3331	80.0
414.96686	70.0
429.34439	410.0
430.2962	100.0
431.31799	640.0
432.98297	80.0
472.56561	80.0
473.32867	1000.0
515.34357	380.0
971.06775	340.0

NAME:  NCGC00179866-03_C35H56O9_9,19-Cyclolanost-24-en-26-oic acid, 12,15-dihydroxy-3-(pentopyranosyloxy)-, (24E)-
PRECURSORMZ:  619.38515693083
PRECURSORTYPE:  [M-H]-
FORMULA:  C35H56O9
Ontology: Kingdom: Organic compounds;Superclass: Lipids and lipid;Class: Steroids and steroid derivatives;Subclass: Steroidal glycosides
INCHIKEY:  LIFSGPPJRHEFEY-UHFFFAOYNA-N
SMILES:  CC(CCC=C(C)C(O)=O)C1CC(O)C2(C)C3CCC4C5(CC35CC(O)C12C)CCC(OC1OCC(O)C(O)C1O)C4(C)C
RETENTIONTIME:  
CCS:  -1
IONMODE:  Negative
INSTRUMENTTYPE:  
INSTRUMENT:  Maxis II HD Q-TOF Bruker
COLLISIONENERGY:  
Comment:  DB#=CCMSLIB00000849401; origin=GNPS
Num Peaks:  4
101.0249	10.0
131.03323	40.0
619.38544	1000.0
620.38708	30.0

NAME:  NCGC00347583-02_C20H26O4_15-Hydroxy-7-oxoabieta-8(14),9(11),12-trien-18-oic acid
PRECURSORMZ:  375.18131186483
PRECURSORTYPE:  [M+FA-H]-
FORMULA:  C20H26O4
Ontology: Kingdom: Organic compounds;Superclass: Lipids and lipid;Class: Prenol lipids;Subclass: Diterpenoids
INCHIKEY:  MXPXAZNVQUWDFH-UHFFFAOYNA-N
SMILES:  CC(C)(O)C1=CC2=C(C=C1)C1(C)CCCC(C)(C1CC2=O)C(O)=O
RETENTIONTIME:  
CCS:  -1
IONMODE:  Negative
INSTRUMENTTYPE:  
INSTRUMENT:  Maxis II HD Q-TOF Bruker
COLLISIONENERGY:  
Comment:  DB#=CCMSLIB00000851461; origin=GNPS
Num Peaks:  6
171.07503	40.0
178.36368	20.0
285.18991	10.0
329.17889	1000.0
332.43582	10.0
1310.28723	80.0

NAME:  NCGC00381023-01_C48H74O22_(2E)-6-({4-O-[(2E)-6-({6-O-[(2E)-6-(beta-D-Glucopyranosyloxy)-2,6-dimethyl-2,7-octadienoyl]-beta-D-glucopyranosyl}oxy)-2,6-dimethyl-2,7-octadienoyl]-beta-D-glucopyranosyl}oxy)-2,6-dimethyl-2,7-octadienoic acid
PRECURSORMZ:  1047.46537657083
PRECURSORTYPE:  [M+FA-H]-
FORMULA:  C48H74O22
Ontology: Kingdom: Organic compounds;Superclass: Lipids and lipid;Class: Saccharolipids;
INCHIKEY:  HVNMJMDAMCBOTE-UHFFFAOYNA-N
SMILES:  CC(=CCCC(C)(OC1OC(CO)C(OC(=O)C(C)=CCCC(C)(OC2OC(COC(=O)C(C)=CCCC(C)(OC3OC(CO)C(O)C(O)C3O)C=C)C(O)C(O)C2O)C=C)C(O)C1O)C=C)C(O)=O
RETENTIONTIME:  
CCS:  -1
IONMODE:  Negative
INSTRUMENTTYPE:  
INSTRUMENT:  Maxis II HD Q-TOF Bruker
COLLISIONENERGY:  
Comment:  DB#=CCMSLIB00000851174; origin=GNPS
Num Peaks:  33
89.02365	20.0
101.0248	60.0
113.02454	70.0
119.0342	30.0
121.1024	30.0
127.07498	20.0
139.11227	80.0
143.03503	20.0
155.07132	20.0
161.04364	30.0
165.09276	50.0
167.10678	30.0
179.05853	20.0
183.10278	250.0
197.11835	30.0
225.11192	40.0
301.16669	20.0
327.14377	140.0
328.15067	10.0
345.15601	230.0
346.16086	20.0
387.17053	20.0
493.24554	20.0
511.25748	150.0
512.25604	30.0
655.2984	110.0
656.30304	20.0
673.30438	110.0
674.30566	20.0
821.40118	30.0
839.40875	1000.0
840.41217	210.0
841.4126	10.0

NAME:  Pesticide6_Diniconazole_C15H17Cl2N3O_(1E)-1-(2,4-Dichlorphenyl)-4,4-dimethyl-2-(1H-1,2,4-triazol-1-yl)pent-1-en-3-ol
PRECURSORMZ:  370.07307014783
PRECURSORTYPE:  [M+FA-H]-
FORMULA:  C15H17Cl2N3O
Ontology: Kingdom: Organic compounds;Superclass: Phenylpropanoids and polyketides;Class: Cinnamyl alcohols;
INCHIKEY:  FBOUIAKEJMZPQG-UHFFFAOYNA-N
SMILES:  CC(C)(C)C(O)C(=CC1=C(Cl)C=C(Cl)C=C1)N1C=NC=N1
RETENTIONTIME:  
CCS:  -1
IONMODE:  Negative
INSTRUMENTTYPE:  
INSTRUMENT:  Q-Exactive Plus Orbitrap Res 70k
COLLISIONENERGY:  
Comment:  DB#=CCMSLIB00001058241; origin=GNPS
Num Peaks:  30
71.50971	70.0
75.73454	70.0
78.28422	70.0
81.91712	70.0
87.43419	80.0
88.29056	70.0
91.11673	70.0
92.44825	70.0
92.877	70.0
98.83871	80.0
102.5381	80.0
103.41705	70.0
115.0733	70.0
122.15546	90.0
125.01826	90.0
127.48763	80.0
131.09669	80.0
148.28458	80.0
177.83835	80.0
179.27205	80.0
183.97276	1000.0
191.77933	80.0
208.11992	100.0
223.64336	80.0
224.69952	80.0
237.99501	420.0
296.77145	80.0
297.93021	80.0
334.23468	90.0
358.37549	80.0

NAME:  NCGC00381008-01_C58H96O27_alpha-L-Arabinopyranoside, (3beta,5xi,9xi,16alpha,18xi)-13,28-epoxy-23-hydroxy-16-(pentopyranosyloxy)oleanan-3-yl O-beta-D-glucopyranosyl-(1->4)-O-[O-beta-D-glucopyranosyl-(1->4)-beta-D-glucopyranosyl-(1->2)]-
PRECURSORMZ:  1269.61210037883
PRECURSORTYPE:  [M+FA-H]-
FORMULA:  C58H96O27
Ontology: Kingdom: Organic compounds;Superclass: Lipids and lipid;Class: Prenol lipids;Subclass: Triterpenoids
INCHIKEY:  ANPBVQUWPQJORQ-UHFFFAOYNA-N
SMILES:  CC1(C)CCC23COC4(CCC5C6(C)CCC(OC7OCC(OC8OC(CO)C(O)C(O)C8O)C(O)C7OC7OC(CO)C(OC8OC(CO)C(O)C(O)C8O)C(O)C7O)C(C)(CO)C6CCC5(C)C4(C)CC2OC2OCC(O)C(O)C2O)C3C1
RETENTIONTIME:  
CCS:  -1
IONMODE:  Negative
INSTRUMENTTYPE:  
INSTRUMENT:  Maxis II HD Q-TOF Bruker
COLLISIONENERGY:  
Comment:  DB#=CCMSLIB00000849728; origin=GNPS
Num Peaks:  30
85.02983	20.0
89.02409	20.0
99.00869	10.0
101.02451	70.0
113.02392	70.0
119.03539	50.0
125.02417	20.0
131.03392	50.0
143.03561	30.0
149.04539	20.0
161.04539	60.0
179.0558	60.0
221.06807	20.0
263.07971	10.0
275.07681	70.0
305.08939	10.0
605.40778	70.0
749.45117	10.0
767.46008	90.0
768.46136	20.0
911.50281	10.0
929.51105	60.0
930.50977	10.0
1043.53674	10.0
1061.55713	30.0
1091.56641	110.0
1092.5697	40.0
1223.60791	1000.0
1224.61108	460.0
1225.6084	70.0

NAME:  Pesticide4_Ivermectin_C48H74O14_22,23-dihydroavermectin B1
PRECURSORMZ:  919.50605961083
PRECURSORTYPE:  [M+FA-H]-
FORMULA:  C48H74O14
Ontology: Kingdom: Organic compounds;Superclass: Phenylpropanoids and polyketides;Class: Macrolides and analogues;Subclass: Milbemycins
INCHIKEY:  AZSNMRSAGSSBNP-UHFFFAOYNA-N
SMILES:  [H]C12CC([H])(CC=C(C)C(OC3CC(OC)C(OC4CC(OC)C(O)C(C)O4)C(C)O3)C(C)C=CC=C3COC4C(O)C(C)=CC(C(=O)O1)C34O)OC1(CCC(C)C(O1)C(C)CC)C2
RETENTIONTIME:  
CCS:  -1
IONMODE:  Negative
INSTRUMENTTYPE:  
INSTRUMENT:  Maxis HD qTOF
COLLISIONENERGY:  
Comment:  DB#=CCMSLIB00001058390; origin=GNPS
Num Peaks:  69
85.03425	20.0
100.93312	30.0
101.93896	30.0
109.02947	20.0
110.0403	60.0
113.09814	60.0
115.04929	20.0
120.89786	20.0
135.03915	40.0
173.04889	20.0
179.06697	30.0
185.15736	140.0
197.09485	40.0
204.98218	20.0
219.18658	40.0
221.14108	50.0
224.44411	20.0
228.72359	30.0
229.10831	1000.0
230.11275	90.0
241.07716	20.0
276.28253	30.0
282.97568	30.0
307.00467	20.0
307.16318	20.0
325.25256	30.0
334.97687	40.0
338.18353	20.0
369.99731	30.0
376.99664	20.0
390.16418	20.0
425.2424	60.0
439.25589	30.0
461.07666	20.0
491.99136	20.0
500.9679	20.0
501.98669	30.0
502.98291	30.0
505.00647	50.0
510.99271	20.0
520.99713	20.0
531.31	190.0
532.30634	40.0
549.3175	20.0
551.9754	20.0
560.98126	30.0
575.26178	40.0
610.95648	20.0
634.97076	40.0
652.95935	20.0
675.95203	30.0
679.00287	20.0
693.00098	20.0
693.42303	40.0
711.00446	30.0
711.40649	20.0
761.42511	30.0
762.44867	20.0
781.03162	20.0
802.52386	20.0
811.61078	20.0
829.50031	30.0
830.52075	20.0
837.48334	230.0
855.48267	190.0
856.50543	70.0
873.39941	30.0
873.5083	120.0
919.0332	30.0

NAME:  NCGC00381229-01_C54H90O30_Hexopyranoside, (2E,6E)-3,7,11-trimethyl-2,6,10-dodecatrien-1-yl O--6-deoxyhexopyranosyl-(1->4)-O-pentopyranosyl-(1->4)-O--6-deoxyhexopyranosyl-(1->4)-O--6-deoxyhexopyranosyl-(1->3)-O-[O-pentopyranosyl-(1->4)pentopyranosyl-(1->6)]-
PRECURSORMZ:  1263.54989404583
PRECURSORTYPE:  [M+FA-H]-
FORMULA:  C54H90O30
Ontology: Kingdom: Organic compounds;Superclass: Lipids and lipid;Class: Prenol lipids;Subclass: Terpene glycosides
INCHIKEY:  BDQVTRRVULQEPY-UHFFFAOYNA-N
SMILES:  CC1OC(OC2COC(OC3C(C)OC(OC4C(C)OC(OC5C(O)C(COC6OCC(OC7OCC(O)C(O)C7O)C(O)C6O)OC(OCC=C(C)CCC=C(C)CCC=C(C)C)C5O)C(O)C4O)C(O)C3O)C(O)C2O)C(O)C(O)C1O
RETENTIONTIME:  
CCS:  -1
IONMODE:  Negative
INSTRUMENTTYPE:  
INSTRUMENT:  Maxis II HD Q-TOF Bruker
COLLISIONENERGY:  
Comment:  DB#=CCMSLIB00000849929; origin=GNPS
Num Peaks:  55
85.02935	50.0
87.01	20.0
89.02458	60.0
97.03008	20.0
99.04315	10.0
101.02435	80.0
103.04031	50.0
109.02916	10.0
113.02441	170.0
115.03932	60.0
119.03522	60.0
125.02419	130.0
127.03956	80.0
131.03455	100.0
143.03459	150.0
145.05028	170.0
149.04477	40.0
163.06116	330.0
164.0634	10.0
187.058	10.0
205.07124	360.0
206.07401	10.0
241.07674	10.0
247.08284	50.0
259.08282	10.0
265.09213	20.0
277.09399	40.0
289.09515	20.0
307.10278	30.0
337.11563	30.0
409.1362	30.0
423.15222	30.0
483.17029	10.0
529.30286	50.0
555.19336	40.0
661.34668	40.0
675.36365	80.0
676.36169	20.0
807.40326	180.0
808.40839	40.0
903.43292	10.0
921.4375	10.0
939.44763	60.0
940.45923	20.0
953.46277	30.0
1067.51062	10.0
1071.48462	240.0
1072.48828	70.0
1073.48376	10.0
1085.49976	190.0
1086.50232	50.0
1087.50269	10.0
1217.5437	1000.0
1218.54797	420.0
1219.55127	70.0

NAME:  NCGC00347404-02_C15H20O8_4-Acetyl-3-hydroxy-5-methylphenyl beta-D-glucopyranoside
PRECURSORMZ:  373.11402015183
PRECURSORTYPE:  [M+FA-H]-
FORMULA:  C15H20O8
Ontology: Kingdom: Organic compounds;Superclass: Organic oxygen compounds;Class: Organooxygen compounds;Subclass: Carbohydrates and carbohydrate conjugates
INCHIKEY:  CFJLERBDXYGARW-UHFFFAOYNA-N
SMILES:  CC(=O)C1=C(O)C=C(OC2OC(CO)C(O)C(O)C2O)C=C1C
RETENTIONTIME:  
CCS:  -1
IONMODE:  Negative
INSTRUMENTTYPE:  
INSTRUMENT:  Maxis II HD Q-TOF Bruker
COLLISIONENERGY:  
Comment:  DB#=CCMSLIB00000850088; origin=GNPS
Num Peaks:  10
85.32513	10.0
98.80988	10.0
100.19494	20.0
113.02206	10.0
121.06764	60.0
123.04986	50.0
165.05656	1000.0
166.0661	10.0
167.04771	20.0
327.10684	150.0

NAME:  Pesticide4_Doramectin_C50H74O14_Dectomax
PRECURSORMZ:  897.50058061083
PRECURSORTYPE:  [M-H]-
FORMULA:  C50H74O14
Ontology: Kingdom: Organic compounds;Superclass: Phenylpropanoids and polyketides;Class: Macrolides and analogues;
INCHIKEY:  QLFZZSKTJWDQOS-UHFFFAOYNA-N
SMILES:  COC1CC(OC2C(C)OC(CC2OC)OC2C(C)C=CC=C3COC4C(O)C(C)=CC(C(=O)OC5CC(CC=C2C)OC2(C5)OC(C5CCCCC5)C(C)C=C2)C34O)OC(C)C1O
RETENTIONTIME:  
CCS:  306.0131696
IONMODE:  Negative
INSTRUMENTTYPE:  
INSTRUMENT:  Q-Exactive Plus Orbitrap Res 70k
COLLISIONENERGY:  
Comment:  DB#=CCMSLIB00001058406; origin=GNPS
Num Peaks:  42
81.03414	160.0
83.0497	180.0
84.02119	630.0
85.02897	770.0
93.03423	40.0
97.02915	40.0
97.06564	300.0
107.05013	50.0
109.02939	660.0
110.03738	20.0
111.04516	60.0
121.02958	10.0
122.03736	10.0
123.04515	30.0
123.08173	10.0
125.06102	60.0
135.04527	80.0
137.06108	10.0
149.09702	10.0
153.05569	50.0
171.0817	10.0
173.06088	10.0
185.06108	10.0
197.09749	40.0
211.11285	10.0
214.0639	10.0
223.07729	30.0
227.07191	10.0
229.10806	1000.0
255.1241	10.0
301.15964	10.0
317.15622	20.0
345.15057	30.0
443.22217	80.0
481.2963	10.0
537.30396	30.0
555.31036	70.0
591.33502	110.0
861.47717	20.0
879.49109	20.0
909.37579	10.0
925.13275	10.0

NAME:  NCGC00180417-03_C31H40O16_(1aS,1bS,2S,5aR,6S,6aS)-6-({6-Deoxy-4-O-[(2E)-3-(4-methoxyphenyl)-2-propenoyl]-alpha-L-mannopyranosyl}oxy)-1a-(hydroxymethyl)-1a,1b,2,5a,6,6a-hexahydrooxireno[4,5]cyclopenta[1,2-c]pyran-2-yl beta-D-glucopyranoside
PRECURSORMZ:  713.22983775583
PRECURSORTYPE:  [M+FA-H]-
FORMULA:  C31H40O16
Ontology: Kingdom: Organic compounds;Superclass: Phenylpropanoids and polyketides;Class: Cinnamic acids and derivatives;Subclass: Cinnamic acid esters
INCHIKEY:  RTCISXKUWWQSRF-UHFFFAOYNA-N
SMILES:  COC1=CC=C(C=CC(=O)OC2C(C)OC(OC3C4OC4(CO)C4C3C=COC4OC3OC(CO)C(O)C(O)C3O)C(O)C2O)C=C1
RETENTIONTIME:  
CCS:  -1
IONMODE:  Negative
INSTRUMENTTYPE:  
INSTRUMENT:  Maxis II HD Q-TOF Bruker
COLLISIONENERGY:  
Comment:  DB#=CCMSLIB00000850964; origin=GNPS
Num Peaks:  29
85.02938	10.0
107.04878	10.0
113.02328	30.0
117.03516	10.0
119.04908	100.0
121.02884	10.0
123.0442	30.0
125.01955	10.0
133.06541	20.0
135.0446	60.0
145.02809	30.0
151.03941	240.0
163.03943	150.0
176.04533	10.0
177.05518	1000.0
178.05728	20.0
179.05624	30.0
180.04382	10.0
181.0498	100.0
191.07137	50.0
217.04877	10.0
219.06799	40.0
271.10101	10.0
327.10577	20.0
391.13998	110.0
431.1373	10.0
475.15976	30.0
505.17746	20.0
667.22302	20.0

NAME:  NCGC00380836-01_C19H22O6_(1R,2R,4S,5R,8R,9S,10R,11S,12S)-4,12-Dihydroxy-11-methyl-6-methylene-16-oxo-15-oxapentacyclo[9.3.2.1~5,8~.0~1,10~.0~2,8~]heptadec-13-ene-9-carboxylic acid
PRECURSORMZ:  345.13436197583
PRECURSORTYPE:  [M-H]-
FORMULA:  C19H22O6
Ontology: Kingdom: Organic compounds;Superclass: Lipids and lipid;Class: Prenol lipids;Subclass: Diterpenoids
INCHIKEY:  XRIRDTGIFOWQDB-UHFFFAOYNA-N
SMILES:  [H]C12CC3(CC1=C)C(CC2O)C12OC(=O)C(C)(C1C3C(O)=O)C(O)C=C2
RETENTIONTIME:  
CCS:  181.942711
IONMODE:  Negative
INSTRUMENTTYPE:  
INSTRUMENT:  Maxis II HD Q-TOF Bruker
COLLISIONENERGY:  
Comment:  DB#=CCMSLIB00000851226; origin=GNPS
Num Peaks:  24
121.15853	40.0
133.06227	80.0
142.09	60.0
171.07855	110.0
173.09877	80.0
184.09232	40.0
185.09413	80.0
187.07507	40.0
193.10602	40.0
195.11749	160.0
198.0719	130.0
224.121	50.0
227.11194	40.0
235.10974	90.0
239.14561	1000.0
257.15228	50.0
271.09445	60.0
273.12292	20.0
283.12906	50.0
301.13937	80.0
344.41083	20.0
345.13666	640.0
345.51233	20.0
348.78882	40.0

NAME:  NCGC00169850-02_C24H30O12_2H-Pyran-4-acetic acid, 5-carboxy-3-ethylidene-2-(beta-D-glucopyranosyloxy)-3,4-dihydro-, alpha-[2-(4-hydroxyphenyl)ethyl] ester, (2S,3Z,4S)-
PRECURSORMZ:  555.17192895383
PRECURSORTYPE:  [M+FA-H]-
FORMULA:  C24H30O12
Ontology: Kingdom: Organic compounds;Superclass: Lipids and lipid;Class: Prenol lipids;Subclass: Terpene glycosides
INCHIKEY:  BSUNYCAAALCBNU-UHFFFAOYNA-N
SMILES:  CC=C1C(OC2OC(CO)C(O)C(O)C2O)OC=C(C1CC(=O)OCCC1=CC=C(O)C=C1)C(O)=O
RETENTIONTIME:  
CCS:  -1
IONMODE:  Negative
INSTRUMENTTYPE:  
INSTRUMENT:  Maxis II HD Q-TOF Bruker
COLLISIONENERGY:  
Comment:  DB#=CCMSLIB00000850067; origin=GNPS
Num Peaks:  52
71.01382	20.0
85.02861	10.0
89.02322	20.0
95.04715	10.0
101.02266	40.0
104.41032	10.0
105.66673	10.0
113.02004	70.0
118.00726	10.0
119.03589	10.0
120.71931	10.0
121.02859	20.0
121.06326	140.0
123.0501	20.0
131.03276	30.0
135.08188	20.0
136.09604	10.0
137.05975	160.0
139.00108	70.0
139.07529	60.0
143.03055	30.0
147.04233	90.0
149.05888	10.0
155.06372	20.0
161.04332	30.0
165.05481	980.0
165.5602	30.0
176.37622	10.0
179.05711	190.0
179.1075	20.0
180.05606	10.0
181.01587	10.0
183.06404	400.0
184.90598	10.0
191.03432	170.0
194.0304	20.0
205.04849	20.0
209.04521	250.0
233.04962	20.0
233.07875	250.0
254.79254	30.0
259.09677	60.0
277.06851	520.0
285.1123	350.0
303.12238	140.0
323.1543	20.0
329.09674	180.0
345.11356	10.0
347.11328	820.0
371.09244	50.0
389.10349	310.0
509.16806	1000.0

NAME:  NCGC00385699-01_C66H106O32_6-Deoxy-alpha-L-mannopyranosyl-(1->4)-6-deoxy-alpha-L-mannopyranosyl-(1->2)-1-O-[(3beta,5xi,9xi)-3-{[6-deoxy-alpha-L-mannopyranosyl-(1->3)-beta-D-glucopyranosyl-(1->2)-beta-D-glucopyranuronosyl]oxy}-24-hydroxy-28-oxoolean-12-en-28-yl]-beta-D-glucopyranose
PRECURSORMZ:  1409.65944480083
PRECURSORTYPE:  [M-H]-
FORMULA:  C66H106O32
Ontology: Kingdom: Organic compounds;Superclass: Lipids and lipid;Class: Prenol lipids;Subclass: Terpene glycosides
INCHIKEY:  YFTXKZMMMCWVPM-UHFFFAOYNA-N
SMILES:  CC1OC(OC2C(C)OC(OC3C(O)C(O)C(CO)OC3OC(=O)C34CCC(C)(C)CC3C3=CCC5C6(C)CCC(OC7OC(C(O)C(O)C7OC7OC(CO)C(O)C(OC8OC(C)C(O)C(O)C8O)C7O)C(O)=O)C(C)(CO)C6CCC5(C)C3(C)CC4)C(O)C2O)C(O)C(O)C1O
RETENTIONTIME:  
CCS:  -1
IONMODE:  Negative
INSTRUMENTTYPE:  
INSTRUMENT:  Maxis II HD Q-TOF Bruker
COLLISIONENERGY:  
Comment:  DB#=CCMSLIB00000850319; origin=GNPS
Num Peaks:  48
85.03006	30.0
95.01459	10.0
99.00931	40.0
101.02482	40.0
103.04041	20.0
113.0248	190.0
127.04223	20.0
139.00438	10.0
143.03638	30.0
157.01402	30.0
161.04611	40.0
163.06192	10.0
205.07292	10.0
247.08366	10.0
351.12881	30.0
373.24094	60.0
423.32767	10.0
439.32315	20.0
469.33389	10.0
471.34967	110.0
472.35239	10.0
513.36292	20.0
519.29852	380.0
520.30109	90.0
521.30212	10.0
539.37628	50.0
553.3537	40.0
567.37091	30.0
585.3819	150.0
586.38379	30.0
603.39386	50.0
629.37085	170.0
630.37793	30.0
681.35248	750.0
682.35413	250.0
683.35742	40.0
727.36053	20.0
728.35773	10.0
729.42645	30.0
730.42816	10.0
747.43353	40.0
955.48987	110.0
956.49524	30.0
1083.53748	20.0
1409.65796	1000.0
1410.66467	570.0
1411.6676	170.0
1412.66638	30.0

NAME:  Pesticide3_Novaluron_C17H9ClF8N2O4_N-({3-Chloro-4-[1,1,2-trifluoro-2-(trifluoromethoxy)ethoxy]phenyl}carbamoyl)-2,6-difluorobenzamide
PRECURSORMZ:  526.9817110599
PRECURSORTYPE:  [M+Cl]-
FORMULA:  C17H9ClF8N2O4
Ontology: Kingdom: Organic compounds;Superclass: Benzenoids;Class: Phenol ethers;
INCHIKEY:  NJPPVKZQTLUDBO-UHFFFAOYNA-N
SMILES:  OC(N=C(O)C1=C(F)C=CC=C1F)=NC1=CC(Cl)=C(OC(F)(F)C(F)OC(F)(F)F)C=C1
RETENTIONTIME:  
CCS:  -1
IONMODE:  Negative
INSTRUMENTTYPE:  
INSTRUMENT:  Q-Exactive Plus Orbitrap Res 70k
COLLISIONENERGY:  
Comment:  DB#=CCMSLIB00001058282; origin=GNPS
Num Peaks:  24
84.99052	640.0
93.01442	30.0
113.02115	160.0
140.99886	30.0
156.02721	140.0
162.98274	120.0
165.99411	50.0
167.98616	50.0
186.92992	20.0
254.91737	30.0
260.01587	10.0
260.99997	20.0
269.03717	10.0
305.01456	610.0
307.9921	80.0
322.90543	10.0
332.98749	140.0
386.98877	20.0
446.98804	10.0
447.00821	10.0
450.99252	20.0
471.00058	1000.0
486.98236	20.0
491.00568	110.0

NAME:  NCGC00381051-01_C29H39NO8_2-(4-Hydroxy-6-methoxy-1-oxo-5-{[(2E,6Z)-3,7,11-trimethyl-2,6,10-dodecatrien-1-yl]oxy}-1,3-dihydro-2H-isoindol-2-yl)pentanedioic acid
PRECURSORMZ:  528.26029076783
PRECURSORTYPE:  [M-H]-
FORMULA:  C29H39NO8
Ontology: Kingdom: Organic compounds;Superclass: Organic acids and derivatives;Class: Carboxylic acids and derivatives;Subclass: Amino acids
INCHIKEY:  XVPVYSHSGBUSAR-UHFFFAOYNA-N
SMILES:  COC1=C(OCC=C(C)CCC=C(C)CCC=C(C)C)C(O)=C2CN(C(CCC(O)=O)C(O)=O)C(=O)C2=C1
RETENTIONTIME:  
CCS:  -1
IONMODE:  Negative
INSTRUMENTTYPE:  
INSTRUMENT:  Maxis II HD Q-TOF Bruker
COLLISIONENERGY:  
Comment:  DB#=CCMSLIB00000849704; origin=GNPS
Num Peaks:  26
161.64752	10.0
177.00803	20.0
178.01657	20.0
191.0258	30.0
192.03044	260.0
205.04135	60.0
206.04637	50.0
207.05188	70.0
208.06209	30.0
219.76146	10.0
220.06079	650.0
221.06786	20.0
235.08403	200.0
239.0817	60.0
249.06618	40.0
252.05974	10.0
266.0592	10.0
267.07455	230.0
278.02649	20.0
279.07492	1000.0
280.0816	10.0
311.06497	180.0
324.06531	20.0
408.25702	10.0
452.23978	10.0
528.2594	50.0

NAME:  NCGC00347400-02_C30H42O12_1,7-Bis(4-hydroxyphenyl)-3-heptanyl 2-O-[(2S,3R,4R)-3,4-dihydroxy-4-(hydroxymethyl)tetrahydro-2-furanyl]-beta-D-glucopyranoside
PRECURSORMZ:  639.26582933983
PRECURSORTYPE:  [M+FA-H]-
FORMULA:  C30H42O12
Ontology: Kingdom: Organic compounds;Superclass: Phenylpropanoids and polyketides;Class: Diarylheptanoids;Subclass: Linear diarylheptanoids
INCHIKEY:  GFFOBQNFESRPJR-UHFFFAOYNA-N
SMILES:  OCC1OC(OC(CCCCC2=CC=C(O)C=C2)CCC2=CC=C(O)C=C2)C(OC2OCC(O)(CO)C2O)C(O)C1O
RETENTIONTIME:  
CCS:  -1
IONMODE:  Negative
INSTRUMENTTYPE:  
INSTRUMENT:  Maxis II HD Q-TOF Bruker
COLLISIONENERGY:  
Comment:  DB#=CCMSLIB00000849641; origin=GNPS
Num Peaks:  7
101.02264	20.0
299.1644	290.0
413.19357	10.0
443.20645	120.0
461.21762	420.0
593.26056	1000.0
594.27008	20.0

NAME:  NCGC00380628-01_C22H28O6_(4E,8E)-10-(4-Hydroxy-6-methoxy-7-methyl-3-oxo-1,3-dihydro-2-benzofuran-5-yl)-4,8-dimethyl-4,8-decadienoic acid
PRECURSORMZ:  387.18131216983
PRECURSORTYPE:  [M-H]-
FORMULA:  C22H28O6
Ontology: Kingdom: Organic compounds;Superclass: Lipids and lipid;Class: Prenol lipids;Subclass: Terpene lactones
INCHIKEY:  NEGCNVRPGPHOAR-UHFFFAOYSA-N
SMILES:  COC1=C(C)C2=C(C(=O)OC2)C(O)=C1CC=C(C)CCC=C(C)CCC(O)=O
RETENTIONTIME:  
CCS:  -1
IONMODE:  Negative
INSTRUMENTTYPE:  
INSTRUMENT:  Maxis II HD Q-TOF Bruker
COLLISIONENERGY:  
Comment:  DB#=CCMSLIB00000850460; origin=GNPS
Num Peaks:  34
75.17466	10.0
75.88955	10.0
142.68843	20.0
148.86819	10.0
149.06236	20.0
171.08031	10.0
187.08389	70.0
191.03493	160.0
198.03015	10.0
201.09032	40.0
203.03654	150.0
204.04608	10.0
205.0463	30.0
214.09846	10.0
216.0755	20.0
217.09276	30.0
221.53827	10.0
229.08809	20.0
232.03622	10.0
232.07831	20.0
245.08287	80.0
246.08876	30.0
259.09741	20.0
269.16333	40.0
313.14618	20.0
328.17184	10.0
343.18994	50.0
355.15109	220.0
355.254	10.0
360.1456	10.0
369.16708	20.0
386.90988	30.0
387.18222	1000.0
388.17587	10.0

NAME:  myricetin-3-O-hexosyl(1-2)deoxyhexoside
PRECURSORMZ:  625.14102305383
PRECURSORTYPE:  [M-H]-
FORMULA:  C27H30O17
Ontology: Kingdom: Organic compounds;Superclass: Phenylpropanoids and polyketides;Class: Flavonoids;Subclass: Flavonoid glycosides
INCHIKEY:  LUITYVJNCILVDI-UHFFFAOYNA-N
SMILES:  CC1OC(OC2C(O)C(O)C(CO)OC2OC2=C(OC3=CC(O)=CC(O)=C3C2=O)C2=CC(O)=C(O)C(O)=C2)C(O)C(O)C1O
RETENTIONTIME:  
CCS:  241.6107397
IONMODE:  Negative
INSTRUMENTTYPE:  
INSTRUMENT:  qTof
COLLISIONENERGY:  
Comment:  DB#=CCMSLIB00004678839; origin=GNPS
Num Peaks:  13
151.005	10.0
178.9986	20.0
271.02408	30.0
287.02173	20.0
288.02765	10.0
316.02328	1000.0
316.23444	10.0
317.0285	250.0
318.03238	30.0
479.08472	210.0
480.08765	50.0
625.11755	50.0
626.1189	20.0

NAME:  NCGC00381006-01_C20H26O10_2-(beta-D-Glucopyranosyloxy)benzyl 1,6-dihydroxy-2-cyclohexene-1-carboxylate
PRECURSORMZ:  471.15079958483
PRECURSORTYPE:  [M+FA-H]-
FORMULA:  C20H26O10
Ontology: Kingdom: Organic compounds;Superclass: Organic oxygen compounds;Class: Organooxygen compounds;Subclass: Carbohydrates and carbohydrate conjugates
INCHIKEY:  JHAXQRDTTACRKJ-UHFFFAOYNA-N
SMILES:  OCC1OC(OC2=CC=CC=C2COC(=O)C2(O)C=CCCC2O)C(O)C(O)C1O
RETENTIONTIME:  
CCS:  -1
IONMODE:  Negative
INSTRUMENTTYPE:  
INSTRUMENT:  Maxis II HD Q-TOF Bruker
COLLISIONENERGY:  
Comment:  DB#=CCMSLIB00000851271; origin=GNPS
Num Peaks:  4
121.02927	40.0
123.04482	210.0
157.05042	1000.0
285.0976	80.0

NAME:  NCGC00380481-01_C23H28O13S_
PRECURSORMZ:  543.11778568383
PRECURSORTYPE:  [M-H]-
FORMULA:  C23H28O13S
Ontology: Kingdom: Organic compounds;Superclass: Lipids and lipid;Class: Prenol lipids;Subclass: Terpene glycosides
INCHIKEY:  MZHPYFUVDWYNQP-UHFFFAOYNA-N
SMILES:  [H]C12OC3(C)CC(O1)(C1CC3(OC3OC(CO)C(O)C(O)C3O)C21COC(=O)C1=CC=CC=C1)[S+](O)([O-])=O
RETENTIONTIME:  
CCS:  -1
IONMODE:  Negative
INSTRUMENTTYPE:  
INSTRUMENT:  Maxis II HD Q-TOF Bruker
COLLISIONENERGY:  
Comment:  DB#=CCMSLIB00000849968; origin=GNPS
Num Peaks:  7
121.02866	50.0
213.02335	10.0
259.0274	30.0
375.07718	10.0
421.08121	20.0
543.11871	1000.0
544.12225	10.0

NAME:  NCGC00380920-01_C38H58O13_
PRECURSORMZ:  767.38594447583
PRECURSORTYPE:  [M+FA-H]-
FORMULA:  C38H58O13
Ontology: Kingdom: Organic compounds;Superclass: Lipids and lipid;Class: Prenol lipids;Subclass: Triterpenoids
INCHIKEY:  LEQXEFGUWIFCPS-UHFFFAOYNA-N
SMILES:  CC(=O)OC1C(O)CC2(C)C(CCC3(C)C2CC=C2C4C(C)(O)C5(COC6OC(CO)C(O)C(O)C6O)CCC4(C(O)CC32C)C(=O)O5)C1(C)C
RETENTIONTIME:  
CCS:  -1
IONMODE:  Negative
INSTRUMENTTYPE:  
INSTRUMENT:  Maxis II HD Q-TOF Bruker
COLLISIONENERGY:  
Comment:  DB#=CCMSLIB00000850499; origin=GNPS
Num Peaks:  26
71.01543	50.0
85.03415	20.0
88.10967	10.0
89.0252	50.0
95.0133	40.0
101.02598	150.0
113.02307	180.0
119.03527	120.0
131.02824	10.0
143.03484	120.0
149.05035	20.0
159.02942	50.0
161.04666	260.0
179.05658	240.0
197.13136	10.0
247.08464	10.0
479.32309	20.0
497.32156	60.0
515.33557	20.0
541.31726	10.0
559.34186	30.0
677.33887	10.0
677.38989	100.0
721.38141	1000.0
721.53503	10.0
722.38446	160.0

NAME:  NCGC00380438-01_C30H36O14_
PRECURSORMZ:  665.20870838683
PRECURSORTYPE:  [M+FA-H]-
FORMULA:  C30H36O14
Ontology: Kingdom: Organic compounds;Superclass: Lipids and lipid;Class: Prenol lipids;Subclass: Terpene glycosides
INCHIKEY:  IMVOEOLJLDDJRP-UHFFFAOYNA-N
SMILES:  CC1OC(OC23C=COC(OC4OC(CO)C(O)C(O)C4O)C2C(C)=CC3=O)C(O)C(OC(=O)C=CC2=CC=CC=C2)C1O
RETENTIONTIME:  
CCS:  -1
IONMODE:  Negative
INSTRUMENTTYPE:  
INSTRUMENT:  Maxis II HD Q-TOF Bruker
COLLISIONENERGY:  
Comment:  DB#=CCMSLIB00000850925; origin=GNPS
Num Peaks:  21
89.02294	20.0
101.02657	10.0
113.02597	20.0
119.04152	40.0
135.04494	90.0
143.04279	10.0
147.04465	130.0
149.06598	10.0
158.03456	10.0
159.04349	70.0
161.06125	70.0
163.03848	1000.0
177.05392	70.0
179.0576	110.0
187.03958	70.0
189.05461	40.0
205.05043	110.0
217.0509	10.0
235.06	20.0
291.08609	10.0
473.13818	10.0

NAME:  NCGC00380366-01_C19H26O12_4-Acetyl-2-hydroxyphenyl 2-O-beta-D-fructofuranosyl-beta-D-xylopyranoside
PRECURSORMZ:  491.14062882483
PRECURSORTYPE:  [M+FA-H]-
FORMULA:  C19H26O12
Ontology: Kingdom: Organic compounds;Superclass: Organic oxygen compounds;Class: Organooxygen compounds;Subclass: Carbohydrates and carbohydrate conjugates
INCHIKEY:  YOBMRYYTHXIXSD-UHFFFAOYNA-N
SMILES:  CC(=O)C1=CC(O)=C(OC2OCC(O)C(O)C2OC2(CO)OC(CO)C(O)C2O)C=C1
RETENTIONTIME:  
CCS:  -1
IONMODE:  Negative
INSTRUMENTTYPE:  
INSTRUMENT:  Maxis II HD Q-TOF Bruker
COLLISIONENERGY:  
Comment:  DB#=CCMSLIB00000849657; origin=GNPS
Num Peaks:  2
151.03905	1000.0
445.13623	100.0

NAME:  NCGC00380349-01_C25H30O13_Cyclopenta[c]pyran-4-carboxylic acid, 6-(acetyloxy)-5-(benzoyloxy)-1-(hexopyranosyloxy)-1,4a,5,6,7,7a-hexahydro-7-methyl-
PRECURSORMZ:  537.16136457383
PRECURSORTYPE:  [M-H]-
FORMULA:  C25H30O13
Ontology: Kingdom: Organic compounds;Superclass: Lipids and lipid;Class: Prenol lipids;Subclass: Terpene glycosides
INCHIKEY:  IRSUXHBCTWMHAK-UHFFFAOYNA-N
SMILES:  CC1C(OC(C)=O)C(OC(=O)C2=CC=CC=C2)C2C1C(OC1OC(CO)C(O)C(O)C1O)OC=C2C(O)=O
RETENTIONTIME:  
CCS:  -1
IONMODE:  Negative
INSTRUMENTTYPE:  
INSTRUMENT:  Maxis II HD Q-TOF Bruker
COLLISIONENERGY:  
Comment:  DB#=CCMSLIB00000850358; origin=GNPS
Num Peaks:  13
121.02872	1000.0
121.16016	50.0
123.00739	70.0
131.04886	340.0
143.0359	50.0
148.05292	70.0
149.03639	20.0
149.05933	310.0
149.13806	40.0
175.03798	290.0
180.61192	70.0
191.06982	70.0
253.07347	250.0

NAME:  NCGC00381271-01_C18H24O4_7-Butyl-6,8-dihydroxy-3-[(3E)-3-penten-1-yl]-3,4-dihydro-1H-isochromen-1-one
PRECURSORMZ:  303.16018280083
PRECURSORTYPE:  [M-H]-
FORMULA:  C18H24O4
Ontology: Kingdom: Organic compounds;Superclass: Benzenoids;Class: Benzene and substituted derivatives;Subclass: Benzoic acids and derivatives
INCHIKEY:  RNIKQZXKWIZFHL-UHFFFAOYNA-N
SMILES:  CCCCC1=C(O)C=C2CC(CCC=CC)OC(=O)C2=C1O
RETENTIONTIME:  
CCS:  178.8162217
IONMODE:  Negative
INSTRUMENTTYPE:  
INSTRUMENT:  Maxis II HD Q-TOF Bruker
COLLISIONENERGY:  
Comment:  DB#=CCMSLIB00000850564; origin=GNPS
Num Peaks:  18
131.04631	90.0
145.95062	50.0
159.0481	60.0
161.05956	150.0
161.09583	40.0
163.10446	40.0
179.10904	30.0
187.08138	20.0
189.09016	60.0
204.44589	20.0
216.07558	40.0
219.06686	30.0
219.097	40.0
302.92789	20.0
303.02499	20.0
303.16016	1000.0
304.1611	30.0
1878.94714	30.0

NAME:  NCGC00380498-01_C48H76O18_(3beta,5xi,9xi,22beta)-22-Hydroxyolean-12-en-3-yl 6-deoxy-alpha-L-mannopyranosyl-(1->2)-beta-D-galactopyranuronosyl-(1->2)-beta-D-glucopyranosiduronic acid
PRECURSORMZ:  939.49588915483
PRECURSORTYPE:  [M-H]-
FORMULA:  C48H76O18
Ontology: Kingdom: Organic compounds;Superclass: Lipids and lipid;Class: Prenol lipids;Subclass: Terpene glycosides
INCHIKEY:  VVWSVSOPOPDXMM-UHFFFAOYNA-N
SMILES:  CC1OC(OC2C(O)C(O)C(OC2OC2C(O)C(O)C(OC2OC2CCC3(C)C(CCC4(C)C3CC=C3C5CC(C)(C)CC(O)C5(C)CCC43C)C2(C)C)C(O)=O)C(O)=O)C(O)C(O)C1O
RETENTIONTIME:  
CCS:  -1
IONMODE:  Negative
INSTRUMENTTYPE:  
INSTRUMENT:  Maxis II HD Q-TOF Bruker
COLLISIONENERGY:  
Comment:  DB#=CCMSLIB00000849315; origin=GNPS
Num Peaks:  16
85.0299	20.0
113.02443	90.0
131.03514	10.0
175.02501	10.0
233.0658	10.0
259.08334	20.0
321.08279	50.0
339.09396	60.0
435.11731	20.0
497.11542	320.0
498.12433	20.0
617.40088	10.0
877.49811	20.0
939.49652	1000.0
940.4989	250.0
941.50397	10.0

NAME:  NCGC00380812-02_C23H22N4O5_1H-Imidazo[1,2-a]indole-9-propanoic acid, 2,3,9,9a-tetrahydro-9-hydroxy-2,2-dimethyl-3-oxo-alpha-(4-oxo-3(4H)-quinazolinyl)-
PRECURSORMZ:  433.15174337183
PRECURSORTYPE:  [M-H]-
FORMULA:  C23H22N4O5
Ontology: Kingdom: Organic compounds;Superclass: Organoheterocyclic compounds;Class: Diazanaphthalenes;Subclass: Benzodiazines
INCHIKEY:  BMFPATPGMGPSGR-UHFFFAOYNA-N
SMILES:  CC1(C)NC2N(C1=O)C1=CC=CC=C1C2(O)CC(N1C=NC2=CC=CC=C2C1=O)C(O)=O
RETENTIONTIME:  
CCS:  211.7592653
IONMODE:  Negative
INSTRUMENTTYPE:  
INSTRUMENT:  Maxis II HD Q-TOF Bruker
COLLISIONENERGY:  
Comment:  DB#=CCMSLIB00000850421; origin=GNPS
Num Peaks:  13
142.06694	10.0
143.06087	10.0
145.04146	1000.0
147.05669	10.0
199.12411	50.0
242.10016	10.0
243.11371	240.0
286.09305	10.0
288.1333	10.0
389.16098	230.0
389.22931	10.0
433.14807	80.0
433.1868	20.0

NAME:  NCGC00380242-01_C30H42O9_Card-20(22)-enolide, 1,3-bis(acetyloxy)-14,15-epoxy-7,21-dihydroxy-4,4,8-trimethyl-, (1alpha,3alpha,7alpha,9xi,13alpha,15beta,17alpha)-
PRECURSORMZ:  591.28108547983
PRECURSORTYPE:  [M+FA-H]-
FORMULA:  C30H42O9
Ontology: Kingdom: Organic compounds;Superclass: Lipids and lipid;Class: Prenol lipids;Subclass: Triterpenoids
INCHIKEY:  VODAHSRZQBCHLA-UHFFFAOYNA-N
SMILES:  CC(=O)OC1CC(OC(C)=O)C2(C)C3CCC4(C)C(CC5OC45C3(C)C(O)CC2C1(C)C)C1=CC(=O)OC1O
RETENTIONTIME:  
CCS:  -1
IONMODE:  Negative
INSTRUMENTTYPE:  
INSTRUMENT:  Maxis II HD Q-TOF Bruker
COLLISIONENERGY:  
Comment:  DB#=CCMSLIB00000849250; origin=GNPS
Num Peaks:  13
137.05939	20.0
181.12532	10.0
283.16794	20.0
301.18027	10.0
335.22202	10.0
389.26892	20.0
399.25269	70.0
417.26443	370.0
441.26486	10.0
459.27475	280.0
483.27371	20.0
503.267	20.0
545.27698	1000.0

NAME:  Pesticide4_Doramectin_C50H74O14_Dectomax
PRECURSORMZ:  943.50605961083
PRECURSORTYPE:  [M+FA-H]-
FORMULA:  C50H74O14
Ontology: Kingdom: Organic compounds;Superclass: Phenylpropanoids and polyketides;Class: Macrolides and analogues;
INCHIKEY:  QLFZZSKTJWDQOS-UHFFFAOYNA-N
SMILES:  COC1CC(OC2C(C)OC(CC2OC)OC2C(C)C=CC=C3COC4C(O)C(C)=CC(C(=O)OC5CC(CC=C2C)OC2(C5)OC(C5CCCCC5)C(C)C=C2)C34O)OC(C)C1O
RETENTIONTIME:  
CCS:  -1
IONMODE:  Negative
INSTRUMENTTYPE:  
INSTRUMENT:  Q-Exactive Plus Orbitrap Res 70k
COLLISIONENERGY:  
Comment:  DB#=CCMSLIB00001058411; origin=GNPS
Num Peaks:  29
81.03419	50.0
83.0499	80.0
84.02139	430.0
85.02918	460.0
93.03445	20.0
97.02938	50.0
97.0659	160.0
107.05039	30.0
109.02969	130.0
109.06615	30.0
111.04546	40.0
123.04548	30.0
125.06099	40.0
135.04541	60.0
137.06108	20.0
149.09746	10.0
153.05605	50.0
171.0817	10.0
185.06108	10.0
197.09749	10.0
229.10812	1000.0
229.11476	10.0
345.15057	10.0
443.22293	70.0
537.30103	20.0
555.31073	70.0
591.3316	20.0
861.47717	10.0
879.49109	10.0

NAME:  NCGC00179912-02_C45H73NO15_beta-D-Glucopyranoside, spirosol-5-en-3-yl O-6-deoxy-alpha-L-mannopyranosyl-(1->2)-O-[6-deoxy-alpha-L-mannopyranosyl-(1->4)]-
PRECURSORMZ:  912.49622320283
PRECURSORTYPE:  [M+FA-H]-
FORMULA:  C45H73NO15
Ontology: Kingdom: Organic compounds;Superclass: Lipids and lipid;Class: Steroids and steroid derivatives;Subclass: Steroidal glycosides
INCHIKEY:  MBWUSSKCCUMJHO-UHFFFAOYNA-N
SMILES:  CC1C2C(CC3C4CC=C5CC(CCC5(C)C4CCC23C)OC2OC(CO)C(OC3OC(C)C(O)C(O)C3O)C(O)C2OC2OC(C)C(O)C(O)C2O)OC11CCC(C)CN1
RETENTIONTIME:  
CCS:  -1
IONMODE:  Negative
INSTRUMENTTYPE:  
INSTRUMENT:  Maxis II HD Q-TOF Bruker
COLLISIONENERGY:  
Comment:  DB#=CCMSLIB00000850070; origin=GNPS
Num Peaks:  27
85.02859	30.0
89.02361	40.0
97.02826	10.0
101.02264	70.0
103.04073	10.0
113.02352	80.0
115.03915	20.0
119.03358	70.0
125.02249	20.0
131.03436	40.0
143.03375	90.0
145.04881	20.0
149.04474	10.0
161.04401	40.0
163.05998	90.0
179.05577	30.0
205.07083	90.0
247.08217	30.0
289.09097	30.0
508.34457	10.0
574.37305	20.0
575.38342	10.0
720.43475	370.0
721.43939	120.0
866.49219	1000.0
867.49872	390.0
868.50189	20.0

NAME:  NCGC00380550-01_C24H40O5_4-{[5-(6-Hydroxy-5,5,8a-trimethyl-2-methylenedecahydro-1-naphthalenyl)-3-methylpentyl]oxy}-4-oxobutanoic acid
PRECURSORMZ:  453.28577693583
PRECURSORTYPE:  [M+FA-H]-
FORMULA:  C24H40O5
Ontology: Kingdom: Organic compounds;Superclass: Lipids and lipid;Class: Prenol lipids;Subclass: Diterpenoids
INCHIKEY:  PEFFBGFCZXFQSX-UHFFFAOYNA-N
SMILES:  CC(CCOC(=O)CCC(O)=O)CCC1C(=C)CCC2C(C)(C)C(O)CCC12C
RETENTIONTIME:  
CCS:  -1
IONMODE:  Negative
INSTRUMENTTYPE:  
INSTRUMENT:  Maxis II HD Q-TOF Bruker
COLLISIONENERGY:  
Comment:  DB#=CCMSLIB00000850973; origin=GNPS
Num Peaks:  7
73.69433	10.0
73.83263	10.0
99.00848	70.0
225.97798	10.0
227.01651	20.0
407.28137	1000.0
783.08594	20.0

NAME:  NCGC00180503-03_C28H37NO8_Pentanedioic acid, 2-[(2R,2'R,6'R,8a'S)-3',4',4'a,5',6,6',7',8,8',8'a-decahydro-4,6'-dihydroxy-2',5',5',8'a-tetramethyl-6-oxospiro[2H-furo[2,3-e]isoindole-2,1'(2'H)-naphthalen]-7(3H)-yl]-, (2S)-
PRECURSORMZ:  514.24464070283
PRECURSORTYPE:  [M-H]-
FORMULA:  C28H37NO8
Ontology: Kingdom: Organic compounds;Superclass: Organic acids and derivatives;Class: Carboxylic acids and derivatives;Subclass: Amino acids
INCHIKEY:  QZGOQORSUIQVIR-UHFFFAOYNA-N
SMILES:  CC1CCC2C(C)(C)C(O)CCC2(C)C11CC2=C(O)C=C3C(=O)N(CC3=C2O1)C(CCC(O)=O)C(O)=O
RETENTIONTIME:  
CCS:  224.8575656
IONMODE:  Negative
INSTRUMENTTYPE:  
INSTRUMENT:  Maxis II HD Q-TOF Bruker
COLLISIONENERGY:  
Comment:  DB#=CCMSLIB00000849482; origin=GNPS
Num Peaks:  10
175.02579	10.0
217.07614	20.0
245.07095	10.0
384.21585	40.0
410.2301	20.0
426.27457	20.0
452.24646	80.0
470.25497	390.0
496.24149	20.0
514.24536	1000.0

NAME:  NCGC00380124-01_C38H63NO10_Hexopyranoside, 1-[6-[dodecahydro-5-hydroxy-3-(1-hydroxy-1-methylethyl)-6a,9b-dimethylindeno[5,4-b]pyran-7-yl]-3,4,4a,7,8,8a-hexahydro-4a-methyl-2H-1-benzopyran-2-yl]-1-methylethyl 2-(acetylamino)-2-deoxy-
PRECURSORMZ:  738.44339978083
PRECURSORTYPE:  [M+FA-H]-
FORMULA:  C38H63NO10
Ontology: ;;;
INCHIKEY:  WTTUCZFXXPBCMB-UHFFFAOYNA-N
SMILES:  CC(O)=NC1C(OC(C)(C)C2CCC3(C)C=C(CCC3O2)C2CCC3C2(C)CC(O)C2OC(CCC32C)C(C)(C)O)OC(CO)C(O)C1O
RETENTIONTIME:  
CCS:  -1
IONMODE:  Negative
INSTRUMENTTYPE:  
INSTRUMENT:  Maxis II HD Q-TOF Bruker
COLLISIONENERGY:  
Comment:  DB#=CCMSLIB00000850709; origin=GNPS
Num Peaks:  35
100.03984	60.0
102.02614	70.0
112.03869	120.0
125.02527	70.0
134.98691	80.0
142.04852	110.0
154.05116	70.0
185.033	40.0
202.06949	770.0
203.07533	40.0
224.13817	30.0
224.94356	50.0
255.22453	40.0
334.98077	30.0
339.06195	10.0
343.9873	30.0
359.02664	30.0
368.14844	40.0
384.81223	30.0
389.01813	60.0
433.00739	40.0
435.06088	10.0
487.0015	30.0
495.00336	40.0
498.62762	30.0
563.03033	20.0
688.90283	20.0
692.43414	1000.0
692.7348	10.0
692.92462	20.0
693.44586	170.0
720.02295	40.0
735.26642	10.0
738.4483	180.0
739.44446	30.0

NAME:  NCGC00385685-01_C23H34O14_(2E)-3-[4-(beta-D-Glucopyranosyloxy)-3,5-dimethoxyphenyl]-2-propen-1-yl beta-D-glucopyranoside
PRECURSORMZ:  579.19305832283
PRECURSORTYPE:  [M+FA-H]-
FORMULA:  C23H34O14
Ontology: Kingdom: Organic compounds;Superclass: Organic oxygen compounds;Class: Organooxygen compounds;Subclass: Carbohydrates and carbohydrate conjugates
INCHIKEY:  RYVGCUJETSKZDU-UHFFFAOYNA-N
SMILES:  COC1=CC(C=CCOC2OC(CO)C(O)C(O)C2O)=CC(OC)=C1OC1OC(CO)C(O)C(O)C1O
RETENTIONTIME:  
CCS:  -1
IONMODE:  Negative
INSTRUMENTTYPE:  
INSTRUMENT:  Maxis II HD Q-TOF Bruker
COLLISIONENERGY:  
Comment:  DB#=CCMSLIB00000851118; origin=GNPS
Num Peaks:  15
119.03814	20.0
131.03812	40.0
149.03824	30.0
161.04843	70.0
178.07944	10.0
178.64619	20.0
179.05664	1000.0
180.05302	20.0
194.05637	30.0
207.0472	20.0
209.08406	100.0
221.06393	30.0
371.13403	40.0
579.22595	10.0
978.27649	20.0

NAME:  NCGC00380436-01_C30H36O14_(1S,4aS,7aR)-4a-({6-Deoxy-2-O-[(2E)-3-phenyl-2-propenoyl]-alpha-L-mannopyranosyl}oxy)-7-methyl-5-oxo-1,4a,5,7a-tetrahydrocyclopenta[c]pyran-1-yl beta-D-glucopyranoside
PRECURSORMZ:  665.20870838683
PRECURSORTYPE:  [M+FA-H]-
FORMULA:  C30H36O14
Ontology: Kingdom: Organic compounds;Superclass: Lipids and lipid;Class: Prenol lipids;Subclass: Terpene glycosides
INCHIKEY:  FJMAAWBVQJUJKZ-UHFFFAOYNA-N
SMILES:  CC1OC(OC23C=COC(OC4OC(CO)C(O)C(O)C4O)C2C(C)=CC3=O)C(OC(=O)C=CC2=CC=CC=C2)C(O)C1O
RETENTIONTIME:  
CCS:  -1
IONMODE:  Negative
INSTRUMENTTYPE:  
INSTRUMENT:  Maxis II HD Q-TOF Bruker
COLLISIONENERGY:  
Comment:  DB#=CCMSLIB00000849197; origin=GNPS
Num Peaks:  24
101.02481	10.0
113.0252	30.0
133.06322	10.0
135.04352	130.0
143.03456	20.0
145.05618	10.0
147.04463	110.0
149.06238	20.0
158.03676	20.0
159.0412	30.0
161.0607	90.0
163.03879	1000.0
175.03821	10.0
177.05409	60.0
179.05457	140.0
187.03976	60.0
189.05638	60.0
205.05103	120.0
217.04735	10.0
219.0672	10.0
235.05844	30.0
265.07083	20.0
293.10388	10.0
473.15515	10.0

NAME:  NCGC00169655-02_C21H30O12_4-Allyl-2-(beta-D-glucopyranosyloxy)phenyl beta-D-glucopyranoside
PRECURSORMZ:  519.17192895383
PRECURSORTYPE:  [M+FA-H]-
FORMULA:  C21H30O12
Ontology: Kingdom: Organic compounds;Superclass: Organic oxygen compounds;Class: Organooxygen compounds;Subclass: Carbohydrates and carbohydrate conjugates
INCHIKEY:  SFQLDKSMEHBZRN-UHFFFAOYNA-N
SMILES:  OCC1OC(OC2=C(OC3OC(CO)C(O)C(O)C3O)C=C(CC=C)C=C2)C(O)C(O)C1O
RETENTIONTIME:  
CCS:  -1
IONMODE:  Negative
INSTRUMENTTYPE:  
INSTRUMENT:  Maxis II HD Q-TOF Bruker
COLLISIONENERGY:  
Comment:  DB#=CCMSLIB00000849343; origin=GNPS
Num Peaks:  2
149.06012	1000.0
311.11566	350.0

NAME:  NCGC00169009-02_C26H32O9_Methyl (2R,4aR,4bS,10aS,10bS,12aR)-6,10b-dihydroxy-2,4b,7,7,10a,12a-hexamethyl-12-methylene-1,4,5,8-tetraoxo-1,4,4a,4b,5,7,8,9,10,10a,10b,11,12,12a-tetradecahydro-2H-naphtho[1,2-h]isochromene-2-carboxylate
PRECURSORMZ:  487.19735615783
PRECURSORTYPE:  [M-H]-
FORMULA:  C26H32O9
Ontology: Kingdom: Organic compounds;Superclass: Lipids and lipid;Class: Steroids and steroid derivatives;Subclass: Steroid lactones
INCHIKEY:  CYHGEJACRPDZDP-UHFFFAOYNA-N
SMILES:  COC(=O)C1(C)OC(=O)C2C(C)(C(=C)CC3(O)C4(C)CCC(=O)C(C)(C)C4=C(O)C(=O)C23C)C1=O
RETENTIONTIME:  
CCS:  218.7890014
IONMODE:  Negative
INSTRUMENTTYPE:  
INSTRUMENT:  Maxis II HD Q-TOF Bruker
COLLISIONENERGY:  
Comment:  DB#=CCMSLIB00000850162; origin=GNPS
Num Peaks:  45
97.18056	90.0
123.03822	230.0
133.02823	330.0
161.0611	490.0
186.07022	200.0
188.04852	430.0
189.08929	220.0
192.07697	210.0
193.08466	630.0
200.07599	110.0
203.07132	390.0
205.04433	250.0
207.12648	330.0
217.08023	160.0
220.08575	430.0
221.08591	200.0
221.11559	240.0
234.08742	230.0
264.05884	1000.0
277.10168	160.0
279.08804	960.0
279.11887	410.0
286.98572	210.0
289.14191	110.0
302.98547	230.0
313.18707	170.0
322.99118	300.0
337.14502	220.0
343.01651	270.0
346.9707	300.0
355.12595	200.0
361.01413	200.0
362.99957	330.0
364.98721	140.0
365.17599	120.0
382.19025	160.0
382.97549	270.0
385.16684	120.0
427.17798	800.0
437.17001	190.0
443.20154	200.0
443.3483	190.0
472.19067	180.0
486.54288	90.0
487.20026	470.0

NAME:  NCGC00381056-01_C22H33NO6_Valine, N-acetyl-, 1,3,5,5a,6,7,8,9,9a,9b-decahydro-9b-hydroxy-6,6,9a-trimethyl-3-oxonaphtho[1,2-c]furan-9-yl ester
PRECURSORMZ:  452.22899033483
PRECURSORTYPE:  [M+FA-H]-
FORMULA:  C22H33NO6
Ontology: Kingdom: Organic compounds;Superclass: Organoheterocyclic compounds;Class: Naphthofurans;
INCHIKEY:  DFGYGTWTXGTQIC-UHFFFAOYNA-N
SMILES:  CC(C)C(N=C(C)O)C(=O)OC1CCC(C)(C)C2CC=C3C(=O)OCC3(O)C12C
RETENTIONTIME:  
CCS:  -1
IONMODE:  Negative
INSTRUMENTTYPE:  
INSTRUMENT:  Maxis II HD Q-TOF Bruker
COLLISIONENERGY:  
Comment:  DB#=CCMSLIB00000849713; origin=GNPS
Num Peaks:  8
125.02557	20.0
140.0712	360.0
147.04526	60.0
221.14998	10.0
231.09727	10.0
247.13431	120.0
265.14453	1000.0
388.21237	60.0

NAME:  NCGC00380867-01_C27H46O9_9,12,15-Octadecatrienoic acid, 3-(hexopyranosyloxy)-2-hydroxypropyl ester, (9Z,12Z,15Z)-
PRECURSORMZ:  513.30690660883
PRECURSORTYPE:  [M-H]-
FORMULA:  C27H46O9
Ontology: Kingdom: Organic compounds;Superclass: Lipids and lipid;Class: Glycerolipids;Subclass: Glycosylglycerols
INCHIKEY:  HUSISCNTLUEZCN-UHFFFAOYNA-N
SMILES:  CCC=CCC=CCC=CCCCCCCCC(=O)OCC(O)COC1OC(CO)C(O)C(O)C1O
RETENTIONTIME:  
CCS:  264.612512
IONMODE:  Negative
INSTRUMENTTYPE:  
INSTRUMENT:  Maxis II HD Q-TOF Bruker
COLLISIONENERGY:  
Comment:  DB#=CCMSLIB00000850532; origin=GNPS
Num Peaks:  6
194.08304	60.0
235.08473	70.0
277.2175	1000.0
282.99911	40.0
333.00555	60.0
447.00269	40.0

NAME:  NCGC00381305-01_C24H32O12_Cyclopenta[c]pyran-4-carboxylic acid, 1-(beta-D-glucopyranosyloxy)-1,4a,5,6,7,7a-hexahydro-5,6-dihydroxy-7-methyl-, 2-(4-hydroxyphenyl)ethyl ester
PRECURSORMZ:  511.18210001783
PRECURSORTYPE:  [M-H]-
FORMULA:  C24H32O12
Ontology: Kingdom: Organic compounds;Superclass: Lipids and lipid;Class: Prenol lipids;Subclass: Terpene glycosides
INCHIKEY:  JUGKCFLQZJYLHO-UHFFFAOYNA-N
SMILES:  CC1C(O)C(O)C2C1C(OC1OC(CO)C(O)C(O)C1O)OC=C2C(=O)OCCC1=CC=C(O)C=C1
RETENTIONTIME:  
CCS:  -1
IONMODE:  Negative
INSTRUMENTTYPE:  
INSTRUMENT:  Maxis II HD Q-TOF Bruker
COLLISIONENERGY:  
Comment:  DB#=CCMSLIB00000851289; origin=GNPS
Num Peaks:  26
79.24506	20.0
87.01178	30.0
101.02419	30.0
111.00781	30.0
111.04594	20.0
113.02761	40.0
131.04929	30.0
134.36032	20.0
167.0733	30.0
179.05844	30.0
183.06834	60.0
185.08159	20.0
192.79329	20.0
193.28337	20.0
211.06227	60.0
229.07124	80.0
243.09265	30.0
249.07953	20.0
349.08804	40.0
349.12952	360.0
385.94916	30.0
391.1257	1000.0
391.70758	10.0
409.94659	10.0
411.12952	40.0
511.18756	110.0

NAME:  NCGC00180563-02_C48H76O18_beta-D-Glucopyranose, 4-O-(6-deoxy-alpha-L-mannopyranosyl)-1-O-[(3beta,5xi,9xi)-3-(beta-D-glucopyranuronosyloxy)-28-oxoolean-12-en-28-yl]-
PRECURSORMZ:  985.50136815483
PRECURSORTYPE:  [M+FA-H]-
FORMULA:  C48H76O18
Ontology: Kingdom: Organic compounds;Superclass: Lipids and lipid;Class: Prenol lipids;Subclass: Terpene glycosides
INCHIKEY:  KEBWMOINOKSPFY-UHFFFAOYNA-N
SMILES:  CC1OC(OC2C(O)C(O)C(OC(=O)C34CCC(C)(C)CC3C3=CCC5C6(C)CCC(OC7OC(C(O)C(O)C7O)C(O)=O)C(C)(C)C6CCC5(C)C3(C)CC4)OC2CO)C(O)C(O)C1O
RETENTIONTIME:  
CCS:  -1
IONMODE:  Negative
INSTRUMENTTYPE:  
INSTRUMENT:  Maxis II HD Q-TOF Bruker
COLLISIONENERGY:  
Comment:  DB#=CCMSLIB00000849206; origin=GNPS
Num Peaks:  57
83.01744	20.0
95.01511	30.0
99.00803	20.0
111.01261	50.0
113.02583	50.0
129.01959	20.0
131.03329	20.0
132.03632	20.0
138.99892	10.0
143.03456	40.0
157.0162	20.0
163.06363	30.0
187.02942	20.0
205.07079	20.0
243.13353	20.0
245.9268	50.0
247.08365	30.0
258.96741	10.0
297.0408	10.0
321.07565	10.0
349.94077	20.0
371.28726	10.0
451.10971	30.0
453.33536	40.0
455.3573	60.0
456.367	10.0
469.96103	10.0
470.96286	10.0
497.35898	20.0
511.33694	10.0
523.18219	10.0
523.37854	60.0
537.35516	10.0
543.96643	20.0
551.37567	50.0
569.38452	70.0
570.38806	20.0
582.96667	10.0
613.39655	20.0
631.39447	20.0
632.40967	10.0
641.3526	10.0
673.9823	10.0
715.45496	70.0
715.62555	20.0
733.44226	10.0
734.43188	10.0
777.44293	80.0
778.39868	10.0
778.45837	10.0
793.43195	10.0
794.43597	10.0
799.42383	20.0
806.9895	20.0
939.49677	1000.0
940.50562	260.0
1023.47223	10.0

NAME:  NCGC00381031-01_C36H56O10_Olean-12-en-28-oic acid, 3-(beta-D-glucopyranuronosyloxy)-23-hydroxy-, (3beta,5xi,9xi,18xi)-
PRECURSORMZ:  647.38007155083
PRECURSORTYPE:  [M-H]-
FORMULA:  C36H56O10
Ontology: Kingdom: Organic compounds;Superclass: Lipids and lipid;Class: Prenol lipids;Subclass: Terpene glycosides
INCHIKEY:  DYFUVQSGLMQLRX-UHFFFAOYNA-N
SMILES:  CC1(C)CCC2(CCC3(C)C(=CCC4C5(C)CCC(OC6OC(C(O)C(O)C6O)C(O)=O)C(C)(CO)C5CCC34C)C2C1)C(O)=O
RETENTIONTIME:  
CCS:  259.4494805
IONMODE:  Negative
INSTRUMENTTYPE:  
INSTRUMENT:  Maxis II HD Q-TOF Bruker
COLLISIONENERGY:  
Comment:  DB#=CCMSLIB00000849986; origin=GNPS
Num Peaks:  5
113.02365	40.0
175.02144	10.0
471.34729	40.0
647.38086	1000.0
648.39178	10.0

NAME:  NCGC00385411-01_C24H28O10_Spiro[furan-3(2H),1'(4'H)-naphthalene]-4'a,5'(5'H)-dicarboxylic acid, 6'-(acetyloxy)-5-(3-furanyl)-4,5,6',7',8',8'a-hexahydro-5'-hydroxy-2'-methyl-2-oxo-, dimethyl ester
PRECURSORMZ:  521.16644964983
PRECURSORTYPE:  [M+FA-H]-
FORMULA:  C24H28O10
Ontology: Kingdom: Organic compounds;Superclass: Lipids and lipid;Class: Prenol lipids;Subclass: Terpene lactones
INCHIKEY:  NOSUBWMAOPEEBW-UHFFFAOYNA-N
SMILES:  COC(=O)C1(O)C(CCC2C3(CC(OC3=O)C3=COC=C3)C(C)=CCC12C(=O)OC)OC(C)=O
RETENTIONTIME:  
CCS:  -1
IONMODE:  Negative
INSTRUMENTTYPE:  
INSTRUMENT:  Maxis II HD Q-TOF Bruker
COLLISIONENERGY:  
Comment:  DB#=CCMSLIB00000849590; origin=GNPS
Num Peaks:  20
89.02498	40.0
99.00562	10.0
101.03082	10.0
125.02345	120.0
131.03218	50.0
136.01694	50.0
143.03763	50.0
149.04617	150.0
161.04404	40.0
165.01926	20.0
166.02628	40.0
167.0363	30.0
180.60622	10.0
181.05093	1000.0
191.05615	110.0
195.06689	10.0
233.06654	170.0
257.06512	10.0
293.08792	440.0
396.94119	20.0

NAME:  Pesticide3_Novaluron_C17H9ClF8N2O4_N-({3-Chloro-4-[1,1,2-trifluoro-2-(trifluoromethoxy)ethoxy]phenyl}carbamoyl)-2,6-difluorobenzamide
PRECURSORMZ:  491.00503334783
PRECURSORTYPE:  [M-H]-
FORMULA:  C17H9ClF8N2O4
Ontology: Kingdom: Organic compounds;Superclass: Benzenoids;Class: Phenol ethers;
INCHIKEY:  NJPPVKZQTLUDBO-UHFFFAOYNA-N
SMILES:  OC(N=C(O)C1=C(F)C=CC=C1F)=NC1=CC(Cl)=C(OC(F)(F)C(F)OC(F)(F)F)C=C1
RETENTIONTIME:  
CCS:  162.2580474
IONMODE:  Negative
INSTRUMENTTYPE:  
INSTRUMENT:  Maxis HD qTOF
COLLISIONENERGY:  
Comment:  DB#=CCMSLIB00001058295; origin=GNPS
Num Peaks:  34
113.02567	30.0
113.73289	20.0
140.99677	60.0
156.02354	30.0
162.97836	80.0
165.99028	60.0
167.98366	140.0
195.94963	30.0
224.04085	20.0
245.60451	10.0
254.25696	40.0
305.01584	670.0
305.11969	40.0
306.37723	30.0
306.84256	20.0
307.42847	40.0
307.99225	480.0
308.38477	20.0
308.55563	10.0
309.20044	20.0
319.00565	20.0
332.99078	160.0
358.96472	30.0
361.99762	20.0
378.96826	20.0
427.99554	20.0
431.03827	30.0
435.0119	40.0
448.0072	40.0
450.99536	20.0
470.79214	40.0
471.00107	1000.0
491.00803	50.0
499.45013	50.0

NAME:  NCGC00380160-01_C24H40O5_4-{[5-(7-Hydroxy-5,5,8a-trimethyl-2-methylenedecahydro-1-naphthalenyl)-3-methylpentyl]oxy}-4-oxobutanoic acid
PRECURSORMZ:  407.28029793583
PRECURSORTYPE:  [M-H]-
FORMULA:  C24H40O5
Ontology: Kingdom: Organic compounds;Superclass: Lipids and lipid;Class: Prenol lipids;Subclass: Diterpenoids
INCHIKEY:  RJFVWGBZBUWHAM-UHFFFAOYNA-N
SMILES:  CC(CCOC(=O)CCC(O)=O)CCC1C(=C)CCC2C(C)(C)CC(O)CC12C
RETENTIONTIME:  
CCS:  -1
IONMODE:  Negative
INSTRUMENTTYPE:  
INSTRUMENT:  Maxis II HD Q-TOF Bruker
COLLISIONENERGY:  
Comment:  DB#=CCMSLIB00000850877; origin=GNPS
Num Peaks:  8
99.00777	220.0
149.64058	10.0
389.26633	10.0
406.75241	20.0
406.88092	10.0
407.28152	1000.0
407.37186	30.0
410.73752	10.0

NAME:  NCGC00381283-01_C63H102O29_Hexopyranose, O-pentopyranosyl-(1->6)-O-hexopyranosyl-(1->4)-1-O-[(3beta,5xi,9xi,18xi)-28-oxo-3-[[O-pentopyranosyl-(1->4)-O-pentopyranosyl-(1->4)-6-deoxyhexopyranosyl]oxy]olean-12-en-28-yl]-
PRECURSORMZ:  1367.64887981183
PRECURSORTYPE:  [M+FA-H]-
FORMULA:  C63H102O29
Ontology: Kingdom: Organic compounds;Superclass: Lipids and lipid;Class: Prenol lipids;Subclass: Terpene glycosides
INCHIKEY:  DUPDAJGZMLLYNK-UHFFFAOYNA-N
SMILES:  CC1OC(OC2CCC3(C)C(CCC4(C)C3CC=C3C5CC(C)(C)CCC5(CCC43C)C(=O)OC3OC(CO)C(OC4OC(COC5OCC(O)C(O)C5O)C(O)C(O)C4O)C(O)C3O)C2(C)C)C(O)C(O)C1OC1OCC(OC2OCC(O)C(O)C2O)C(O)C1O
RETENTIONTIME:  
CCS:  -1
IONMODE:  Negative
INSTRUMENTTYPE:  
INSTRUMENT:  Maxis II HD Q-TOF Bruker
COLLISIONENERGY:  
Comment:  DB#=CCMSLIB00000849355; origin=GNPS
Num Peaks:  13
191.05232	10.0
293.08362	20.0
485.14481	10.0
486.15976	20.0
733.45984	20.0
1159.56799	10.0
1321.64709	1000.0
1322.54834	10.0
1322.65173	230.0
1323.63928	10.0
1367.64587	210.0
1368.64429	60.0
1369.65784	10.0

NAME:  NCGC00380753-01_C16H28O12_6-O-Isobutyryl-alpha-D-glucopyranosyl alpha-D-glucopyranoside
PRECURSORMZ:  457.15627888983
PRECURSORTYPE:  [M+FA-H]-
FORMULA:  C16H28O12
Ontology: Kingdom: Organic compounds;Superclass: Organic oxygen compounds;Class: Organooxygen compounds;Subclass: Carbohydrates and carbohydrate conjugates
INCHIKEY:  FUUXIPLOLSVADM-UHFFFAOYNA-N
SMILES:  CC(C)C(=O)OCC1OC(OC2OC(CO)C(O)C(O)C2O)C(O)C(O)C1O
RETENTIONTIME:  
CCS:  -1
IONMODE:  Negative
INSTRUMENTTYPE:  
INSTRUMENT:  Maxis II HD Q-TOF Bruker
COLLISIONENERGY:  
Comment:  DB#=CCMSLIB00000850031; origin=GNPS
Num Peaks:  13
87.00929	20.0
87.04446	20.0
101.02531	30.0
113.025	20.0
143.03612	80.0
161.04643	60.0
179.05756	20.0
189.07634	20.0
203.05675	10.0
263.07632	10.0
323.09796	1000.0
411.15042	210.0
457.15613	40.0

NAME:  NCGC00169620-03_C30H48O6_Olean-12-en-28-oic acid, 2,3,19,23-tetrahydroxy-, (2alpha,3beta,5xi,9xi,19alpha)-
PRECURSORMZ:  549.34329181383
PRECURSORTYPE:  [M+FA-H]-
FORMULA:  C30H48O6
Ontology: Kingdom: Organic compounds;Superclass: Lipids and lipid;Class: Prenol lipids;Subclass: Triterpenoids
INCHIKEY:  IFIQVSCCFRXSJV-UHFFFAOYNA-N
SMILES:  CC1(C)CCC2(CCC3(C)C(=CCC4C5(C)CC(O)C(O)C(C)(CO)C5CCC34C)C2C1O)C(O)=O
RETENTIONTIME:  
CCS:  -1
IONMODE:  Negative
INSTRUMENTTYPE:  
INSTRUMENT:  Maxis II HD Q-TOF Bruker
COLLISIONENERGY:  
Comment:  DB#=CCMSLIB00000849569; origin=GNPS
Num Peaks:  11
408.30725	10.0
409.30582	20.0
421.30789	10.0
441.33881	20.0
453.30841	20.0
457.33221	10.0
473.32599	10.0
485.32526	20.0
501.31601	10.0
502.3248	90.0
503.33688	1000.0

NAME:  NCGC00347668-02_C37H50O21_(1aS,2S,6S,6aS)-6-({6-Deoxy-3-O-(beta-D-glucopyranosyl)-4-O-[(2E)-3-(4-methoxyphenyl)-2-propenoyl]-alpha-L-mannopyranosyl}oxy)-1a-(hydroxymethyl)-1a,1b,2,5a,6,6a-hexahydrooxireno[4,5]cyclopenta[1,2-c]pyran-2-yl beta-D-glucopyranoside
PRECURSORMZ:  829.27718217783
PRECURSORTYPE:  [M-H]-
FORMULA:  C37H50O21
Ontology: Kingdom: Organic compounds;Superclass: Phenylpropanoids and polyketides;Class: Cinnamic acids and derivatives;Subclass: Cinnamic acid esters
INCHIKEY:  JKLAVFMVEROOKJ-UHFFFAOYNA-N
SMILES:  COC1=CC=C(C=CC(=O)OC2C(C)OC(OC3C4OC4(CO)C4C3C=COC4OC3OC(CO)C(O)C(O)C3O)C(O)C2OC2OC(CO)C(O)C(O)C2O)C=C1
RETENTIONTIME:  
CCS:  -1
IONMODE:  Negative
INSTRUMENTTYPE:  
INSTRUMENT:  Maxis II HD Q-TOF Bruker
COLLISIONENERGY:  
Comment:  DB#=CCMSLIB00000850748; origin=GNPS
Num Peaks:  46
93.03432	20.0
99.04338	10.0
111.04483	30.0
117.03844	30.0
118.04049	10.0
119.05099	160.0
119.5345	20.0
121.57923	10.0
124.0152	10.0
125.02338	70.0
131.05304	20.0
133.06714	120.0
134.03987	20.0
135.04623	70.0
137.02307	10.0
143.03485	50.0
145.04825	100.0
150.03381	10.0
151.04007	70.0
161.04506	20.0
162.0274	10.0
163.04044	250.0
171.04153	20.0
175.99864	10.0
177.05692	1000.0
177.22002	10.0
179.05592	100.0
179.10915	10.0
181.05159	80.0
191.0636	10.0
289.09579	40.0
305.00583	10.0
363.07407	20.0
375.12735	110.0
376.14615	10.0
393.14621	20.0
471.15829	20.0
553.18988	30.0
553.23254	10.0
554.20599	10.0
620.19922	10.0
651.21216	40.0
652.2132	20.0
658.15076	20.0
829.28656	20.0
1684.29199	10.0

NAME:  NCGC00385252-01_C57H92O28_alpha-L-Arabinopyranose, O-3-O-[(2R,3R,4R)-tetrahydro-3,4-dihydroxy-4-(hydroxymethyl)-2-furanyl]-beta-D-xylopyranosyl-(1->4)-O-6-deoxy-alpha-L-mannopyranosyl-(1->2)-1-O-[(2beta,3beta,5xi,6beta,9xi,16alpha)-3-(beta-D-glucopyranosyloxy)-2,6,16,23-tetrahydroxy-28-oxoolean-12-en-28-yl]-
PRECURSORMZ:  1269.57571486983
PRECURSORTYPE:  [M+FA-H]-
FORMULA:  C57H92O28
Ontology: Kingdom: Organic compounds;Superclass: Lipids and lipid;Class: Prenol lipids;Subclass: Terpene glycosides
INCHIKEY:  KGASGDAHIPOLIY-UHFFFAOYNA-N
SMILES:  CC1OC(OC2C(O)C(O)COC2OC(=O)C23CCC(C)(C)CC2C2=CCC4C5(C)CC(O)C(OC6OC(CO)C(O)C(O)C6O)C(C)(CO)C5C(O)CC4(C)C2(C)CC3O)C(O)C(O)C1OC1OCC(O)C(OC2OCC(O)(CO)C2O)C1O
RETENTIONTIME:  
CCS:  -1
IONMODE:  Negative
INSTRUMENTTYPE:  
INSTRUMENT:  Maxis II HD Q-TOF Bruker
COLLISIONENERGY:  
Comment:  DB#=CCMSLIB00000849586; origin=GNPS
Num Peaks:  147
73.02845	80.0
85.02877	200.0
89.02214	150.0
99.00951	40.0
101.02276	170.0
109.06728	40.0
113.02267	320.0
119.03325	50.0
121.06365	40.0
122.04615	30.0
125.02343	20.0
127.0363	40.0
127.11928	40.0
131.03487	440.0
134.66092	30.0
139.04909	30.0
143.03433	220.0
145.0506	180.0
149.04758	30.0
155.03296	40.0
158.02362	40.0
167.03551	20.0
171.58551	10.0
173.04343	50.0
179.03212	30.0
183.02339	40.0
185.02191	40.0
205.07358	210.0
207.63565	20.0
215.13089	20.0
224.99535	40.0
226.68736	20.0
231.05769	50.0
233.0629	40.0
238.96429	40.0
240.97195	30.0
243.00893	30.0
249.03235	10.0
253.00819	30.0
257.08652	40.0
263.07535	180.0
265.08362	30.0
273.46671	20.0
277.08572	10.0
281.08411	120.0
286.10483	30.0
292.98657	30.0
301.08362	30.0
307.08054	30.0
323.09692	60.0
330.03381	20.0
330.20328	20.0
337.11407	320.0
343.10553	20.0
347.09979	30.0
348.61798	40.0
349.04495	10.0
349.11569	40.0
351.0556	20.0
362.7771	30.0
365.1058	70.0
367.11874	140.0
368.11554	20.0
375.25558	20.0
381.14755	20.0
389.3002	20.0
390.99826	10.0
391.29538	70.0
392.26898	30.0
409.13605	160.0
410.14273	30.0
412.87271	10.0
427.15057	50.0
437.30908	30.0
439.31491	60.0
441.08536	60.0
457.3421	70.0
458.03857	10.0
458.32037	20.0
462.31314	20.0
468.10898	10.0
468.88809	20.0
469.15604	840.0
470.16199	210.0
471.13409	30.0
471.32907	50.0
483.17313	20.0
484.16751	40.0
501.33197	20.0
502.08078	20.0
507.09528	30.0
519.32959	50.0
541.17456	90.0
542.125	10.0
559.18597	20.0
562.15314	40.0
568.23462	30.0
581.88922	20.0
595.09222	10.0
600.96881	30.0
603.36761	20.0
620.40302	20.0
629.66046	10.0
635.39209	50.0
644.4859	20.0
665.3656	20.0
666.38245	10.0
681.11053	20.0
681.39062	570.0
682.38867	120.0
682.51801	20.0
741.41034	30.0
753.39496	20.0
753.43762	20.0
757.45691	20.0
764.55536	30.0
765.42548	20.0
943.40625	30.0
1013.48505	20.0
1047.55823	20.0
1065.54675	20.0
1091.54456	20.0
1093.56445	20.0
1219.8302	20.0
1220.56995	20.0
1221.46509	20.0
1221.55542	50.0
1222.521	30.0
1222.58716	20.0
1222.64807	20.0
1223.35901	10.0
1223.57861	1000.0
1223.76086	30.0
1224.19165	40.0
1224.57715	360.0
1224.70703	30.0
1225.07727	30.0
1225.50708	30.0
1225.59509	90.0
1226.59912	10.0
1248.50415	10.0
1252.45203	20.0
1271.55298	10.0
1272.60669	20.0
1325.58105	10.0
1490.74634	30.0
1784.17432	10.0

NAME:  NCGC00380484-01_C22H36O12_beta-D-Glucopyranose, 6-O-beta-D-glucopyranosyl-1-O-[(2,6,6-trimethyl-1-cyclohexen-1-yl)carbonyl]-
PRECURSORMZ:  537.21887914683
PRECURSORTYPE:  [M+FA-H]-
FORMULA:  C22H36O12
Ontology: Kingdom: Organic compounds;Superclass: Organic oxygen compounds;Class: Organooxygen compounds;Subclass: Carbohydrates and carbohydrate conjugates
INCHIKEY:  URTXXFGOVQACIC-UHFFFAOYNA-N
SMILES:  CC1=C(C(=O)OC2OC(COC3OC(CO)C(O)C(O)C3O)C(O)C(O)C2O)C(C)(C)CCC1
RETENTIONTIME:  
CCS:  -1
IONMODE:  Negative
INSTRUMENTTYPE:  
INSTRUMENT:  Maxis II HD Q-TOF Bruker
COLLISIONENERGY:  
Comment:  DB#=CCMSLIB00000849302; origin=GNPS
Num Peaks:  14
101.02529	30.0
113.02515	30.0
119.03563	30.0
125.02496	40.0
143.03676	50.0
161.04486	80.0
166.16153	10.0
167.10732	1000.0
179.05652	150.0
179.48125	10.0
221.07108	60.0
263.07806	40.0
323.10007	360.0
491.21378	40.0

NAME:  NCGC00381276-01_C22H34O14_Hexitol, 2,6-anhydro-, 5-[4-(beta-D-glucopyranosyloxy)-2-methylenebutanoate] 1-(4-hydroxy-2-methylenebutanoate)
PRECURSORMZ:  567.19305832283
PRECURSORTYPE:  [M+FA-H]-
FORMULA:  C22H34O14
Ontology: Kingdom: Organic compounds;Superclass: Lipids and lipid;Class: Fatty Acyls;Subclass: Fatty acyl glycosides
INCHIKEY:  MBPFTSPFFNRGLA-UHFFFAOYNA-N
SMILES:  OCCC(=C)C(=O)OCC1OCC(OC(=O)C(=C)CCOC2OC(CO)C(O)C(O)C2O)C(O)C1O
RETENTIONTIME:  
CCS:  -1
IONMODE:  Negative
INSTRUMENTTYPE:  
INSTRUMENT:  Maxis II HD Q-TOF Bruker
COLLISIONENERGY:  
Comment:  DB#=CCMSLIB00000850573; origin=GNPS
Num Peaks:  14
89.02158	110.0
112.16402	50.0
112.90532	40.0
113.02628	250.0
115.04014	320.0
119.03387	150.0
143.02501	60.0
161.04668	60.0
163.05702	40.0
179.05379	150.0
259.08163	1000.0
277.09286	360.0
304.05054	60.0
423.15594	200.0

NAME:  NCGC00381187-01_C23H20N4O5_(2S,4R,9a'S)-1'-Hydroxy-2',2'-dimethyl-4-(4-oxo-3(4H)-quinazolinyl)-1',9a'-dihydro-3H-spiro[furan-2,9'-imidazo[1,2-a]indole]-3',5(2'H,4H)-dione
PRECURSORMZ:  477.14157230783
PRECURSORTYPE:  [M+FA-H]-
FORMULA:  C23H20N4O5
Ontology: Kingdom: Organic compounds;Superclass: Organic acids and derivatives;Class: Carboxylic acids and derivatives;Subclass: Amino acids
INCHIKEY:  NRWLZYIHXSJKCU-UHFFFAOYNA-N
SMILES:  CC1(C)N(O)C2N(C1=O)C1=CC=CC=C1C21CC(N2C=NC3=CC=CC=C3C2=O)C(=O)O1
RETENTIONTIME:  
CCS:  -1
IONMODE:  Negative
INSTRUMENTTYPE:  
INSTRUMENT:  Maxis II HD Q-TOF Bruker
COLLISIONENERGY:  
Comment:  DB#=CCMSLIB00000850436; origin=GNPS
Num Peaks:  25
131.05916	10.0
141.04904	10.0
144.04614	20.0
145.04044	1000.0
159.05649	40.0
171.05402	20.0
171.09346	140.0
172.03831	10.0
185.04892	40.0
186.05807	30.0
199.0872	10.0
201.04335	10.0
203.04462	20.0
213.10155	40.0
226.07372	30.0
241.09932	60.0
260.08307	10.0
268.08188	10.0
285.09055	40.0
286.09836	10.0
287.11182	30.0
332.09991	10.0
343.15872	10.0
401.13812	100.0
431.13895	210.0

NAME:  NCGC00168940-03_C26H34O12_4-{[(3S,4R,5S)-3-Hydroxy-5-(4-hydroxy-3-methoxyphenyl)-4-(hydroxymethyl)tetrahydro-3-furanyl]methyl}-2-methoxyphenyl beta-D-glucopyranoside
PRECURSORMZ:  537.19775008283
PRECURSORTYPE:  [M-H]-
FORMULA:  C26H34O12
Ontology: Kingdom: Organic compounds;Superclass: Lignans;Class: Lignan glycosides;
INCHIKEY:  SXGSYHDLSPXCMU-UHFFFAOYNA-N
SMILES:  COC1=C(O)C=CC(=C1)C1OCC(O)(CC2=CC(OC)=C(OC3OC(CO)C(O)C(O)C3O)C=C2)C1CO
RETENTIONTIME:  
CCS:  237.6258866
IONMODE:  Negative
INSTRUMENTTYPE:  
INSTRUMENT:  Maxis II HD Q-TOF Bruker
COLLISIONENERGY:  
Comment:  DB#=CCMSLIB00000849617; origin=GNPS
Num Peaks:  15
187.03645	20.0
197.55074	10.0
208.4845	10.0
256.07693	30.0
257.08221	20.0
294.09262	20.0
295.10992	10.0
297.06183	10.0
312.0972	10.0
327.12405	10.0
359.10529	10.0
360.1228	140.0
375.14545	1000.0
537.20099	40.0
538.1972	20.0

NAME:  NCGC00380324-01_C23H29ClO5_Benzaldehyde, 3-chloro-4,6-dihydroxy-2-methyl-5-[(2E,6E)-3-methyl-7-[(2S)-tetrahydro-5,5-dimethyl-4-oxo-2-furanyl]-2,6-octadien-1-yl]-
PRECURSORMZ:  419.16307524783
PRECURSORTYPE:  [M-H]-
FORMULA:  C23H29ClO5
Ontology: Kingdom: Organic compounds;Superclass: Lipids and lipid;Class: Prenol lipids;Subclass: Terpene glycosides
INCHIKEY:  VGYPZLGWVQQOST-UHFFFAOYNA-N
SMILES:  CC(CCC=C(C)C1CC(=O)C(C)(C)O1)=CCC1=C(O)C(Cl)=C(C)C(C=O)=C1O
RETENTIONTIME:  
CCS:  223.3965705
IONMODE:  Negative
INSTRUMENTTYPE:  
INSTRUMENT:  Maxis II HD Q-TOF Bruker
COLLISIONENERGY:  
Comment:  DB#=CCMSLIB00000849494; origin=GNPS
Num Peaks:  18
156.7863	10.0
184.02715	10.0
186.06314	40.0
187.08401	10.0
188.0737	20.0
196.99638	60.0
197.99992	10.0
201.05142	40.0
209.00276	20.0
216.07698	40.0
231.06453	10.0
277.06903	10.0
278.98724	10.0
333.12521	80.0
337.186	10.0
383.18741	10.0
419.10986	30.0
419.16513	1000.0

NAME:  NCGC00380181-01_C41H66O15_1-O-[(2beta,3beta,5xi,9xi,18xi)-2,23,29-Trihydroxy-28-oxo-3-(beta-D-xylopyranosyloxy)olean-12-en-28-yl]-beta-D-glucopyranose
PRECURSORMZ:  843.43837397283
PRECURSORTYPE:  [M+FA-H]-
FORMULA:  C41H66O15
Ontology: Kingdom: Organic compounds;Superclass: Lipids and lipid;Class: Prenol lipids;Subclass: Terpene glycosides
INCHIKEY:  GYIBVEJSJXXUKV-UHFFFAOYNA-N
SMILES:  CC1(CO)CCC2(CCC3(C)C(=CCC4C5(C)CC(O)C(OC6OCC(O)C(O)C6O)C(C)(CO)C5CCC34C)C2C1)C(=O)OC1OC(CO)C(O)C(O)C1O
RETENTIONTIME:  
CCS:  -1
IONMODE:  Negative
INSTRUMENTTYPE:  
INSTRUMENT:  Maxis II HD Q-TOF Bruker
COLLISIONENERGY:  
Comment:  DB#=CCMSLIB00000850508; origin=GNPS
Num Peaks:  12
89.02387	20.0
113.02368	10.0
119.03482	20.0
161.04376	20.0
179.05623	50.0
617.36835	20.0
635.37994	1000.0
636.38525	70.0
677.39178	60.0
797.43182	30.0
843.43994	700.0
844.44409	110.0

NAME:  NCGC00381233-01_C21H28O12_alpha-D-Glucopyranoside, 4-O-[(2E)-1-oxo-3-phenyl-2-propen-1-yl]-beta-D-fructofuranosyl
PRECURSORMZ:  471.15079988983
PRECURSORTYPE:  [M-H]-
FORMULA:  C21H28O12
Ontology: Kingdom: Organic compounds;Superclass: Phenylpropanoids and polyketides;Class: Cinnamic acids and derivatives;Subclass: Cinnamic acid esters
INCHIKEY:  AKARZXADDNXORH-UHFFFAOYNA-N
SMILES:  OCC1OC(CO)(OC2OC(CO)C(O)C(O)C2O)C(O)C1OC(=O)C=CC1=CC=CC=C1
RETENTIONTIME:  
CCS:  -1
IONMODE:  Negative
INSTRUMENTTYPE:  
INSTRUMENT:  Maxis II HD Q-TOF Bruker
COLLISIONENERGY:  
Comment:  DB#=CCMSLIB00000851319; origin=GNPS
Num Peaks:  7
103.05666	40.0
147.04402	1000.0
161.04503	20.0
260.10721	30.0
283.01117	20.0
323.1171	20.0
471.25238	20.0

NAME:  NCGC00385675-01_C40H62O15_
PRECURSORMZ:  827.40707384383
PRECURSORTYPE:  [M+FA-H]-
FORMULA:  C40H62O15
Ontology: Kingdom: Organic compounds;Superclass: Lipids and lipid;Class: Steroids and steroid derivatives;Subclass: Steroid lactones
INCHIKEY:  QMSHPPRVWMLFFL-UHFFFAOYNA-N
SMILES:  CC(C1CCC2C3C4OC4C4(O)CC(CC(O)C4(C)C3CCC12C)OC1OC(CO)C(OC2OC(C)C(O)C(O)C2O)C(O)C1O)C1CC(C)=C(C)C(=O)O1
RETENTIONTIME:  
CCS:  -1
IONMODE:  Negative
INSTRUMENTTYPE:  
INSTRUMENT:  Maxis II HD Q-TOF Bruker
COLLISIONENERGY:  
Comment:  DB#=CCMSLIB00000850621; origin=GNPS
Num Peaks:  15
85.03083	10.0
101.02384	20.0
113.02508	30.0
125.02448	10.0
127.04181	20.0
131.03423	10.0
143.03528	20.0
145.05067	40.0
163.06175	60.0
205.07251	520.0
247.08499	40.0
437.27603	20.0
473.28891	30.0
781.4035	1000.0
782.41138	120.0

NAME:  NCGC00380660-01_C29H46O17_
PRECURSORMZ:  665.26622356883
PRECURSORTYPE:  [M-H]-
FORMULA:  C29H46O17
Ontology: Kingdom: Organic compounds;Superclass: Lipids and lipid;Class: Saccharolipids;
INCHIKEY:  NVTNFOILVVPXHM-UHFFFAOYNA-N
SMILES:  COC(=O)C(C)=CCCC(C)(OC1OC(COC(=O)CC(C)(O)CC(O)=O)C(OC2OC(CO)C(O)C(O)C2O)C(O)C1O)C=C
RETENTIONTIME:  
CCS:  -1
IONMODE:  Negative
INSTRUMENTTYPE:  
INSTRUMENT:  Maxis II HD Q-TOF Bruker
COLLISIONENERGY:  
Comment:  DB#=CCMSLIB00000850271; origin=GNPS
Num Peaks:  44
83.0174	20.0
85.02799	10.0
89.02459	10.0
95.04966	40.0
99.04718	10.0
101.02341	140.0
113.02492	160.0
119.03242	20.0
124.01574	30.0
125.0239	120.0
131.03714	10.0
143.03525	140.0
149.04704	20.0
159.02785	40.0
161.04579	530.0
165.09123	120.0
179.05431	330.0
179.10519	20.0
197.11903	140.0
201.08058	20.0
203.05818	40.0
221.06586	170.0
223.0955	20.0
224.1089	10.0
235.08347	70.0
245.66382	10.0
259.07913	10.0
261.09384	10.0
263.07651	190.0
273.11176	20.0
281.09747	10.0
305.08344	20.0
322.85318	10.0
323.09772	10.0
327.15134	40.0
341.15665	30.0
471.17947	40.0
489.19583	100.0
503.21402	90.0
521.22443	1000.0
531.2066	10.0
563.23761	200.0
603.26752	50.0
665.26526	780.0

NAME:  NCGC00347834-02_C20H30O5_6,10a-Dihydroxy-4-(hydroxymethyl)-4,7,11b-trimethyl-2,3,4,4a,5,6,6a,7,10a,11,11a,11b-dodecahydrophenanthro[3,2-b]furan-9(1H)-one
PRECURSORMZ:  395.20752661383
PRECURSORTYPE:  [M+FA-H]-
FORMULA:  C20H30O5
Ontology: Kingdom: Organic compounds;Superclass: Organoheterocyclic compounds;Class: Naphthofurans;
INCHIKEY:  LLKIVVHUJOPYIV-UHFFFAOYNA-N
SMILES:  CC1C2C(O)CC3C(C)(CO)CCCC3(C)C2CC2(O)OC(=O)C=C12
RETENTIONTIME:  
CCS:  -1
IONMODE:  Negative
INSTRUMENTTYPE:  
INSTRUMENT:  Maxis II HD Q-TOF Bruker
COLLISIONENERGY:  
Comment:  DB#=CCMSLIB00000849953; origin=GNPS
Num Peaks:  10
171.28468	20.0
245.18419	10.0
275.20715	50.0
305.21719	190.0
306.21744	20.0
308.3931	10.0
349.20483	1000.0
349.25729	20.0
350.0658	20.0
395.20935	10.0

NAME:  Pesticide3_Flufenoxuron_C21H11ClF6N2O3_N-({4-[2-Chloro-4-(trifluoromethyl)phenoxy]-2-fluorophenyl}carbamoyl)-2,6-difluorobenzamide
PRECURSORMZ:  487.02896244783
PRECURSORTYPE:  [M-H]-
FORMULA:  C21H11ClF6N2O3
Ontology: Kingdom: Organic compounds;Superclass: Benzenoids;Class: Benzene and substituted derivatives;Subclass: N
INCHIKEY:  RYLHNOVXKPXDIP-UHFFFAOYSA-N
SMILES:  OC(N=C(O)C1=C(F)C=CC=C1F)=NC1=C(F)C=C(OC2=C(Cl)C=C(C=C2)C(F)(F)F)C=C1
RETENTIONTIME:  
CCS:  174.4133114
IONMODE:  Negative
INSTRUMENTTYPE:  
INSTRUMENT:  Maxis HD qTOF
COLLISIONENERGY:  
Comment:  DB#=CCMSLIB00001058305; origin=GNPS
Num Peaks:  30
104.01247	90.0
113.02022	180.0
122.02795	40.0
150.02065	40.0
156.02353	130.0
178.99226	120.0
189.02664	30.0
194.98343	210.0
222.97522	30.0
248.03229	70.0
263.9953	30.0
266.0563	30.0
269.04196	20.0
284.0108	210.0
289.04272	80.0
304.01846	1000.0
321.00238	20.0
329.01492	330.0
329.99512	40.0
347.4046	40.0
348.00757	30.0
363.03424	30.0
411.03824	310.0
423.63916	20.0
427.00134	20.0
444.02899	50.0
447.01498	210.0
447.58142	20.0
467.01227	80.0
487.02173	30.0

NAME:  NCGC00380575-01_C49H78O18_Olean-12-en-28-oic acid, 23-hydroxy-3-[[O-pentopyranosyl-(1->3)-O--6-deoxyhexopyranosyl-(1->4)-6-O-acetylhexopyranosyl]oxy]-, (3beta,5xi,9xi)-
PRECURSORMZ:  953.51153921983
PRECURSORTYPE:  [M-H]-
FORMULA:  C49H78O18
Ontology: Kingdom: Organic compounds;Superclass: Lipids and lipid;Class: Prenol lipids;Subclass: Terpene glycosides
INCHIKEY:  JDQAJUDONPAIME-UHFFFAOYNA-N
SMILES:  CC1OC(OC2C(O)C(O)C(OC3CCC4(C)C(CCC5(C)C4CC=C4C6CC(C)(C)CCC6(CCC54C)C(O)=O)C3(C)CO)OC2COC(C)=O)C(O)C(OC2OCC(O)C(O)C2O)C1O
RETENTIONTIME:  
CCS:  -1
IONMODE:  Negative
INSTRUMENTTYPE:  
INSTRUMENT:  Maxis II HD Q-TOF Bruker
COLLISIONENERGY:  
Comment:  DB#=CCMSLIB00000849545; origin=GNPS
Num Peaks:  49
83.01376	10.0
85.02898	30.0
87.00968	20.0
89.02383	30.0
99.00762	10.0
99.04751	20.0
101.02367	50.0
109.02998	10.0
113.0247	50.0
119.03337	20.0
125.02311	20.0
127.04056	60.0
131.03445	30.0
143.03375	40.0
145.05222	30.0
149.04553	30.0
153.05754	10.0
161.04652	30.0
187.05978	10.0
205.07353	20.0
307.09824	10.0
349.10992	10.0
423.32782	130.0
424.32712	10.0
439.32315	30.0
451.32138	10.0
453.33121	10.0
469.33432	30.0
471.34882	610.0
472.35364	30.0
525.36206	20.0
585.38135	250.0
586.37878	50.0
603.39209	670.0
604.39276	80.0
645.40918	10.0
647.38055	20.0
731.44116	50.0
749.45135	150.0
750.4469	30.0
773.45941	40.0
819.45435	10.0
893.49298	360.0
894.50006	110.0
911.50305	440.0
912.50891	130.0
953.51477	1000.0
954.51886	340.0
955.51196	20.0

NAME:  NCGC00380087-01_C23H24O4_
PRECURSORMZ:  363.16018280083
PRECURSORTYPE:  [M-H]-
FORMULA:  C23H24O4
Ontology: Kingdom: Organic compounds;Superclass: Benzenoids;Class: Benzene and substituted derivatives;Subclass: Benzophenones
INCHIKEY:  XUPOZHDUFRMVTF-UHFFFAOYNA-N
SMILES:  CC1(C)OC2=C(C(=O)C3=CC=CC=C3)C(O)=CC3=C2C2CC(C)(CCC12)O3
RETENTIONTIME:  
CCS:  197.4708838
IONMODE:  Negative
INSTRUMENTTYPE:  
INSTRUMENT:  Maxis II HD Q-TOF Bruker
COLLISIONENERGY:  
Comment:  DB#=CCMSLIB00000850334; origin=GNPS
Num Peaks:  25
132.29091	30.0
136.8754	30.0
143.20218	20.0
173.0318	60.0
176.95554	20.0
179.31728	20.0
189.01741	70.0
191.70134	20.0
223.07327	20.0
225.05823	30.0
226.06198	40.0
238.19695	30.0
253.05086	40.0
254.09726	20.0
266.09842	20.0
267.06448	270.0
268.07446	20.0
281.08011	20.0
282.08777	140.0
294.08664	40.0
314.08038	20.0
315.08377	20.0
362.73999	20.0
363.08646	40.0
363.15948	1000.0

NAME:  NCGC00380976-01_C28H42N2O7_(4E,10E)-13,20-Dihydroxy-8,14-dimethoxy-4,10,12,16-tetramethyl-3-oxo-2-azabicyclo[16.3.1]docosa-1(22),4,10,18,20-pentaen-9-yl carbamate
PRECURSORMZ:  563.29740424783
PRECURSORTYPE:  [M+FA-H]-
FORMULA:  C28H42N2O7
Ontology: Kingdom: Organic compounds;Superclass: Phenylpropanoids and polyketides;Class: Macrolactams;
INCHIKEY:  HUXWGTSMSXMDBH-UHFFFAOYNA-N
SMILES:  COC1CCC=C(C)C(O)=NC2=CC(O)=CC(CC(C)CC(OC)C(O)C(C)C=C(C)C1OC(O)=N)=C2
RETENTIONTIME:  
CCS:  -1
IONMODE:  Negative
INSTRUMENTTYPE:  
INSTRUMENT:  Maxis II HD Q-TOF Bruker
COLLISIONENERGY:  
Comment:  DB#=CCMSLIB00000849791; origin=GNPS
Num Peaks:  16
109.07323	10.0
127.54356	10.0
147.02957	10.0
190.08597	20.0
218.11638	10.0
227.80969	10.0
236.1274	70.0
262.10641	140.0
266.11768	10.0
312.16254	10.0
318.16821	10.0
330.16962	20.0
424.26382	50.0
442.26138	160.0
456.27319	80.0
474.28741	1000.0

NAME:  kaempferol-3-O-pentoside
PRECURSORMZ:  417.08272032783
PRECURSORTYPE:  [M-H]-
FORMULA:  C20H18O10
Ontology: Kingdom: Organic compounds;Superclass: Phenylpropanoids and polyketides;Class: Flavonoids;Subclass: Flavonoid glycosides
INCHIKEY:  RNVUDWOQYYWXBJ-UHFFFAOYNA-N
SMILES:  OC1COC(OC2=C(OC3=CC(O)=CC(O)=C3C2=O)C2=CC=C(O)C=C2)C(O)C1O
RETENTIONTIME:  
CCS:  194.2118837
IONMODE:  Negative
INSTRUMENTTYPE:  
INSTRUMENT:  qTof
COLLISIONENERGY:  
Comment:  DB#=CCMSLIB00004678843; origin=GNPS
Num Peaks:  22
151.00526	20.0
183.04054	20.0
227.03595	30.0
255.03288	40.0
256.0274	20.0
257.02625	10.0
270.03622	10.0
284.03217	520.0
284.17715	10.0
285.03711	240.0
286.03885	30.0
327.04535	10.0
417.08252	1000.0
417.26135	30.0
417.32886	10.0
417.55865	10.0
417.82919	10.0
418.08667	210.0
418.18625	20.0
418.32651	10.0
418.43417	10.0
419.08929	30.0

NAME:  NCGC00381060-01_C24H32O7_Benzoic acid, 4-hydroxy-, (1aS,2aR,3S,5R,6S,7aR)-3-(acetyloxy)decahydro-5-hydroxy-2a,7a-dimethyl-5-(1-methylethyl)azuleno[5,6-b]oxiren-6-yl ester
PRECURSORMZ:  431.20752691783
PRECURSORTYPE:  [M-H]-
FORMULA:  C24H32O7
Ontology: Kingdom: Organic compounds;Superclass: Benzenoids;Class: Benzene and substituted derivatives;Subclass: Benzoic acids and derivatives
INCHIKEY:  QNFWPNYXMSTZBB-UHFFFAOYNA-N
SMILES:  CC(C)C1(O)CC(OC(C)=O)C2(C)CC3OC3(C)CC(OC(=O)C3=CC=C(O)C=C3)C12
RETENTIONTIME:  
CCS:  -1
IONMODE:  Negative
INSTRUMENTTYPE:  
INSTRUMENT:  Maxis II HD Q-TOF Bruker
COLLISIONENERGY:  
Comment:  DB#=CCMSLIB00000850949; origin=GNPS
Num Peaks:  15
92.02377	40.0
93.03372	60.0
95.01356	30.0
108.02474	30.0
136.01707	30.0
137.02235	230.0
154.99178	30.0
246.91649	10.0
315.09253	20.0
371.09756	10.0
371.20483	40.0
429.57327	20.0
430.72186	40.0
431.20767	1000.0
1034.09717	20.0

NAME:  NCGC00380729-01_C21H21N3O3_8',8'-Dimethyl-5a',6'-dihydro-3'H,5'H,8'H-spiro[indole-2,7'-pyrrolo[1',2':4,5]pyrazino[1,2-a]azepine]-3,5',12'(1H,2'H)-trione
PRECURSORMZ:  408.15649409583
PRECURSORTYPE:  [M+FA-H]-
FORMULA:  C21H21N3O3
Ontology: Kingdom: Organic compounds;Superclass: Organoheterocyclic compounds;Class: Piperazinoazepines;
INCHIKEY:  LBFQJHHYMJAUKS-UHFFFAOYNA-N
SMILES:  CC1(C)C=CN2C(CC11NC3=CC=CC=C3C1=O)C(=O)N1CCC=C1C2=O
RETENTIONTIME:  
CCS:  -1
IONMODE:  Negative
INSTRUMENTTYPE:  
INSTRUMENT:  Maxis II HD Q-TOF Bruker
COLLISIONENERGY:  
Comment:  DB#=CCMSLIB00000849284; origin=GNPS
Num Peaks:  12
144.04253	80.0
157.06779	30.0
161.3232	30.0
162.69472	40.0
163.05042	1000.0
163.28157	10.0
163.74599	20.0
194.08469	30.0
198.08943	140.0
204.3374	10.0
362.14313	170.0
892.72949	130.0

NAME:  NCGC00381199-01_C25H38O4_(3aR,5E,7S,10E,14E,16aS)-2,7-Dihydroxy-3-[(2S)-1-hydroxy-2-propanyl]-6,10,14,16a-tetramethyl-4,7,8,9,12,13,16,16a-octahydrocyclopenta[15]annulen-1(3aH)-one
PRECURSORMZ:  447.27521225183
PRECURSORTYPE:  [M+FA-H]-
FORMULA:  C25H38O4
Ontology: Kingdom: Organic compounds;Superclass: Organic oxygen compounds;Class: Organooxygen compounds;Subclass: Alcohols and polyols
INCHIKEY:  UTGBBPSEQPITLF-UHFFFAOYNA-N
SMILES:  CC(CO)C1=C(O)C(=O)C2(C)CC=C(C)CCC=C(C)CCC(O)C(C)=CCC12
RETENTIONTIME:  
CCS:  -1
IONMODE:  Negative
INSTRUMENTTYPE:  
INSTRUMENT:  Maxis II HD Q-TOF Bruker
COLLISIONENERGY:  
Comment:  DB#=CCMSLIB00000851067; origin=GNPS
Num Peaks:  7
135.04399	10.0
136.05199	30.0
137.0614	150.0
150.07292	10.0
353.25031	220.0
371.25836	1000.0
401.27017	530.0

NAME:  NCGC00169476-02_C22H28O12_2(3H)-Furanone, 4-[2-[[6-O-[(2E)-3-(3,4-dihydroxyphenyl)-1-oxo-2-propen-1-yl]-beta-D-glucopyranosyl]oxy]-1-methylethyl]dihydro-4-hydroxy-
PRECURSORMZ:  529.15627888983
PRECURSORTYPE:  [M+FA-H]-
FORMULA:  C22H28O12
Ontology: Kingdom: Organic compounds;Superclass: Phenylpropanoids and polyketides;Class: Cinnamic acids and derivatives;Subclass: Hydroxycinnamic acids and derivatives
INCHIKEY:  YNPOIPFNQJKGQJ-UHFFFAOYNA-N
SMILES:  CC(COC1OC(COC(=O)C=CC2=CC(O)=C(O)C=C2)C(O)C(O)C1O)C1(O)COC(=O)C1
RETENTIONTIME:  
CCS:  -1
IONMODE:  Negative
INSTRUMENTTYPE:  
INSTRUMENT:  Maxis II HD Q-TOF Bruker
COLLISIONENERGY:  
Comment:  DB#=CCMSLIB00000850226; origin=GNPS
Num Peaks:  13
133.02628	10.0
135.04324	50.0
161.02347	250.0
177.0522	10.0
179.03264	100.0
221.04448	30.0
251.05363	120.0
281.0665	280.0
305.05768	10.0
323.07584	30.0
341.08755	140.0
465.13797	100.0
483.14902	1000.0

NAME:  NCGC00380783-01_C24H26O9_
PRECURSORMZ:  457.15040596483
PRECURSORTYPE:  [M-H]-
FORMULA:  C24H26O9
Ontology: Kingdom: Organic compounds;Superclass: Benzenoids;Class: Benzene and substituted derivatives;Subclass: Benzophenones
INCHIKEY:  PGZQNTPBISAIJS-UHFFFAOYNA-N
SMILES:  COC(=O)C1=C(C(=O)C2=C(O)C3=C(OC4(C)CCCC3O4)C=C2OC)C(OC)=CC(OC)=C1
RETENTIONTIME:  
CCS:  -1
IONMODE:  Negative
INSTRUMENTTYPE:  
INSTRUMENT:  Maxis II HD Q-TOF Bruker
COLLISIONENERGY:  
Comment:  DB#=CCMSLIB00000850676; origin=GNPS
Num Peaks:  38
143.65678	30.0
181.22121	30.0
186.039	50.0
189.01665	80.0
191.03363	60.0
214.02415	90.0
229.05054	410.0
266.05606	60.0
277.05032	30.0
280.08582	40.0
283.07733	90.0
309.08493	40.0
312.98074	80.0
322.04001	60.0
323.06277	70.0
323.09409	100.0
325.10852	80.0
327.0484	80.0
333.07391	70.0
335.04514	90.0
349.08234	70.0
349.12244	120.0
351.07169	50.0
353.07104	40.0
355.08694	300.0
358.07425	50.0
365.10455	60.0
366.11359	30.0
367.08408	120.0
367.1217	80.0
377.01941	70.0
381.13644	1000.0
383.11371	60.0
393.10062	260.0
410.11044	60.0
417.05045	30.0
425.12729	280.0
457.14908	340.0

NAME:  NCGC00169148-03_C22H26O12_Benzoic acid, 4-hydroxy-, 1-(hexopyranosyloxy)-1,4a,5,7a-tetrahydro-4a-hydroxy-7-(hydroxymethyl)cyclopenta[c]pyran-5-yl ester
PRECURSORMZ:  463.12458514483
PRECURSORTYPE:  [M-H2O-H]-
FORMULA:  C22H26O12
Ontology: Kingdom: Organic compounds;Superclass: Lipids and lipid;Class: Prenol lipids;Subclass: Terpene glycosides
INCHIKEY:  RUMMZUFGTMKLMC-UHFFFAOYNA-N
SMILES:  OCC1OC(OC2OC=CC3(O)C(OC(=O)C4=CC=C(O)C=C4)C=C(CO)C23)C(O)C(O)C1O
RETENTIONTIME:  
CCS:  -1
IONMODE:  Negative
INSTRUMENTTYPE:  
INSTRUMENT:  Maxis II HD Q-TOF Bruker
COLLISIONENERGY:  
Comment:  DB#=CCMSLIB00000849512; origin=GNPS
Num Peaks:  18
121.02766	90.0
131.16951	60.0
131.70116	10.0
133.03201	50.0
134.03712	70.0
135.04472	270.0
137.02373	60.0
139.0407	70.0
143.73633	30.0
161.02634	210.0
179.03476	1000.0
257.08536	40.0
283.08829	10.0
300.06226	40.0
323.07068	40.0
341.0954	20.0
462.83649	20.0
463.12411	570.0

NAME:  NCGC00180737-03_C21H24N2O10_Uridine, 2'-acetate 3'-(2,4-dimethoxy-6-methylbenzoate)
PRECURSORMZ:  463.13581852883
PRECURSORTYPE:  [M-H]-
FORMULA:  C21H24N2O10
Ontology: Kingdom: Organic compounds;Superclass: Nucleosides;Class: Pyrimidine nucleosides;
INCHIKEY:  MAWCJLLSYLMLHT-UHFFFAOYNA-N
SMILES:  COC1=CC(OC)=C(C(=O)OC2C(CO)OC(C2OC(C)=O)N2C=CC(O)=NC2=O)C(C)=C1
RETENTIONTIME:  
CCS:  -1
IONMODE:  Negative
INSTRUMENTTYPE:  
INSTRUMENT:  Maxis II HD Q-TOF Bruker
COLLISIONENERGY:  
Comment:  DB#=CCMSLIB00000850733; origin=GNPS
Num Peaks:  28
79.57944	70.0
112.0421	150.0
121.06705	90.0
151.07458	390.0
152.54492	70.0
153.024	70.0
164.03159	110.0
165.62874	60.0
166.04799	50.0
188.08345	100.0
194.05785	50.0
195.06523	1000.0
200.06528	60.0
224.05505	260.0
227.09167	60.0
254.07771	50.0
301.05402	50.0
321.11203	40.0
364.13263	60.0
378.1127	40.0
380.16153	40.0
389.18707	50.0
420.12909	700.0
445.19785	60.0
447.16791	30.0
462.19843	190.0
463.12949	40.0
528.85004	60.0

NAME:  NCGC00381206-01_C40H60O10_1-Naphthalenebutanoic acid, decahydro-beta,6-dihydroxy-alpha-(2-hydroxyethylidene)-5-(hydroxymethyl)-5,8a-dimethyl-2-methylene-, (4E)-4-[2-[(1R,4aS,5R,6R,8aS)-decahydro-6-hydroxy-5-(hydroxymethyl)-5,8a-dimethyl-2-methylene-1-naphthalenyl]ethylidene]tetrahydro-5-oxo-3-furanyl ester, (alphaE,1R,4aS,5R,6R,8aS)-
PRECURSORMZ:  745.41685067983
PRECURSORTYPE:  [M+FA-H]-
FORMULA:  C40H60O10
Ontology: Kingdom: Organic compounds;Superclass: Lipids and lipid;Class: Prenol lipids;Subclass: Terpene lactones
INCHIKEY:  DJSLHAARKMNBDB-UHFFFAOYNA-N
SMILES:  CC1(CO)C(O)CCC2(C)C(CC=C3C(COC3=O)OC(=O)C(=CCO)C(O)CC3C(=C)CCC4C(C)(CO)C(O)CCC34C)C(=C)CCC12
RETENTIONTIME:  
CCS:  -1
IONMODE:  Negative
INSTRUMENTTYPE:  
INSTRUMENT:  Maxis II HD Q-TOF Bruker
COLLISIONENERGY:  
Comment:  DB#=CCMSLIB00000851088; origin=GNPS
Num Peaks:  15
105.0714	20.0
111.04535	20.0
131.08711	20.0
143.08684	10.0
164.24934	10.0
209.96187	10.0
238.13553	10.0
248.54518	10.0
287.20129	590.0
301.17892	20.0
331.19171	1000.0
332.20093	40.0
349.20343	290.0
395.20862	810.0
396.2114	40.0

NAME:  NCGC00380734-01_C39H65NO10_2-{6-[5-Hydroxy-3-(2-hydroxy-2-propanyl)-6a,9b-dimethyldodecahydrocyclopenta[f]chromen-7-yl]-4a-methyl-3,4,4a,7,8,8a-hexahydro-2H-chromen-2-yl}-2-propanyl 2-acetamido-2-deoxy-6-O-methylhexopyranoside
PRECURSORMZ:  752.45904984483
PRECURSORTYPE:  [M+FA-H]-
FORMULA:  C39H65NO10
Ontology: Kingdom: Organic compounds;Superclass: Lipids and lipid;Class: Prenol lipids;Subclass: Triterpenoids
INCHIKEY:  YRWXPMXSOIZLLX-UHFFFAOYNA-N
SMILES:  COCC1OC(OC(C)(C)C2CCC3(C)C=C(CCC3O2)C2CCC3C2(C)CC(O)C2OC(CCC32C)C(C)(C)O)C(N=C(C)O)C(O)C1O
RETENTIONTIME:  
CCS:  -1
IONMODE:  Negative
INSTRUMENTTYPE:  
INSTRUMENT:  Maxis II HD Q-TOF Bruker
COLLISIONENERGY:  
Comment:  DB#=CCMSLIB00000849292; origin=GNPS
Num Peaks:  17
100.03963	230.0
124.03725	10.0
133.05121	20.0
141.04469	10.0
142.0517	20.0
160.06007	90.0
234.09683	80.0
339.69354	10.0
343.60477	10.0
476.97284	10.0
478.98331	10.0
706.45685	1000.0
706.67578	10.0
707.45001	110.0
752.45685	110.0
753.0517	10.0
753.46686	10.0

NAME:  NCGC00380527-01_C24H30O7_Benzoic acid, 4-hydroxy-, 1-(acetyloxy)-1,2,3,3a,4,7,8,8a-octahydro-3-hydroxy-6,8a-dimethyl-3-(1-methylethyl)-7-oxo-4-azulenyl ester
PRECURSORMZ:  429.19187685383
PRECURSORTYPE:  [M-H]-
FORMULA:  C24H30O7
Ontology: Kingdom: Organic compounds;Superclass: Lipids and lipid;Class: Prenol lipids;Subclass: Sesquiterpenoids
INCHIKEY:  SSFXFPCIUUFGJD-UHFFFAOYNA-N
SMILES:  CC(C)C1(O)CC(OC(C)=O)C2(C)CC(=O)C(C)=CC(OC(=O)C3=CC=C(O)C=C3)C12
RETENTIONTIME:  
CCS:  -1
IONMODE:  Negative
INSTRUMENTTYPE:  
INSTRUMENT:  Maxis II HD Q-TOF Bruker
COLLISIONENERGY:  
Comment:  DB#=CCMSLIB00000851358; origin=GNPS
Num Peaks:  9
75.42303	20.0
92.02645	110.0
108.02695	20.0
136.01648	1000.0
137.73802	20.0
138.20633	10.0
205.12155	30.0
343.18848	20.0
429.18991	320.0

NAME:  Pesticide4_Halofenozide_C18H19ClN2O2_N'-Benzoyl-4-chloro-N'-(2-methyl-2-propanyl)benzohydrazide
PRECURSORMZ:  365.0829068599
PRECURSORTYPE:  [M+Cl]-
FORMULA:  C18H19ClN2O2
Ontology: Kingdom: Organic compounds;Superclass: Benzenoids;Class: Benzene and substituted derivatives;Subclass: Benzoic acids and derivatives
INCHIKEY:  CNKHSLKYRMDDNQ-UHFFFAOYSA-N
SMILES:  CC(C)(C)N(NC(=O)C1=CC=C(Cl)C=C1)C(=O)C1=CC=CC=C1
RETENTIONTIME:  
CCS:  -1
IONMODE:  Negative
INSTRUMENTTYPE:  
INSTRUMENT:  Q-Exactive Plus Orbitrap Res 70k
COLLISIONENERGY:  
Comment:  DB#=CCMSLIB00001058344; origin=GNPS
Num Peaks:  5
121.02988	1000.0
154.99068	30.0
272.03607	10.0
273.0441	10.0
329.10687	530.0

NAME:  NCGC00384675-01_C20H24O10_6H-9,4a-(Epoxymethano)-3aH,9H-cyclopenta[c]furo[2,3-b]furo[3',2':3,4]cyclopenta[1,2-d]furan-2,6,13(1H)-trione, 11-(1,1-dimethylethyl)hexahydro-1,4b,8-trihydroxy-5-methyl-, (3aR,4aR,4bR,5S,7aS,9R,11S)-
PRECURSORMZ:  469.13514952083
PRECURSORTYPE:  [M+FA-H]-
FORMULA:  C20H24O10
Ontology: Kingdom: Organic compounds;Superclass: Lipids and lipid;Class: Prenol lipids;Subclass: Terpene lactones
INCHIKEY:  SQOJOAFXDQDRGF-UHFFFAOYNA-N
SMILES:  CC1C(=O)OC2C(O)C34C5CC(C(C)(C)C)C33C(O)C(=O)OC3OC4(C(=O)O5)C12O
RETENTIONTIME:  
CCS:  -1
IONMODE:  Negative
INSTRUMENTTYPE:  
INSTRUMENT:  Maxis II HD Q-TOF Bruker
COLLISIONENERGY:  
Comment:  DB#=CCMSLIB00000851421; origin=GNPS
Num Peaks:  22
85.03191	20.0
113.02318	40.0
125.02542	60.0
141.02289	10.0
143.02965	10.0
207.11093	10.0
209.11624	10.0
215.03185	10.0
232.07545	10.0
253.09763	10.0
253.12363	10.0
261.15057	20.0
269.11868	10.0
287.12976	40.0
303.12546	10.0
305.13748	30.0
349.13388	50.0
367.14069	1000.0
368.13431	10.0
386.99057	10.0
395.13647	90.0
423.12921	280.0

NAME:  NCGC00169180-03_C17H24O11_Cyclopenta[c]pyran-4,7-dicarboxylic acid, 1-(beta-D-glucopyranosyloxy)-1,4a,5,6,7,7a-hexahydro-, 4-methyl ester, (1S,4aS,7S,7aS)-
PRECURSORMZ:  403.12458514083
PRECURSORTYPE:  [M-H]-
FORMULA:  C17H24O11
Ontology: Kingdom: Organic compounds;Superclass: Lipids and lipid;Class: Prenol lipids;Subclass: Terpene glycosides
INCHIKEY:  RLCWEUBIDIWNEA-UHFFFAOYNA-N
SMILES:  COC(=O)C1=COC(OC2OC(CO)C(O)C(O)C2O)C2C(CCC12)C(O)=O
RETENTIONTIME:  
CCS:  196.1105946
IONMODE:  Negative
INSTRUMENTTYPE:  
INSTRUMENT:  Maxis II HD Q-TOF Bruker
COLLISIONENERGY:  
Comment:  DB#=CCMSLIB00000849857; origin=GNPS
Num Peaks:  26
71.32333	80.0
74.30334	20.0
99.00632	70.0
100.1685	10.0
101.0248	70.0
103.05158	30.0
121.02933	60.0
137.05943	30.0
139.03987	1000.0
147.04172	70.0
147.181	10.0
149.05928	30.0
155.08215	40.0
163.69797	30.0
165.05081	110.0
179.06769	180.0
183.06903	30.0
198.76408	20.0
209.04735	50.0
223.06114	150.0
241.06685	30.0
325.10626	50.0
327.1091	100.0
328.94693	10.0
371.0943	170.0
403.12296	690.0

NAME:  NCGC00385207-01_C32H40O16_(1aS,1bS,2S,5aR,6S,6aS)-6-({3-O-Acetyl-6-deoxy-4-O-[(2E)-3-phenyl-2-propenoyl]-alpha-L-mannopyranosyl}oxy)-1a-(hydroxymethyl)-1a,1b,2,5a,6,6a-hexahydrooxireno[4,5]cyclopenta[1,2-c]pyran-2-yl beta-L-glucopyranoside
PRECURSORMZ:  725.22983775583
PRECURSORTYPE:  [M+FA-H]-
FORMULA:  C32H40O16
Ontology: Kingdom: Organic compounds;Superclass: Phenylpropanoids and polyketides;Class: Cinnamic acids and derivatives;Subclass: Cinnamic acid esters
INCHIKEY:  WUGDNVYHMVWTAP-UHFFFAOYNA-N
SMILES:  CC1OC(OC2C3OC3(CO)C3C2C=COC3OC2OC(CO)C(O)C(O)C2O)C(O)C(OC(C)=O)C1OC(=O)C=CC1=CC=CC=C1
RETENTIONTIME:  
CCS:  -1
IONMODE:  Negative
INSTRUMENTTYPE:  
INSTRUMENT:  Maxis II HD Q-TOF Bruker
COLLISIONENERGY:  
Comment:  DB#=CCMSLIB00000849380; origin=GNPS
Num Peaks:  46
85.02906	10.0
101.02199	10.0
109.02985	10.0
123.01223	10.0
123.04322	10.0
131.04863	10.0
135.04417	60.0
137.02277	60.0
141.07022	10.0
145.02986	50.0
147.04414	540.0
149.04544	20.0
150.0298	20.0
151.0385	230.0
159.0874	10.0
161.05901	130.0
163.0392	260.0
169.04807	20.0
171.04208	20.0
173.06172	10.0
179.05663	20.0
180.0426	60.0
181.04929	140.0
187.0762	130.0
189.05573	40.0
196.06093	10.0
197.05792	20.0
205.05038	10.0
213.05482	10.0
214.06281	80.0
215.07104	360.0
243.06287	10.0
267.10126	20.0
281.08392	20.0
293.08044	10.0
311.09332	160.0
343.1048	20.0
361.1236	20.0
369.12054	20.0
403.1402	1000.0
404.13745	30.0
443.13989	20.0
487.16125	40.0
499.15842	30.0
517.1684	20.0
679.22699	10.0

NAME:  NCGC00347804-02_C25H32O8_2,20-Dihydroxy-13-methoxy-4,7,17,22,22-pentamethyl-5,10,21,23-tetraoxahexacyclo[18.2.1.0~1,17~.0~4,16~.0~6,14~.0~8,12~]tricosa-6(14),7,12-trien-11-one
PRECURSORMZ:  505.20792053783
PRECURSORTYPE:  [M+FA-H]-
FORMULA:  C25H32O8
Ontology: Kingdom: Organic compounds;Superclass: Organoheterocyclic compounds;Class: Benzopyrans;
INCHIKEY:  ZFKOTULZHLMUJE-UHFFFAOYNA-N
SMILES:  COC1=C2C(=O)OCC2=C(C)C2=C1CC1C(C)(CC(O)C34OC(O)(CCC13C)OC4(C)C)O2
RETENTIONTIME:  
CCS:  -1
IONMODE:  Negative
INSTRUMENTTYPE:  
INSTRUMENT:  Maxis II HD Q-TOF Bruker
COLLISIONENERGY:  
Comment:  DB#=CCMSLIB00000849695; origin=GNPS
Num Peaks:  26
113.06306	40.0
157.12047	20.0
165.11835	30.0
171.07506	40.0
177.05453	50.0
177.08919	40.0
191.03264	210.0
193.07622	40.0
193.12083	20.0
195.10504	20.0
206.06349	50.0
207.06149	30.0
238.05081	120.0
327.11276	40.0
339.16043	30.0
351.12381	20.0
353.09357	20.0
353.1358	20.0
368.12082	20.0
383.15198	810.0
400.11609	70.0
401.05515	20.0
401.15967	1000.0
413.20432	30.0
459.20465	350.0
1059.63184	10.0

NAME:  Pesticide4_Nitenpyram_C11H15ClN4O2_N'-[(6-Chloro-3-pyridinyl)methyl]-N-ethyl-N-methyl-2-nitro-1,1-ethenediamine
PRECURSORMZ:  269.08107694783
PRECURSORTYPE:  [M-H]-
FORMULA:  C11H15ClN4O2
Ontology: Kingdom: Organic compounds;Superclass: Organoheterocyclic compounds;Class: Pyridines and derivatives;Subclass: Halopyridines
INCHIKEY:  TXAJNJOHZOGTLT-UHFFFAOYSA-N
SMILES:  CCN(C)C(NCC1=CN=C(Cl)C=C1)=CN(=O)=O
RETENTIONTIME:  
CCS:  -1
IONMODE:  Negative
INSTRUMENTTYPE:  
INSTRUMENT:  Q-Exactive Plus Orbitrap Res 70k
COLLISIONENERGY:  
Comment:  DB#=CCMSLIB00001058313; origin=GNPS
Num Peaks:  66
75.46531	20.0
75.70934	20.0
76.20808	20.0
76.4662	20.0
78.46023	20.0
78.58001	20.0
79.51678	20.0
80.34919	20.0
83.02493	40.0
85.04069	120.0
86.44744	20.0
89.51856	20.0
97.0509	20.0
101.03577	520.0
101.03729	30.0
102.39	20.0
104.98483	30.0
110.03631	200.0
111.99633	340.0
116.9962	50.0
119.02554	20.0
121.54778	30.0
123.5145	20.0
125.05998	30.0
127.65739	20.0
129.95517	20.0
132.97969	90.0
144.99109	30.0
151.00717	260.0
157.22543	20.0
158.73169	20.0
163.34651	20.0
164.99747	40.0
165.99457	40.0
167.00227	30.0
169.05426	40.0
172.88663	30.0
172.97722	30.0
174.16586	20.0
177.02283	40.0
177.54115	30.0
178.01837	40.0
179.00247	50.0
183.03378	60.0
184.64685	20.0
185.00377	40.0
191.02612	170.0
192.03377	250.0
193.04131	170.0
198.99426	30.0
203.01421	80.0
205.04164	90.0
206.01355	50.0
206.04977	600.0
207.0211	220.0
210.04474	30.0
220.06546	130.0
221.02454	210.0
222.08086	620.0
236.23985	40.0
244.16225	20.0
249.07355	20.0
251.07097	160.0
262.43979	20.0
269.08188	1000.0
279.285	30.0

NAME:  NCGC00380686-01_C20H26O6_
PRECURSORMZ:  407.17114110483
PRECURSORTYPE:  [M+FA-H]-
FORMULA:  C20H26O6
Ontology: Kingdom: Organic compounds;Superclass: Lipids and lipid;Class: Prenol lipids;Subclass: Terpene lactones
INCHIKEY:  FSXIRVCJYLNVMM-UHFFFAOYNA-N
SMILES:  CC1CCC23COC(=O)C2=CC(O)CC3C1(C)CCC1=CC(=O)OC1O
RETENTIONTIME:  
CCS:  -1
IONMODE:  Negative
INSTRUMENTTYPE:  
INSTRUMENT:  Maxis II HD Q-TOF Bruker
COLLISIONENERGY:  
Comment:  DB#=CCMSLIB00000851476; origin=GNPS
Num Peaks:  12
177.67418	10.0
182.19009	20.0
243.18449	20.0
273.18921	30.0
287.16382	120.0
317.17871	60.0
359.17792	20.0
360.44162	20.0
360.78696	30.0
361.16513	1000.0
362.43616	20.0
1671.76965	50.0

NAME:  NCGC00380860-01_C22H32O4_15-Acetoxykaur-16-en-18-oic acid
PRECURSORMZ:  405.22826205783
PRECURSORTYPE:  [M+FA-H]-
FORMULA:  C22H32O4
Ontology: Kingdom: Organic compounds;Superclass: Lipids and lipid;Class: Prenol lipids;Subclass: Diterpenoids
INCHIKEY:  AQBQBBLJTDSVLC-UHFFFAOYNA-N
SMILES:  [H]C12CC3(CCC4C(C)(CCCC4(C)C(O)=O)C3CC1)C(OC(C)=O)C2=C
RETENTIONTIME:  
CCS:  -1
IONMODE:  Negative
INSTRUMENTTYPE:  
INSTRUMENT:  Maxis II HD Q-TOF Bruker
COLLISIONENERGY:  
Comment:  DB#=CCMSLIB00000850637; origin=GNPS
Num Peaks:  5
204.99146	40.0
357.9407	30.0
358.14224	20.0
358.29184	20.0
359.22211	1000.0

NAME:  NCGC00380844-01_C19H25NO10_beta-D-Glucopyranoside, 1H-indol-3-yl 6-O-[(2R,3R,4R)-tetrahydro-3,4-dihydroxy-4-(hydroxymethyl)-2-furanyl]-
PRECURSORMZ:  472.14604855683
PRECURSORTYPE:  [M+FA-H]-
FORMULA:  C19H25NO10
Ontology: Kingdom: Organic compounds;Superclass: Organic oxygen compounds;Class: Organooxygen compounds;Subclass: Carbohydrates and carbohydrate conjugates
INCHIKEY:  PCEVWHNBXIFFPJ-UHFFFAOYNA-N
SMILES:  OCC1(O)COC(OCC2OC(OC3=CNC4=CC=CC=C34)C(O)C(O)C2O)C1O
RETENTIONTIME:  
CCS:  -1
IONMODE:  Negative
INSTRUMENTTYPE:  
INSTRUMENT:  Maxis II HD Q-TOF Bruker
COLLISIONENERGY:  
Comment:  DB#=CCMSLIB00000849416; origin=GNPS
Num Peaks:  26
97.03104	100.0
99.00457	40.0
101.01483	10.0
115.04022	40.0
116.48501	40.0
125.02298	120.0
125.03903	70.0
131.03342	30.0
132.04066	130.0
145.05072	60.0
145.73267	50.0
149.04327	180.0
157.05528	30.0
167.03406	50.0
174.05486	70.0
191.05815	50.0
233.06686	430.0
275.07397	30.0
291.83444	20.0
292.90616	20.0
292.98917	20.0
293.08823	610.0
293.15036	20.0
426.05228	10.0
426.14288	1000.0
1934.95178	10.0

NAME:  NCGC00385704-01_C35H54O13_Card-20(22)-enolide, 3-[(6-deoxy-2-O-beta-D-glucopyranosyl-alpha-L-mannopyranosyl)oxy]-14-hydroxy-, (3beta,9xi)-
PRECURSORMZ:  727.35464434683
PRECURSORTYPE:  [M+FA-H]-
FORMULA:  C35H54O13
Ontology: ;;;
INCHIKEY:  JGIDWVXVJZHWBH-UHFFFAOYNA-N
SMILES:  CC1OC(OC2CCC3(C)C(CCC4C3CCC3(C)C(CCC43O)C3=CC(=O)OC3)C2)C(OC2OC(CO)C(O)C(O)C2O)C(O)C1O
RETENTIONTIME:  
CCS:  -1
IONMODE:  Negative
INSTRUMENTTYPE:  
INSTRUMENT:  Maxis II HD Q-TOF Bruker
COLLISIONENERGY:  
Comment:  DB#=CCMSLIB00000850322; origin=GNPS
Num Peaks:  15
101.02341	10.0
113.02474	30.0
159.02834	10.0
161.04626	70.0
163.05969	10.0
351.13132	20.0
373.23825	240.0
453.16251	20.0
519.29846	1000.0
520.30383	40.0
681.35138	960.0
682.35608	80.0
704.31165	10.0
704.84436	10.0
955.49652	20.0

NAME:  NCGC00380999-01_C23H32O7_1-Phenanthrenecarboxylic acid, 10-(acetyloxy)-1,2,3,4,4a,9,10,10a-octahydro-4,5,9-trihydroxy-1,4a-dimethyl-7-(1-methylethyl)-, methyl ester
PRECURSORMZ:  465.21300591783
PRECURSORTYPE:  [M+FA-H]-
FORMULA:  C23H32O7
Ontology: Kingdom: Organic compounds;Superclass: Lipids and lipid;Class: Prenol lipids;Subclass: Diterpenoids
INCHIKEY:  WBEFPLHFVLPKHQ-UHFFFAOYNA-N
SMILES:  COC(=O)C1(C)CCC(O)C2(C)C1C(OC(C)=O)C(O)C1=C2C(O)=CC(=C1)C(C)C
RETENTIONTIME:  
CCS:  -1
IONMODE:  Negative
INSTRUMENTTYPE:  
INSTRUMENT:  Maxis II HD Q-TOF Bruker
COLLISIONENERGY:  
Comment:  DB#=CCMSLIB00000850772; origin=GNPS
Num Peaks:  10
187.11534	10.0
215.10681	40.0
227.14093	10.0
253.12491	70.0
271.13528	40.0
285.14771	70.0
303.16428	20.0
327.16315	10.0
359.18668	350.0
419.20767	1000.0

NAME:  NCGC00168836-03_C20H30O4_6,18,19-Trihydroxytrachyloban-2-one
PRECURSORMZ:  379.21261199383
PRECURSORTYPE:  [M+FA-H]-
FORMULA:  C20H30O4
Ontology: Kingdom: Organic compounds;Superclass: Lipids and lipid;Class: Prenol lipids;Subclass: Diterpenoids
INCHIKEY:  WTOYNGQRGOLPNU-UHFFFAOYNA-N
SMILES:  CC12CC34CC1C2CC3C1(C)CC(=O)CC(CO)(CO)C1C(O)C4
RETENTIONTIME:  
CCS:  -1
IONMODE:  Negative
INSTRUMENTTYPE:  
INSTRUMENT:  Maxis II HD Q-TOF Bruker
COLLISIONENERGY:  
Comment:  DB#=CCMSLIB00000849800; origin=GNPS
Num Peaks:  10
124.05258	40.0
267.17554	60.0
285.18573	60.0
301.17975	10.0
303.19388	10.0
315.18918	80.0
332.51031	20.0
333.20609	1000.0
334.20798	30.0
379.2088	30.0

NAME:  Pesticide3_Chlorotoluron_C10H13ClN2O_Urea, N'-(3-chloro-4-methylphenyl)-N,N-dimethyl-
PRECURSORMZ:  211.06436424783
PRECURSORTYPE:  [M-H]-
FORMULA:  C10H13ClN2O
Ontology: Kingdom: Organic compounds;Superclass: Benzenoids;Class: Benzene and substituted derivatives;Subclass: N
INCHIKEY:  JXCGFZXSOMJFOA-UHFFFAOYSA-N
SMILES:  CN(C)C(O)=NC1=CC(Cl)=C(C)C=C1
RETENTIONTIME:  
CCS:  146.420096
IONMODE:  Negative
INSTRUMENTTYPE:  
INSTRUMENT:  Q-Exactive Plus Orbitrap Res 70k
COLLISIONENERGY:  
Comment:  DB#=CCMSLIB00001058256; origin=GNPS
Num Peaks:  33
78.96534	150.0
92.92795	150.0
92.99553	40.0
94.92496	150.0
96.97616	120.0
104.99585	70.0
116.99591	70.0
123.00533	10.0
127.00014	10.0
140.99605	40.0
142.9929	60.0
142.9953	10.0
143.01152	20.0
150.98889	30.0
163.01778	10.0
163.02571	50.0
170.98769	120.0
171.00679	50.0
181.01619	30.0
182.98746	30.0
189.04095	20.0
190.993	90.0
191.01294	30.0
191.05698	1000.0
193.05258	30.0
209.06702	50.0
210.98267	20.0
210.99863	50.0
211.00301	20.0
211.01868	30.0
211.06332	630.0
211.09917	20.0
211.13463	10.0

NAME:  NCGC00380452-01_C20H24O10_2-Cyclohexene-1-carboxylic acid, 1-hydroxy-6-oxo-, [2-(beta-D-glucopyranosyloxy)phenyl]methyl ester
PRECURSORMZ:  469.13514952083
PRECURSORTYPE:  [M+FA-H]-
FORMULA:  C20H24O10
Ontology: Kingdom: Organic compounds;Superclass: Organic oxygen compounds;Class: Organooxygen compounds;Subclass: Carbohydrates and carbohydrate conjugates
INCHIKEY:  CZDNLUMNELLDDD-UHFFFAOYNA-N
SMILES:  OCC1OC(OC2=CC=CC=C2COC(=O)C2(O)C=CCCC2=O)C(O)C(O)C1O
RETENTIONTIME:  
CCS:  -1
IONMODE:  Negative
INSTRUMENTTYPE:  
INSTRUMENT:  Maxis II HD Q-TOF Bruker
COLLISIONENERGY:  
Comment:  DB#=CCMSLIB00000849524; origin=GNPS
Num Peaks:  25
80.54538	60.0
83.04826	60.0
93.03799	40.0
101.02215	50.0
109.03165	50.0
111.04512	380.0
111.08202	10.0
118.59011	20.0
121.02919	300.0
123.04381	430.0
127.03621	40.0
137.02194	90.0
155.03275	1000.0
155.82928	10.0
159.02831	40.0
161.04562	350.0
167.43723	20.0
173.04346	10.0
285.09317	30.0
299.06796	30.0
316.39462	70.0
316.66647	20.0
317.08456	60.0
317.86099	30.0
423.12787	160.0

NAME:  NCGC00380336-01_C18H17ClO6_(1aS,2Z,4E,14R,15aS)-8-Chloro-9,11-dihydroxy-14-methyl-1a,14,15,15a-tetrahydro-6H-oxireno[e][2]benzoxacyclotetradecine-6,12(7H)-dione
PRECURSORMZ:  363.06408954783
PRECURSORTYPE:  [M-H]-
FORMULA:  C18H17ClO6
Ontology: ;;;
INCHIKEY:  WYZWZEOGROVVHK-UHFFFAOYNA-N
SMILES:  CC1CC2OC2C=CC=CC(=O)CC2=C(C(O)=CC(O)=C2Cl)C(=O)O1
RETENTIONTIME:  
CCS:  186.4045301
IONMODE:  Negative
INSTRUMENTTYPE:  
INSTRUMENT:  Maxis II HD Q-TOF Bruker
COLLISIONENERGY:  
Comment:  DB#=CCMSLIB00000850355; origin=GNPS
Num Peaks:  48
102.00881	40.0
105.00514	30.0
114.99435	50.0
119.05295	40.0
129.02132	20.0
130.03986	10.0
133.03847	40.0
150.02652	40.0
155.06621	40.0
161.05632	40.0
171.04945	40.0
181.02161	30.0
181.97998	30.0
182.03386	30.0
182.98653	120.0
183.05516	30.0
186.0332	30.0
194.98889	30.0
195.99826	60.0
196.05544	40.0
197.05646	30.0
197.09799	20.0
199.07661	40.0
200.01059	100.0
201.00591	30.0
212.04646	30.0
213.0571	20.0
217.54193	20.0
219.26294	10.0
223.99323	70.0
224.9989	30.0
237.09795	40.0
239.03226	30.0
240.04239	20.0
241.05524	30.0
247.02353	70.0
259.09064	50.0
268.04099	30.0
273.0329	30.0
274.03976	30.0
275.01349	60.0
281.08246	50.0
283.09897	30.0
298.73804	30.0
335.07767	50.0
345.05786	60.0
363.06223	1000.0
443.52774	40.0

NAME:  NCGC00381155-01_C20H18O8_2-Furanacetic acid, 3-(3,4'-dihydroxy-2,5-dimethoxy[1,1'-biphenyl]-4-yl)-2,5-dihydro-5-oxo-
PRECURSORMZ:  385.09289108783
PRECURSORTYPE:  [M-H]-
FORMULA:  C20H18O8
Ontology: Kingdom: Organic compounds;Superclass: Benzenoids;Class: Benzene and substituted derivatives;Subclass: Biphenyls and derivatives
INCHIKEY:  LZDLOICWXKFSMI-UHFFFAOYNA-N
SMILES:  COC1=C(C2=CC(=O)OC2CC(O)=O)C(O)=C(OC)C(=C1)C1=CC=C(O)C=C1
RETENTIONTIME:  
CCS:  -1
IONMODE:  Negative
INSTRUMENTTYPE:  
INSTRUMENT:  Maxis II HD Q-TOF Bruker
COLLISIONENERGY:  
Comment:  DB#=CCMSLIB00000850640; origin=GNPS
Num Peaks:  19
172.2122	30.0
215.03947	30.0
237.0963	30.0
239.06931	190.0
251.06581	70.0
252.08287	320.0
267.06332	600.0
267.10474	460.0
282.09055	140.0
283.06259	50.0
299.11188	40.0
311.05881	1000.0
312.069	50.0
326.08151	370.0
329.11038	50.0
340.03271	20.0
340.83133	70.0
341.10831	380.0
341.91522	20.0

NAME:  NCGC00347785-02_C17H22O5_9a-Hydroxy-3,8a-dimethyl-5-methylene-2-oxo-2,4,4a,5,6,7,8,8a,9,9a-decahydronaphtho[2,3-b]furan-8-yl acetate
PRECURSORMZ:  351.14492635583
PRECURSORTYPE:  [M+FA-H]-
FORMULA:  C17H22O5
Ontology: Kingdom: Organic compounds;Superclass: Lipids and lipid;Class: Prenol lipids;Subclass: Terpene lactones
INCHIKEY:  DDHXERAMOVJOAJ-UHFFFAOYNA-N
SMILES:  CC(=O)OC1CCC(=C)C2CC3=C(C)C(=O)OC3(O)CC12C
RETENTIONTIME:  
CCS:  -1
IONMODE:  Negative
INSTRUMENTTYPE:  
INSTRUMENT:  Maxis II HD Q-TOF Bruker
COLLISIONENERGY:  
Comment:  DB#=CCMSLIB00000849932; origin=GNPS
Num Peaks:  13
198.96899	20.0
203.10382	20.0
219.13628	150.0
245.12013	20.0
261.15558	80.0
266.99991	40.0
271.01459	30.0
304.33612	50.0
305.09802	30.0
305.14017	1000.0
306.14471	30.0
308.31677	30.0
318.67014	40.0

NAME:  NCGC00380709-01_C32H36N2O5_(3S,3aR,4S,6S,6aR,7E,10S,11Z,13R,15E,17aR)-6,13-Dihydroxy-3-(1H-indol-3-ylmethyl)-4,10,12-trimethyl-5-methylene-2,3,3a,4,5,6,6a,9,10,13-decahydro-1H-cyclotrideca[d]isoindole-1,14,17-trione
PRECURSORMZ:  527.25514581483
PRECURSORTYPE:  [M-H]-
FORMULA:  C32H36N2O5
Ontology: Kingdom: Organic compounds;Superclass: Organoheterocyclic compounds;Class: Indoles and derivatives;Subclass: Indoles
INCHIKEY:  FTBNYQWFSWKCKW-UHFFFAOYNA-N
SMILES:  CC1C2C(CC3=CNC4=CC=CC=C34)N=C(O)C22C(C=CCC(C)C=C(C)C(O)C(=O)C=CC2=O)C(O)C1=C
RETENTIONTIME:  
CCS:  237.4374609
IONMODE:  Negative
INSTRUMENTTYPE:  
INSTRUMENT:  Maxis II HD Q-TOF Bruker
COLLISIONENERGY:  
Comment:  DB#=CCMSLIB00000851401; origin=GNPS
Num Peaks:  95
97.0651	30.0
116.05346	30.0
123.04712	30.0
130.06866	20.0
134.06421	30.0
139.78754	30.0
142.0636	110.0
148.04651	30.0
158.05402	20.0
160.05748	20.0
162.01942	20.0
164.0323	40.0
166.89389	20.0
173.09692	60.0
174.09546	30.0
175.07553	50.0
178.06369	20.0
182.06371	40.0
183.05061	20.0
185.06894	30.0
189.08693	70.0
211.08841	30.0
213.12968	40.0
214.09013	10.0
221.13928	30.0
225.11465	30.0
226.12051	20.0
229.08461	30.0
232.76176	30.0
237.06096	10.0
237.19095	20.0
242.07909	20.0
245.19275	20.0
246.10522	20.0
250.11949	40.0
256.13235	20.0
258.89944	10.0
263.97388	20.0
267.13837	10.0
273.1167	20.0
284.16	20.0
295.10413	20.0
296.11398	20.0
303.14539	20.0
308.14868	20.0
310.18002	60.0
314.14352	20.0
316.0061	20.0
318.18137	20.0
320.16925	20.0
322.17197	40.0
325.18176	20.0
332.16757	20.0
336.19388	80.0
338.97333	30.0
340.17285	20.0
341.18466	60.0
344.16959	20.0
344.19904	30.0
355.18744	30.0
368.17657	20.0
375.2052	30.0
378.18597	20.0
380.18814	50.0
397.19354	50.0
398.19855	50.0
402.21332	20.0
407.22238	20.0
410.20892	10.0
414.21472	20.0
422.25308	10.0
427.23657	30.0
429.23819	20.0
440.25546	60.0
442.2608	20.0
443.02066	20.0
443.22726	40.0
448.23969	40.0
453.2583	30.0
455.27972	20.0
465.23962	20.0
466.23099	60.0
466.2699	20.0
471.23444	40.0
483.26395	90.0
484.25177	420.0
499.26099	70.0
509.20731	20.0
509.23596	30.0
509.3743	20.0
524.70648	20.0
527.25433	1000.0
528.28278	10.0
846.79755	20.0
971.42902	10.0

NAME:  NCGC00380455-01_C54H88O22_beta-D-Glucopyranoside, (3beta,5xi,9xi,16beta)-13,28-epoxy-16,23-dihydroxyolean-11-en-3-yl O-6-deoxy-alpha-L-mannopyranosyl-(1->2)-O-[O-6-deoxy-alpha-L-mannopyranosyl-(1->4)-beta-D-glucopyranosyl-(1->3)]-
PRECURSORMZ:  1133.57492702183
PRECURSORTYPE:  [M+FA-H]-
FORMULA:  C54H88O22
Ontology: Kingdom: Organic compounds;Superclass: Lipids and lipid;Class: Prenol lipids;Subclass: Terpene glycosides
INCHIKEY:  QKBNQKFVZBEPIH-UHFFFAOYNA-N
SMILES:  CC1OC(OC2C(CO)OC(OC3C(O)C(CO)OC(OC4CCC5(C)C(CCC6(C)C5C=CC57OCC8(CCC(C)(C)CC58)C(O)CC67C)C4(C)CO)C3OC3OC(C)C(O)C(O)C3O)C(O)C2O)C(O)C(O)C1O
RETENTIONTIME:  
CCS:  -1
IONMODE:  Negative
INSTRUMENTTYPE:  
INSTRUMENT:  Maxis II HD Q-TOF Bruker
COLLISIONENERGY:  
Comment:  DB#=CCMSLIB00000850139; origin=GNPS
Num Peaks:  34
85.02959	10.0
89.02375	20.0
101.02338	80.0
109.02847	20.0
113.02387	60.0
119.03506	30.0
125.02314	20.0
127.03925	40.0
143.03406	50.0
145.05035	20.0
151.03925	10.0
161.0443	50.0
163.06157	10.0
169.05017	10.0
179.05602	20.0
205.07074	20.0
247.08119	50.0
289.09109	20.0
307.1022	30.0
439.32407	10.0
471.34708	10.0
581.38776	20.0
617.40662	70.0
618.40857	10.0
761.44897	20.0
779.46106	110.0
780.4679	20.0
923.50739	10.0
925.51752	60.0
926.51831	20.0
941.51678	30.0
1087.57239	1000.0
1088.57568	360.0
1089.58044	40.0

NAME:  NCGC00380707-01_C26H42O11_(5xi,6alpha,7alpha,9xi,16xi)-16-(beta-D-Glucopyranosyloxy)-6,7,17-trihydroxykauran-19-oic acid
PRECURSORMZ:  529.26543571983
PRECURSORTYPE:  [M-H]-
FORMULA:  C26H42O11
Ontology: Kingdom: Organic compounds;Superclass: Lipids and lipid;Class: Prenol lipids;Subclass: Terpene glycosides
INCHIKEY:  QUCGBWQRLWOVBR-UHFFFAOYNA-N
SMILES:  [H]C12CC3(CC1(CO)OC1OC(CO)C(O)C(O)C1O)C(O)C(O)C1C(C)(CCCC1(C)C(O)=O)C3CC2
RETENTIONTIME:  
CCS:  222.3191578
IONMODE:  Negative
INSTRUMENTTYPE:  
INSTRUMENT:  Maxis II HD Q-TOF Bruker
COLLISIONENERGY:  
Comment:  DB#=CCMSLIB00000851397; origin=GNPS
Num Peaks:  12
255.17239	20.0
256.55307	10.0
271.19183	10.0
305.21249	10.0
347.19464	40.0
349.20279	400.0
352.07199	10.0
527.242	20.0
527.9303	10.0
528.24097	10.0
529.26678	1000.0
529.89642	20.0

NAME:  NCGC00380952-01_C26H34O9_(1R,2R,4S,7S,8R,9R,10S,11R,12S,13S,14R,17R,18R,19R)-8-Acetoxy-10,19-dihydroxy-1,9,18-trimethyl-15-oxo-16,20-dioxahexacyclo[15.3.2.0~2,13~.0~4,12~.0~7,11~.0~14,19~]docos-5-ene-5-carboxylic acid
PRECURSORMZ:  489.21300622283
PRECURSORTYPE:  [M-H]-
FORMULA:  C26H34O9
Ontology: Kingdom: Organic compounds;Superclass: Lipids and lipid;Class: Fatty Acyls;Subclass: Eicosanoids
INCHIKEY:  OTGHTIDLDTWPFJ-UHFFFAOYNA-N
SMILES:  [H]C12CCC3(C)OC(O)(C1C)C(C1C3CC3C1C1C(O)C(C)C(OC(C)=O)C1C=C3C(O)=O)C(=O)O2
RETENTIONTIME:  
CCS:  -1
IONMODE:  Negative
INSTRUMENTTYPE:  
INSTRUMENT:  Maxis II HD Q-TOF Bruker
COLLISIONENERGY:  
Comment:  DB#=CCMSLIB00000850586; origin=GNPS
Num Peaks:  22
97.06686	20.0
120.06913	20.0
162.07498	10.0
164.99469	10.0
203.10248	20.0
204.11823	10.0
231.11984	10.0
233.59457	20.0
284.11276	20.0
303.12772	30.0
311.16315	20.0
323.19983	20.0
340.08585	20.0
367.18961	70.0
385.20093	20.0
388.18558	20.0
427.21576	100.0
429.18726	80.0
471.19614	120.0
486.51941	10.0
488.19986	20.0
489.21289	1000.0

NAME:  NCGC00380479-01_C36H58O11_beta-D-Glucopyranose, 1-O-[(2alpha,3beta,5xi,6beta,9xi,19alpha)-2,3,6,19-tetrahydroxy-28-oxoolean-12-en-28-yl]-
PRECURSORMZ:  711.39611523583
PRECURSORTYPE:  [M+FA-H]-
FORMULA:  C36H58O11
Ontology: Kingdom: Organic compounds;Superclass: Lipids and lipid;Class: Prenol lipids;Subclass: Triterpenoids
INCHIKEY:  DRZYJIXQEOTQDA-UHFFFAOYNA-N
SMILES:  CC1(C)CCC2(CCC3(C)C(=CCC4C5(C)CC(O)C(O)C(C)(C)C5C(O)CC34C)C2C1O)C(=O)OC1OC(CO)C(O)C(O)C1O
RETENTIONTIME:  
CCS:  -1
IONMODE:  Negative
INSTRUMENTTYPE:  
INSTRUMENT:  Maxis II HD Q-TOF Bruker
COLLISIONENERGY:  
Comment:  DB#=CCMSLIB00000849965; origin=GNPS
Num Peaks:  6
485.32535	40.0
503.33926	1000.0
504.34579	30.0
665.38971	20.0
711.39691	240.0
712.40198	20.0

NAME:  NCGC00380737-01_C17H26O11_Methyl (1S,4aS,6R,7R,7aR)-1-(beta-D-glucopyranosyloxy)-5,6-dihydroxy-7-methyl-1,4a,5,6,7,7a-hexahydrocyclopenta[c]pyran-4-carboxylate
PRECURSORMZ:  451.14571420483
PRECURSORTYPE:  [M+FA-H]-
FORMULA:  C17H26O11
Ontology: Kingdom: Organic compounds;Superclass: Lipids and lipid;Class: Prenol lipids;Subclass: Terpene glycosides
INCHIKEY:  QDEYKGKBMCIYCT-UHFFFAOYNA-N
SMILES:  COC(=O)C1=COC(OC2OC(CO)C(O)C(O)C2O)C2C(C)C(O)C(O)C12
RETENTIONTIME:  
CCS:  -1
IONMODE:  Negative
INSTRUMENTTYPE:  
INSTRUMENT:  Maxis II HD Q-TOF Bruker
COLLISIONENERGY:  
Comment:  DB#=CCMSLIB00000850247; origin=GNPS
Num Peaks:  15
77.18612	20.0
90.34106	10.0
101.02277	30.0
111.0125	40.0
113.02671	50.0
123.00645	30.0
123.04207	50.0
143.0318	110.0
165.05537	20.0
211.05994	80.0
243.08594	1000.0
253.06213	20.0
405.14319	20.0
451.14792	70.0
776.97339	20.0

NAME:  myricetin-3-O-pentoside
PRECURSORMZ:  449.07254956783
PRECURSORTYPE:  [M-H]-
FORMULA:  C20H18O12
Ontology: Kingdom: Organic compounds;Superclass: Phenylpropanoids and polyketides;Class: Flavonoids;Subclass: Flavonoid glycosides
INCHIKEY:  SBEOEJNITMVWLK-UHFFFAOYNA-N
SMILES:  OC1COC(OC2=C(OC3=CC(O)=CC(O)=C3C2=O)C2=CC(O)=C(O)C(O)=C2)C(O)C1O
RETENTIONTIME:  
CCS:  211.7918085
IONMODE:  Negative
INSTRUMENTTYPE:  
INSTRUMENT:  qTof
COLLISIONENERGY:  
Comment:  DB#=CCMSLIB00004678822; origin=GNPS
Num Peaks:  9
179.00072	20.0
271.02197	30.0
287.02167	20.0
316.02246	690.0
317.02814	250.0
318.03244	40.0
449.07324	1000.0
450.07611	230.0
451.08011	40.0

NAME:  NCGC00180427-03_C41H56N8O7_1,4,7,10,13,16,19-Heptaazacyclotricosane-2,5,8,11,14,17,20-heptone, 3-(1H-indol-3-ylmethyl)-6,18-dimethyl-9,15-bis(1-methylethyl)-12-(1-phenylethyl)-
PRECURSORMZ:  771.41991972283
PRECURSORTYPE:  [M-H]-
FORMULA:  C41H56N8O7
Ontology: Kingdom: Organic compounds;Superclass: Organic acids and derivatives;Class: Peptidomimetics;Subclass: Hybrid peptides
INCHIKEY:  NZNSTOHSZZLSNP-UHFFFAOYNA-N
SMILES:  CC(C)C1N=C(O)C(C)N=C(O)CCCN=C(O)C(CC2=CNC3=CC=CC=C23)N=C(O)C(C)N=C(O)C(N=C(O)C(N=C1O)C(C)C1=CC=CC=C1)C(C)C
RETENTIONTIME:  
CCS:  -1
IONMODE:  Negative
INSTRUMENTTYPE:  
INSTRUMENT:  Maxis II HD Q-TOF Bruker
COLLISIONENERGY:  
Comment:  DB#=CCMSLIB00000850928; origin=GNPS
Num Peaks:  97
108.0799	20.0
111.02145	10.0
115.09231	30.0
126.05893	30.0
127.04961	10.0
137.03445	30.0
138.09581	20.0
139.09021	20.0
140.08066	20.0
141.10295	50.0
143.05476	10.0
151.09073	40.0
153.10114	20.0
156.03847	10.0
178.05582	20.0
180.0836	10.0
182.12392	40.0
184.10803	30.0
186.05385	30.0
186.12576	150.0
211.11842	40.0
226.12556	10.0
229.12857	120.0
241.13564	40.0
245.87425	10.0
255.14462	20.0
258.16965	30.0
259.13922	10.0
268.12335	20.0
276.1254	20.0
276.17316	90.0
283.17395	10.0
291.14316	20.0
295.13281	20.0
304.19376	20.0
319.18036	20.0
327.20285	40.0
328.2023	130.0
329.20987	10.0
330.18668	30.0
338.2251	10.0
339.14194	20.0
340.18649	10.0
340.47659	10.0
349.18005	20.0
351.16772	20.0
358.18567	40.0
368.33591	30.0
375.24011	20.0
377.72235	30.0
379.61362	20.0
381.22556	30.0
382.20905	10.0
386.2583	10.0
399.23837	20.0
399.27014	10.0
400.24405	10.0
407.21729	10.0
428.28687	10.0
429.2583	20.0
442.24774	10.0
446.27679	70.0
451.22916	20.0
453.30368	10.0
455.30078	10.0
457.26266	20.0
471.27161	30.0
472.24338	30.0
480.2886	30.0
489.27863	10.0
498.30319	10.0
503.32257	10.0
509.24185	10.0
510.29984	10.0
528.29004	20.0
531.33008	50.0
557.31006	20.0
598.36932	20.0
599.3728	10.0
601.34143	10.0
604.33075	30.0
618.33148	30.0
619.17816	10.0
627.34729	20.0
642.36633	120.0
648.32922	10.0
666.32538	10.0
753.41492	30.0
767.6474	10.0
769.6886	10.0
770.11072	10.0
770.57819	20.0
771.11469	20.0
771.42249	1000.0
771.94373	30.0
772.42609	110.0
775.59082	20.0

NAME:  NCGC00380892-01_C26H30O12_Cyclopenta[c]pyran-4-carboxylic acid, 1,4a,5,7a-tetrahydro-7-(hydroxymethyl)-1-[[6-O-[(2E)-3-(4-hydroxyphenyl)-1-oxo-2-propen-1-yl]-beta-D-glucopyranosyl]oxy]-, methyl ester
PRECURSORMZ:  579.17192895383
PRECURSORTYPE:  [M+FA-H]-
FORMULA:  C26H30O12
Ontology: Kingdom: Organic compounds;Superclass: Lipids and lipid;Class: Prenol lipids;Subclass: Terpene glycosides
INCHIKEY:  IVYAOUHUAWZJDB-UHFFFAOYNA-N
SMILES:  COC(=O)C1=COC(OC2OC(COC(=O)C=CC3=CC=C(O)C=C3)C(O)C(O)C2O)C2C1CC=C2CO
RETENTIONTIME:  
CCS:  -1
IONMODE:  Negative
INSTRUMENTTYPE:  
INSTRUMENT:  Maxis II HD Q-TOF Bruker
COLLISIONENERGY:  
Comment:  DB#=CCMSLIB00000849836; origin=GNPS
Num Peaks:  24
101.02404	150.0
108.04331	10.0
117.03535	70.0
119.05032	40.0
123.04641	140.0
145.02832	960.0
147.04289	40.0
163.04134	230.0
171.6655	10.0
181.03535	10.0
193.05363	30.0
205.05099	20.0
207.06313	80.0
225.07724	140.0
235.06075	10.0
265.07083	30.0
307.08118	80.0
321.11047	10.0
387.1456	10.0
483.13663	10.0
501.14044	30.0
501.1972	10.0
533.16791	1000.0
534.16425	10.0

NAME:  NCGC00385723-01_C20H26O4_(6E,10Z,14E)-6,14-Dimethyl-3-methylene-2-oxo-2,3,3a,4,5,8,9,12,13,15a-decahydrocyclotetradeca[b]furan-10-carboxylic acid
PRECURSORMZ:  375.18131186483
PRECURSORTYPE:  [M+FA-H]-
FORMULA:  C20H26O4
Ontology: Kingdom: Organic compounds;Superclass: Lipids and lipid;Class: Prenol lipids;Subclass: Terpene lactones
INCHIKEY:  SORYERHBQFTRIK-UHFFFAOYNA-N
SMILES:  CC1=CCCC(=CCCC(C)=CC2OC(=O)C(=C)C2CC1)C(O)=O
RETENTIONTIME:  
CCS:  -1
IONMODE:  Negative
INSTRUMENTTYPE:  
INSTRUMENT:  Maxis II HD Q-TOF Bruker
COLLISIONENERGY:  
Comment:  DB#=CCMSLIB00000851010; origin=GNPS
Num Peaks:  18
106.76018	40.0
135.1198	30.0
141.70973	20.0
150.15584	20.0
151.07803	30.0
166.66682	30.0
173.13406	30.0
187.1525	60.0
192.31453	10.0
195.00372	50.0
241.19559	80.0
267.17923	20.0
283.55878	20.0
285.18616	770.0
311.16171	10.0
315.0033	30.0
329.17758	1000.0
330.16785	10.0

NAME:  NCGC00381284-01_C70H112O31_Olean-12-en-28-oic acid, 3-[[O-hexopyranosyl-(1->6)-O-hexopyranosyl-(1->3)-O-hexopyranosyl-(1->3)-O-hexopyranosyl-(1->3)-6-O-[(2E)-6-hydroxy-2,6-dimethyl-1-oxo-2,7-octadien-1-yl]hexopyranosyl]oxy]-21-hydroxy-
PRECURSORMZ:  1447.71148037383
PRECURSORTYPE:  [M-H]-
FORMULA:  C70H112O31
Ontology: Kingdom: Organic compounds;Superclass: Lipids and lipid;Class: Prenol lipids;Subclass: Terpene glycosides
INCHIKEY:  NXRVFTALJPMTGK-UHFFFAOYNA-N
SMILES:  CC(=CCCC(C)(O)C=C)C(=O)OCC1OC(OC2CCC3(C)C(CCC4(C)C3CC=C3C5CC(C)(C)C(O)CC5(CCC43C)C(O)=O)C2(C)C)C(O)C(OC2OC(CO)C(O)C(OC3OC(CO)C(O)C(OC4OC(COC5OC(CO)C(O)C(O)C5O)C(O)C(O)C4O)C3O)C2O)C1O
RETENTIONTIME:  
CCS:  -1
IONMODE:  Negative
INSTRUMENTTYPE:  
INSTRUMENT:  Maxis II HD Q-TOF Bruker
COLLISIONENERGY:  
Comment:  DB#=CCMSLIB00000849359; origin=GNPS
Num Peaks:  4
1447.71069	1000.0
1448.22266	20.0
1448.71509	240.0
1449.70129	10.0

NAME:  NCGC00381053-01_C31H44O12_beta-D-Glucopyranoside, 5-(4-hydroxyphenyl)-1-[2-(4-hydroxyphenyl)ethyl]pentyl 6-O-(6-deoxy-alpha-L-mannopyranosyl)-
PRECURSORMZ:  653.28147940483
PRECURSORTYPE:  [M+FA-H]-
FORMULA:  C31H44O12
Ontology: Kingdom: Organic compounds;Superclass: Phenylpropanoids and polyketides;Class: Diarylheptanoids;Subclass: Linear diarylheptanoids
INCHIKEY:  JYQIWENZJDPRSV-UHFFFAOYNA-N
SMILES:  CC1OC(OCC2OC(OC(CCCCC3=CC=C(O)C=C3)CCC3=CC=C(O)C=C3)C(O)C(O)C2O)C(O)C(O)C1O
RETENTIONTIME:  
CCS:  -1
IONMODE:  Negative
INSTRUMENTTYPE:  
INSTRUMENT:  Maxis II HD Q-TOF Bruker
COLLISIONENERGY:  
Comment:  DB#=CCMSLIB00000849709; origin=GNPS
Num Peaks:  4
299.16449	160.0
461.21729	170.0
607.27673	1000.0
608.27661	20.0

NAME:  kaempferol-7-O-hexoside
PRECURSORMZ:  447.09328501183
PRECURSORTYPE:  [M-H]-
FORMULA:  C21H20O11
Ontology: Kingdom: Organic compounds;Superclass: Phenylpropanoids and polyketides;Class: Flavonoids;Subclass: Flavonoid glycosides
INCHIKEY:  YPWHZCPMOQGCDQ-UHFFFAOYNA-N
SMILES:  OCC1OC(OC2=CC(O)=C3C(=O)C(O)=C(OC3=C2)C2=CC=C(O)C=C2)C(O)C(O)C1O
RETENTIONTIME:  
CCS:  226.9091295
IONMODE:  Negative
INSTRUMENTTYPE:  
INSTRUMENT:  qTof
COLLISIONENERGY:  
Comment:  DB#=CCMSLIB00004678834; origin=GNPS
Num Peaks:  8
151.00381	10.0
284.03229	80.0
285.03989	440.0
285.18332	10.0
286.043	70.0
447.09341	1000.0
448.09732	210.0
449.10144	40.0

NAME:  NCGC00384675-01_C20H24O10_6H-9,4a-(Epoxymethano)-3aH,9H-cyclopenta[c]furo[2,3-b]furo[3',2':3,4]cyclopenta[1,2-d]furan-2,6,13(1H)-trione, 11-(1,1-dimethylethyl)hexahydro-1,4b,8-trihydroxy-5-methyl-, (3aR,4aR,4bR,5S,7aS,9R,11S)-
PRECURSORMZ:  423.12967052083
PRECURSORTYPE:  [M-H]-
FORMULA:  C20H24O10
Ontology: Kingdom: Organic compounds;Superclass: Lipids and lipid;Class: Prenol lipids;Subclass: Terpene lactones
INCHIKEY:  SQOJOAFXDQDRGF-UHFFFAOYNA-N
SMILES:  CC1C(=O)OC2C(O)C34C5CC(C(C)(C)C)C33C(O)C(=O)OC3OC4(C(=O)O5)C12O
RETENTIONTIME:  
CCS:  199.7078339
IONMODE:  Negative
INSTRUMENTTYPE:  
INSTRUMENT:  Maxis II HD Q-TOF Bruker
COLLISIONENERGY:  
Comment:  DB#=CCMSLIB00000851417; origin=GNPS
Num Peaks:  12
113.02586	70.0
125.02303	160.0
131.0914	60.0
149.06215	60.0
244.08636	70.0
256.1095	70.0
305.13248	60.0
367.13739	1000.0
422.23257	70.0
423.12561	480.0
423.2016	80.0
1477.19446	60.0

NAME:  NCGC00380381-01_C24H27NO9_
PRECURSORMZ:  472.16130500083
PRECURSORTYPE:  [M-H]-
FORMULA:  C24H27NO9
Ontology: Kingdom: Organic compounds;Superclass: Lipids and lipid;Class: Saccharolipids;
INCHIKEY:  YOTVUKXKJYRTAR-UHFFFAOYNA-N
SMILES:  OC1C(COC(=O)CC2C(O)=NC3=CC=CC=C23)OC(OCCC2=CC=C(O)C=C2)C(O)C1O
RETENTIONTIME:  
CCS:  -1
IONMODE:  Negative
INSTRUMENTTYPE:  
INSTRUMENT:  Maxis II HD Q-TOF Bruker
COLLISIONENERGY:  
Comment:  DB#=CCMSLIB00000850656; origin=GNPS
Num Peaks:  10
116.05112	40.0
119.04934	10.0
144.0444	190.0
146.06047	260.0
162.05528	140.0
172.03937	1000.0
190.05045	530.0
232.063	20.0
292.08926	20.0
472.16241	620.0

NAME:  NCGC00380798-01_C45H57N3O9_(3S,6R,9S,12R,15S,18R)-3,9,15-Tribenzyl-6,12,18-triisopropyl-4,10,16-trimethyl-1,7,13-trioxa-4,10,16-triazacyclooctadecane-2,5,8,11,14,17-hexone
PRECURSORMZ:  828.40768297483
PRECURSORTYPE:  [M+FA-H]-
FORMULA:  C45H57N3O9
Ontology: Kingdom: Organic compounds;Superclass: Organic acids and derivatives;Class: Peptidomimetics;Subclass: Depsipeptides
INCHIKEY:  GYSCAQFHASJXRS-UHFFFAOYNA-N
SMILES:  CC(C)C1OC(=O)C(CC2=CC=CC=C2)N(C)C(=O)C(OC(=O)C(CC2=CC=CC=C2)N(C)C(=O)C(OC(=O)C(CC2=CC=CC=C2)N(C)C1=O)C(C)C)C(C)C
RETENTIONTIME:  
CCS:  -1
IONMODE:  Negative
INSTRUMENTTYPE:  
INSTRUMENT:  Maxis II HD Q-TOF Bruker
COLLISIONENERGY:  
Comment:  DB#=CCMSLIB00000850986; origin=GNPS
Num Peaks:  45
116.05231	100.0
116.9995	40.0
117.07136	60.0
119.93491	100.0
124.07485	40.0
130.08575	130.0
154.04697	40.0
159.12486	60.0
168.06647	380.0
168.12733	20.0
176.06413	50.0
190.06465	60.0
216.09096	40.0
216.13667	190.0
217.14503	60.0
242.11566	160.0
260.13004	1000.0
261.12936	140.0
278.13785	380.0
292.97971	70.0
298.99991	60.0
302.98355	40.0
358.9707	30.0
394.97516	20.0
434.98965	40.0
440.97925	10.0
450.98462	110.0
489.97552	40.0
491.97565	50.0
494.0293	60.0
516.98218	20.0
539.97601	30.0
543.99622	40.0
565.0141	40.0
566.9743	70.0
574.00946	40.0
580.99799	30.0
605.00739	30.0
606.00952	20.0
641.97852	50.0
719.03754	40.0
765.85138	30.0
782.39282	20.0
783.66296	30.0
788.0152	20.0

NAME:  NCGC00347404-02_C15H20O8_4-Acetyl-3-hydroxy-5-methylphenyl beta-D-glucopyranoside
PRECURSORMZ:  327.10854115183
PRECURSORTYPE:  [M-H]-
FORMULA:  C15H20O8
Ontology: Kingdom: Organic compounds;Superclass: Organic oxygen compounds;Class: Organooxygen compounds;Subclass: Carbohydrates and carbohydrate conjugates
INCHIKEY:  CFJLERBDXYGARW-UHFFFAOYNA-N
SMILES:  CC(=O)C1=C(O)C=C(OC2OC(CO)C(O)C(O)C2O)C=C1C
RETENTIONTIME:  
CCS:  -1
IONMODE:  Negative
INSTRUMENTTYPE:  
INSTRUMENT:  Maxis II HD Q-TOF Bruker
COLLISIONENERGY:  
Comment:  DB#=CCMSLIB00000850085; origin=GNPS
Num Peaks:  3
123.05048	30.0
149.02042	20.0
165.05602	1000.0

NAME:  Pesticide3_Chlorfluazuron_C20H9Cl3F5N3O3_Benzamide, N-[[[3,5-dichloro-4-[[3-chloro-5-(trifluoromethyl)-2-pyridinyl]oxy]phenyl]amino]carbonyl]-2,6-difluoro-
PRECURSORMZ:  537.95568864783
PRECURSORTYPE:  [M-H]-
FORMULA:  C20H9Cl3F5N3O3
Ontology: Kingdom: Organic compounds;Superclass: Benzenoids;Class: Benzene and substituted derivatives;Subclass: N
INCHIKEY:  UISUNVFOGSJSKD-UHFFFAOYSA-N
SMILES:  OC(N=C(O)C1=C(F)C=CC=C1F)=NC1=CC(Cl)=C(OC2=C(Cl)C=C(C=N2)C(F)(F)F)C(Cl)=C1
RETENTIONTIME:  
CCS:  169.9835785
IONMODE:  Negative
INSTRUMENTTYPE:  
INSTRUMENT:  Maxis HD qTOF
COLLISIONENERGY:  
Comment:  DB#=CCMSLIB00001058309; origin=GNPS
Num Peaks:  34
78.60304	20.0
113.01811	40.0
146.98434	20.0
156.02429	40.0
174.95764	340.0
176.03529	20.0
192.02809	10.0
195.98006	90.0
196.71213	10.0
197.98909	20.0
237.00603	20.0
273.98947	10.0
284.98557	20.0
293.97491	10.0
314.98535	10.0
318.96402	30.0
338.97433	10.0
354.94189	1000.0
355.95743	20.0
379.35837	20.0
379.93515	80.0
380.92758	10.0
397.0596	20.0
402.00522	80.0
412.99814	10.0
418.06577	20.0
445.99231	150.0
473.96042	20.0
474.93729	20.0
481.96692	60.0
494.95898	40.0
517.00226	10.0
517.20593	10.0
517.95294	570.0

NAME:  NCGC00385729-01_C52H84O22_6-Deoxy-alpha-D-mannopyranosyl-(1->3)-beta-D-xylopyranosyl-(1->4)-6-deoxy-alpha-L-mannopyranosyl-(1->2)-1-O-[(2alpha,3alpha,5xi,6beta,9xi)-2,3,6,23-tetrahydroxy-28-oxoolean-12-en-28-yl]-alpha-L-arabinopyranose
PRECURSORMZ:  1059.53814789283
PRECURSORTYPE:  [M-H]-
FORMULA:  C52H84O22
Ontology: Kingdom: Organic compounds;Superclass: Lipids and lipid;Class: Prenol lipids;Subclass: Triterpenoids
INCHIKEY:  FCEXYTCUWAIJHN-UHFFFAOYNA-N
SMILES:  CC1OC(OC2C(O)COC(OC3C(C)OC(OC4C(O)C(O)COC4OC(=O)C45CCC(C)(C)CC4C4=CCC6C7(C)CC(O)C(O)C(C)(CO)C7C(O)CC6(C)C4(C)CC5)C(O)C3O)C2O)C(O)C(O)C1O
RETENTIONTIME:  
CCS:  -1
IONMODE:  Negative
INSTRUMENTTYPE:  
INSTRUMENT:  Maxis II HD Q-TOF Bruker
COLLISIONENERGY:  
Comment:  DB#=CCMSLIB00000851196; origin=GNPS
Num Peaks:  37
83.01707	10.0
85.03006	50.0
89.02539	20.0
97.02763	10.0
111.00893	20.0
113.02493	60.0
119.03785	10.0
127.04084	10.0
131.03526	120.0
135.97046	20.0
136.97456	20.0
137.02254	20.0
143.03661	40.0
144.95117	10.0
145.04912	70.0
163.05734	40.0
187.06804	10.0
205.07179	70.0
263.29013	10.0
277.09982	20.0
301.1059	10.0
337.11563	160.0
361.11542	10.0
379.12695	20.0
381.13901	30.0
423.15143	70.0
441.16321	30.0
482.61392	10.0
483.17346	430.0
484.17712	50.0
503.33951	1000.0
504.34735	80.0
555.19604	40.0
1059.5365	400.0
1059.62329	30.0
1060.54089	130.0
1061.55103	20.0

NAME:  NCGC00381207-01_C20H28O5_2(5H)-Furanone, 3-[2-[(1R,4aS,5R,6R,8aS)-decahydro-6-hydroxy-5-(hydroxymethyl)-5,8a-dimethyl-2-methylene-1-naphthalenyl]acetyl]-
PRECURSORMZ:  393.19187654983
PRECURSORTYPE:  [M+FA-H]-
FORMULA:  C20H28O5
Ontology: Kingdom: Organic compounds;Superclass: Lipids and lipid;Class: Prenol lipids;Subclass: Terpene lactones
INCHIKEY:  KPJIGLLMDBHXEB-UHFFFAOYNA-N
SMILES:  CC1(CO)C(O)CCC2(C)C(CC(=O)C3=CCOC3=O)C(=C)CCC12
RETENTIONTIME:  
CCS:  -1
IONMODE:  Negative
INSTRUMENTTYPE:  
INSTRUMENT:  Maxis II HD Q-TOF Bruker
COLLISIONENERGY:  
Comment:  DB#=CCMSLIB00000850787; origin=GNPS
Num Peaks:  8
182.16579	10.0
255.16888	20.0
285.18384	10.0
303.19763	1000.0
303.27167	20.0
347.18832	760.0
393.19498	20.0
1679.54272	10.0

NAME:  NCGC00380418-01_C30H46O8_(1alpha,2alpha,3beta,5xi,9xi,13xi,14xi,18xi)-1,2,3,22,23,29-Hexahydroxy-13,27-cycloolean-11-en-28-oic acid
PRECURSORMZ:  579.31747098883
PRECURSORTYPE:  [M+FA-H]-
FORMULA:  C30H46O8
Ontology: Kingdom: Organic compounds;Superclass: Lipids and lipid;Class: Prenol lipids;Subclass: Sesterterpenoids
INCHIKEY:  IXIMDUAPYHOVHL-UHFFFAOYNA-N
SMILES:  CC1(CO)CC(O)C2(CCC34CC3(C=CC3C5(C)C(O)C(O)C(O)C(C)(CO)C5CCC43C)C2C1)C(O)=O
RETENTIONTIME:  
CCS:  -1
IONMODE:  Negative
INSTRUMENTTYPE:  
INSTRUMENT:  Maxis II HD Q-TOF Bruker
COLLISIONENERGY:  
Comment:  DB#=CCMSLIB00000850292; origin=GNPS
Num Peaks:  3
485.2944	60.0
515.30554	10.0
533.31311	1000.0

NAME:  NCGC00381184-01_C15H20O9_
PRECURSORMZ:  389.10893477183
PRECURSORTYPE:  [M+FA-H]-
FORMULA:  C15H20O9
Ontology: Kingdom: Organic compounds;Superclass: Organic oxygen compounds;Class: Organooxygen compounds;Subclass: Carbohydrates and carbohydrate conjugates
INCHIKEY:  APQFDHZCDLNMLA-UHFFFAOYNA-N
SMILES:  OCC1OC(OC2=C(CCC(O)=O)C=CC=C2O)C(O)C(O)C1O
RETENTIONTIME:  
CCS:  -1
IONMODE:  Negative
INSTRUMENTTYPE:  
INSTRUMENT:  Maxis II HD Q-TOF Bruker
COLLISIONENERGY:  
Comment:  DB#=CCMSLIB00000851250; origin=GNPS
Num Peaks:  12
95.46396	30.0
104.35162	30.0
137.06052	210.0
163.03752	50.0
180.06142	20.0
180.32095	20.0
180.74965	10.0
180.95479	30.0
181.05118	1000.0
343.10352	790.0
346.43414	10.0
353.75342	20.0

NAME:  NCGC00381008-01_C58H96O27_alpha-L-Arabinopyranoside, (3beta,5xi,9xi,16alpha,18xi)-13,28-epoxy-23-hydroxy-16-(pentopyranosyloxy)oleanan-3-yl O-beta-D-glucopyranosyl-(1->4)-O-[O-beta-D-glucopyranosyl-(1->4)-beta-D-glucopyranosyl-(1->2)]-
PRECURSORMZ:  1223.60662137883
PRECURSORTYPE:  [M-H]-
FORMULA:  C58H96O27
Ontology: Kingdom: Organic compounds;Superclass: Lipids and lipid;Class: Prenol lipids;Subclass: Triterpenoids
INCHIKEY:  ANPBVQUWPQJORQ-UHFFFAOYNA-N
SMILES:  CC1(C)CCC23COC4(CCC5C6(C)CCC(OC7OCC(OC8OC(CO)C(O)C(O)C8O)C(O)C7OC7OC(CO)C(OC8OC(CO)C(O)C(O)C8O)C(O)C7O)C(C)(CO)C6CCC5(C)C4(C)CC2OC2OCC(O)C(O)C2O)C3C1
RETENTIONTIME:  
CCS:  -1
IONMODE:  Negative
INSTRUMENTTYPE:  
INSTRUMENT:  Maxis II HD Q-TOF Bruker
COLLISIONENERGY:  
Comment:  DB#=CCMSLIB00000849725; origin=GNPS
Num Peaks:  84
85.03275	70.0
89.02404	40.0
97.02793	30.0
99.01189	20.0
101.02288	60.0
111.00819	20.0
113.02558	160.0
119.03339	40.0
123.005	20.0
123.04364	20.0
124.04207	10.0
125.02158	20.0
127.04074	20.0
131.03256	120.0
132.03401	10.0
141.01595	20.0
143.03455	170.0
147.02576	20.0
149.048	60.0
155.03688	30.0
161.04515	100.0
162.04866	10.0
165.05989	10.0
167.03119	10.0
177.03503	10.0
179.05785	120.0
191.0536	30.0
196.02808	20.0
200.97739	10.0
217.00409	20.0
221.07338	30.0
237.00577	30.0
245.07095	20.0
247.09106	30.0
249.0675	20.0
257.07513	10.0
263.0809	20.0
275.08017	110.0
300.03525	20.0
305.01721	20.0
305.08719	20.0
315.48291	20.0
393.10806	10.0
395.13235	20.0
425.3576	20.0
438.91898	20.0
442.58694	10.0
455.13699	20.0
470.42807	20.0
471.39636	10.0
473.32379	20.0
517.34595	20.0
569.18164	20.0
573.38428	10.0
574.91156	10.0
605.40259	90.0
606.422	40.0
647.42914	10.0
748.15759	10.0
749.43237	20.0
767.45941	110.0
768.51404	10.0
899.47833	10.0
911.49829	40.0
929.51086	70.0
1043.55347	20.0
1054.99927	10.0
1061.55762	50.0
1063.58032	10.0
1065.51794	20.0
1073.61975	10.0
1091.47327	20.0
1091.56018	210.0
1092.58533	70.0
1114.55957	10.0
1179.53088	10.0
1221.91968	30.0
1222.14746	10.0
1223.60754	1000.0
1224.36926	10.0
1224.6051	470.0
1225.60352	90.0
1226.0376	10.0
1863.73853	20.0

NAME:  NCGC00380468-01_C27H36O14_1,3-Cyclohexanedione, 5-hydroxy-6-(2-hydroxy-2-methylpropylidene)-2,2,4,4-tetramethyl-5-[[6-O-(3,4,5-trihydroxybenzoyl)-beta-D-glucopyranosyl]oxy]-, (6Z)-
PRECURSORMZ:  583.20322938683
PRECURSORTYPE:  [M-H]-
FORMULA:  C27H36O14
Ontology: Kingdom: Organic compounds;Superclass: Benzenoids;Class: Benzene and substituted derivatives;Subclass: Benzoic acids and derivatives
INCHIKEY:  XYLREKXEZFHHSV-UHFFFAOYNA-N
SMILES:  CC(C)(O)C=C1C(=O)C(C)(C)C(=O)C(C)(C)C1(O)OC1OC(COC(=O)C2=CC(O)=C(O)C(O)=C2)C(O)C(O)C1O
RETENTIONTIME:  
CCS:  -1
IONMODE:  Negative
INSTRUMENTTYPE:  
INSTRUMENT:  Maxis II HD Q-TOF Bruker
COLLISIONENERGY:  
Comment:  DB#=CCMSLIB00000850154; origin=GNPS
Num Peaks:  33
107.01102	10.0
123.00764	70.0
124.01603	50.0
125.02375	70.0
139.0016	90.0
140.00969	40.0
141.0186	50.0
151.00276	40.0
163.00317	10.0
166.99788	290.0
167.10152	10.0
168.00584	90.0
169.01308	380.0
177.03751	30.0
181.0141	10.0
190.99712	20.0
209.00771	20.0
211.02379	240.0
241.03337	70.0
269.02887	80.0
270.03882	80.0
271.04584	1000.0
272.05054	10.0
297.06113	20.0
313.05246	20.0
329.06046	30.0
330.05997	20.0
331.06631	290.0
525.16119	20.0
539.21094	220.0
565.1864	50.0
566.18982	20.0
583.20581	180.0

NAME:  NCGC00381215-01_C36H48O19_beta-D-Glucopyranoside, 2-(3,4-dimethoxyphenyl)ethyl 3-O-(6-deoxy-alpha-L-mannopyranosyl)-4-O-[(2E)-3-(3,4-dihydroxyphenyl)-1-oxo-2-propen-1-yl]-6-O-[(2S,3R,4R)-tetrahydro-3,4-dihydroxy-4-(hydroxymethyl)-2-furanyl]-
PRECURSORMZ:  783.27170287383
PRECURSORTYPE:  [M-H]-
FORMULA:  C36H48O19
Ontology: Kingdom: Organic compounds;Superclass: Organic oxygen compounds;Class: Organooxygen compounds;Subclass: Carbohydrates and carbohydrate conjugates
INCHIKEY:  NVKSXODNGLJJHQ-UHFFFAOYNA-N
SMILES:  COC1=C(OC)C=C(CCOC2OC(COC3OCC(O)(CO)C3O)C(OC(=O)C=CC3=CC(O)=C(O)C=C3)C(OC3OC(C)C(O)C(O)C3O)C2O)C=C1
RETENTIONTIME:  
CCS:  -1
IONMODE:  Negative
INSTRUMENTTYPE:  
INSTRUMENT:  Maxis II HD Q-TOF Bruker
COLLISIONENERGY:  
Comment:  DB#=CCMSLIB00000849908; origin=GNPS
Num Peaks:  18
125.02434	10.0
132.02248	30.0
134.03622	60.0
149.05493	50.0
160.01585	290.0
161.02383	10.0
175.03955	1000.0
178.02827	10.0
193.05032	240.0
221.0744	10.0
329.12265	10.0
443.1593	20.0
461.16653	30.0
475.18433	20.0
589.21655	50.0
607.224	220.0
783.27234	470.0
784.27679	40.0

NAME:  NCGC00169614-02_C24H21N5O4_(1S,3S,12S,14R,27S)-12-Hydroxy-1,3-dimethyl-2,5,15,23,25-pentaazaheptacyclo[12.10.2.1~2,5~.0~6,11~.0~12,27~.0~15,24~.0~17,22~]heptacosa-6,8,10,17,19,21,23-heptaene-4,16,26-trione
PRECURSORMZ:  442.15207772383
PRECURSORTYPE:  [M-H]-
FORMULA:  C24H21N5O4
Ontology: Kingdom: Organic compounds;Superclass: Organoheterocyclic compounds;Class: Diazanaphthalenes;Subclass: Benzodiazines
INCHIKEY:  YYLAARMDRFESOL-UHFFFAOYNA-N
SMILES:  [H]C12CC3(O)C4N(C(C)C(=O)N4C4=CC=CC=C34)C(C)(N=C1O)C1=NC3=CC=CC=C3C(=O)N21
RETENTIONTIME:  
CCS:  208.217099
IONMODE:  Negative
INSTRUMENTTYPE:  
INSTRUMENT:  Maxis II HD Q-TOF Bruker
COLLISIONENERGY:  
Comment:  DB#=CCMSLIB00000850046; origin=GNPS
Num Peaks:  39
105.80592	20.0
128.05357	40.0
144.07863	20.0
144.53394	10.0
145.03915	900.0
159.03133	30.0
161.03419	10.0
170.0368	60.0
185.03755	70.0
186.06813	90.0
188.04541	20.0
188.07756	20.0
199.0537	160.0
200.09793	40.0
212.08107	20.0
214.58116	40.0
214.65459	20.0
224.09755	20.0
225.0735	20.0
226.06096	90.0
238.0589	30.0
238.19627	20.0
238.67491	10.0
238.98862	20.0
240.07851	1000.0
241.08751	10.0
253.06017	30.0
282.08777	10.0
286.09979	10.0
314.0907	20.0
339.10809	20.0
373.13226	10.0
383.12222	40.0
401.1265	120.0
441.87805	10.0
442.15265	980.0
442.24048	30.0
443.16739	10.0
674.86096	20.0

NAME:  NCGC00380616-01_C28H39NO7_Spiro[2H-furo[2,3-e]isoindole-2,1'(2'H)-naphthalene]-7(3H)-acetic acid, 3',4',4'a,5',6,6',7',8,8',8'a-decahydro-4,6',7'-trihydroxy-2',5',5',8'a-tetramethyl-alpha-(1-methylethyl)-6-oxo-, (alphaS,2R,2'R,6'S,7'R,8'aS)-
PRECURSORMZ:  500.26537614783
PRECURSORTYPE:  [M-H]-
FORMULA:  C28H39NO7
Ontology: Kingdom: Organic compounds;Superclass: Organic acids and derivatives;Class: Carboxylic acids and derivatives;Subclass: Amino acids
INCHIKEY:  JJWKFIISZGZPHY-UHFFFAOYNA-N
SMILES:  CC(C)C(N1CC2=C3OC4(CC3=C(O)C=C2C1=O)C(C)CCC1C(C)(C)C(O)C(O)CC41C)C(O)=O
RETENTIONTIME:  
CCS:  218.6255243
IONMODE:  Negative
INSTRUMENTTYPE:  
INSTRUMENT:  Maxis II HD Q-TOF Bruker
COLLISIONENERGY:  
Comment:  DB#=CCMSLIB00000849267; origin=GNPS
Num Peaks:  11
174.02226	10.0
190.04295	20.0
227.69025	10.0
231.09109	20.0
233.09966	30.0
265.09366	30.0
438.26587	70.0
456.27621	280.0
470.25476	30.0
500.26614	1000.0
1744.23669	10.0

NAME:  NCGC00385286-01_C25H28O13_(1S,4aS,7R,7aS)-1-(beta-D-Glucopyranosyloxy)-7-hydroxy-7-({[(2E)-3-(4-hydroxyphenyl)-2-propenoyl]oxy}methyl)-1,4a,7,7a-tetrahydrocyclopenta[c]pyran-4-carboxylic acid
PRECURSORMZ:  581.15119350983
PRECURSORTYPE:  [M+FA-H]-
FORMULA:  C25H28O13
Ontology: Kingdom: Organic compounds;Superclass: Lipids and lipid;Class: Prenol lipids;Subclass: Terpene glycosides
INCHIKEY:  WJPRKOJNQIZCGY-UHFFFAOYNA-N
SMILES:  OCC1OC(OC2OC=C(C3C=CC(O)(COC(=O)C=CC4=CC=C(O)C=C4)C23)C(O)=O)C(O)C(O)C1O
RETENTIONTIME:  
CCS:  -1
IONMODE:  Negative
INSTRUMENTTYPE:  
INSTRUMENT:  Maxis II HD Q-TOF Bruker
COLLISIONENERGY:  
Comment:  DB#=CCMSLIB00000849322; origin=GNPS
Num Peaks:  22
113.02203	20.0
119.04916	130.0
121.02744	20.0
129.03212	30.0
135.04298	20.0
145.02742	70.0
147.04404	440.0
162.03127	20.0
163.03854	1000.0
165.05426	130.0
177.05547	20.0
179.05469	20.0
189.05229	10.0
191.03375	340.0
267.10251	10.0
311.09171	150.0
329.10248	50.0
371.09616	150.0
373.09305	110.0
389.10333	10.0
491.15778	20.0
535.14459	670.0

NAME:  NCGC00385193-01_C47H74O17_Olean-12-en-28-oic acid, 3-[[O-6-deoxy-alpha-L-mannopyranosyl-(1->3)-O-[beta-D-xylopyranosyl-(1->2)]-beta-D-glucopyranuronosyl]oxy]-, (3beta,5xi,9xi,18xi)-
PRECURSORMZ:  909.48532447083
PRECURSORTYPE:  [M-H]-
FORMULA:  C47H74O17
Ontology: Kingdom: Organic compounds;Superclass: Lipids and lipid;Class: Prenol lipids;Subclass: Terpene glycosides
INCHIKEY:  CLQAMCIMWDLXGK-UHFFFAOYNA-N
SMILES:  CC1OC(OC2C(O)C(OC(OC3CCC4(C)C(CCC5(C)C4CC=C4C6CC(C)(C)CCC6(CCC54C)C(O)=O)C3(C)C)C2OC2OCC(O)C(O)C2O)C(O)=O)C(O)C(O)C1O
RETENTIONTIME:  
CCS:  294.8674012
IONMODE:  Negative
INSTRUMENTTYPE:  
INSTRUMENT:  Maxis II HD Q-TOF Bruker
COLLISIONENERGY:  
Comment:  DB#=CCMSLIB00000850553; origin=GNPS
Num Peaks:  20
85.02961	50.0
99.00791	50.0
101.02418	10.0
113.0229	80.0
131.03316	30.0
157.01192	20.0
453.33762	50.0
455.35159	90.0
497.36606	10.0
523.3811	50.0
537.35352	20.0
551.37628	20.0
569.38702	130.0
587.40289	20.0
613.37451	70.0
683.41943	40.0
891.47516	10.0
909.48773	1000.0
910.4895	240.0
911.49036	10.0

NAME:  NCGC00180409-03_C27H36O6_Benzoic acid, 4-hydroxy-, (3R,4S,8S,8aS)-1,2,3,3a,4,5,8,8a-octahydro-3-hydroxy-6,8a-dimethyl-3-(1-methylethyl)-8-[[(2Z)-2-methyl-1-oxo-2-buten-1-yl]oxy]-4-azulenyl ester
PRECURSORMZ:  455.24391242683
PRECURSORTYPE:  [M-H]-
FORMULA:  C27H36O6
Ontology: Kingdom: Organic compounds;Superclass: Lipids and lipid;Class: Prenol lipids;Subclass: Sesquiterpenoids
INCHIKEY:  NUXKLJINNAOFAH-UHFFFAOYNA-N
SMILES:  CC=C(C)C(=O)OC1C=C(C)CC(OC(=O)C2=CC=C(O)C=C2)C2C1(C)CCC2(O)C(C)C
RETENTIONTIME:  
CCS:  219.6205469
IONMODE:  Negative
INSTRUMENTTYPE:  
INSTRUMENT:  Maxis II HD Q-TOF Bruker
COLLISIONENERGY:  
Comment:  DB#=CCMSLIB00000851342; origin=GNPS
Num Peaks:  10
99.04395	30.0
135.96071	10.0
136.01622	90.0
137.02477	460.0
217.16104	30.0
355.19089	470.0
358.4184	10.0
453.99283	20.0
455.24371	1000.0
458.89404	10.0

NAME:  Pesticide4_Fludioxinil_C12H6F2N2O2_4-(2,2-Difluoro-1,3-benzodioxol-4-yl)-1H-pyrrole-3-carbonitrile
PRECURSORMZ:  247.03245731483
PRECURSORTYPE:  [M-H]-
FORMULA:  C12H6F2N2O2
Ontology: Kingdom: Organic compounds;Superclass: Organoheterocyclic compounds;Class: Benzodioxoles;
INCHIKEY:  MUJOIMFVNIBMKC-UHFFFAOYSA-N
SMILES:  FC1(F)OC2=CC=CC(=C2O1)C1=CNC=C1C#N
RETENTIONTIME:  
CCS:  147.5326298
IONMODE:  Negative
INSTRUMENTTYPE:  
INSTRUMENT:  Q-Exactive Plus Orbitrap Res 70k
COLLISIONENERGY:  
Comment:  DB#=CCMSLIB00001058348; origin=GNPS
Num Peaks:  4
126.0351	10.0
180.03311	30.0
181.04091	40.0
247.03261	1000.0

NAME:  NCGC00380984-01_C33H34N4O6_
PRECURSORMZ:  581.24055837883
PRECURSORTYPE:  [M-H]-
FORMULA:  C33H34N4O6
Ontology: Kingdom: Organic compounds;Superclass: Organoheterocyclic compounds;Class: Indoles and derivatives;Subclass: Pyrroloindoles
INCHIKEY:  VIKRIYAAOWJXCT-UHFFFAOYNA-N
SMILES:  COC1C2(O)N(C(=O)C3=CC4=C(NC5=CC=CC=C45)C(C)(C)C=CN3C2=O)C23C(CO)C(C)(C)N2C2=CC=CC=C2C13O
RETENTIONTIME:  
CCS:  248.3969506
IONMODE:  Negative
INSTRUMENTTYPE:  
INSTRUMENT:  Maxis II HD Q-TOF Bruker
COLLISIONENERGY:  
Comment:  DB#=CCMSLIB00000850379; origin=GNPS
Num Peaks:  18
117.01998	20.0
180.69469	20.0
247.07841	10.0
288.09619	10.0
290.07089	10.0
291.11725	20.0
318.12189	70.0
318.16034	10.0
323.13724	20.0
332.10181	200.0
333.11844	10.0
346.1217	20.0
347.13034	270.0
348.14819	10.0
418.14441	10.0
563.23053	50.0
581.24158	1000.0
582.24115	20.0

NAME:  NCGC00380901-01_C23H24O10S_
PRECURSORMZ:  491.10174169483
PRECURSORTYPE:  [M-H]-
FORMULA:  C23H24O10S
Ontology: Kingdom: Organic compounds;Superclass: Benzenoids;Class: Phenols;
INCHIKEY:  HLYSUPRTSCOCTI-UHFFFAOYNA-N
SMILES:  CC1=C2C(C3OC(=O)C(C[S+](O)([O-])=O)C3C(C1)OC(=O)CC1=CC=C(O)C=C1)C(CO)=CC2=O
RETENTIONTIME:  
CCS:  -1
IONMODE:  Negative
INSTRUMENTTYPE:  
INSTRUMENT:  Maxis II HD Q-TOF Bruker
COLLISIONENERGY:  
Comment:  DB#=CCMSLIB00000851092; origin=GNPS
Num Peaks:  28
80.96618	60.0
107.0482	30.0
119.04799	10.0
149.05791	10.0
151.03918	500.0
151.0742	10.0
167.08273	10.0
169.10155	40.0
171.08121	20.0
173.06091	10.0
183.08206	20.0
184.08173	10.0
185.09549	40.0
188.047	10.0
195.07968	40.0
197.05914	30.0
198.0696	10.0
201.0936	20.0
213.09213	740.0
231.10179	30.0
242.05519	70.0
255.06841	10.0
257.08246	1000.0
275.09171	140.0
339.0538	80.0
357.065	630.0
409.12665	210.0
491.10199	510.0

NAME:  NCGC00380763-01_C48H76O19_(3beta,5xi,9xi,22beta)-22,24-Dihydroxyolean-12-en-3-yl 6-deoxy-alpha-L-mannopyranosyl-(1->2)-beta-D-galactopyranuronosyl-(1->2)-beta-D-glucopyranosiduronic acid
PRECURSORMZ:  1001.49628277483
PRECURSORTYPE:  [M+FA-H]-
FORMULA:  C48H76O19
Ontology: Kingdom: Organic compounds;Superclass: Lipids and lipid;Class: Prenol lipids;Subclass: Terpene glycosides
INCHIKEY:  SZHUMUJGHFQABW-UHFFFAOYNA-N
SMILES:  CC1OC(OC2C(O)C(O)C(OC2OC2C(O)C(O)C(OC2OC2CCC3(C)C(CCC4(C)C3CC=C3C5CC(C)(C)CC(O)C5(C)CCC43C)C2(C)CO)C(O)=O)C(O)=O)C(O)C(O)C1O
RETENTIONTIME:  
CCS:  -1
IONMODE:  Negative
INSTRUMENTTYPE:  
INSTRUMENT:  Maxis II HD Q-TOF Bruker
COLLISIONENERGY:  
Comment:  DB#=CCMSLIB00000850400; origin=GNPS
Num Peaks:  63
83.45866	10.0
85.03082	40.0
87.01055	10.0
95.0188	20.0
99.01685	20.0
101.02235	70.0
113.02199	60.0
125.05852	40.0
127.04309	30.0
131.03473	20.0
133.01089	50.0
137.02046	20.0
143.0356	40.0
145.04468	20.0
146.99213	20.0
148.98747	10.0
157.01308	30.0
173.04633	40.0
175.02399	20.0
183.03006	10.0
195.02632	10.0
204.86658	10.0
205.0731	20.0
218.98718	20.0
233.06114	20.0
238.3869	20.0
240.13443	10.0
259.08267	50.0
271.04324	10.0
282.15488	20.0
289.03186	20.0
290.00577	10.0
321.08304	80.0
339.09851	80.0
343.06427	20.0
382.09561	10.0
403.06006	20.0
435.11765	40.0
437.32806	20.0
446.38937	20.0
453.12439	10.0
468.23764	20.0
488.25409	30.0
497.11597	450.0
498.11639	40.0
508.18393	20.0
541.08667	10.0
543.06952	20.0
576.20972	20.0
615.37561	10.0
633.38867	20.0
875.49371	10.0
893.45435	10.0
955.49304	1000.0
956.48889	220.0
957.50232	70.0
977.46521	20.0
992.17529	10.0
999.46796	70.0
1000.44299	20.0
1000.50049	10.0
1002.47882	20.0
1145.41394	20.0

NAME:  NCGC00169103-03_C19H18O6_Benz[3,4]anthra[1,2-b]oxirene-5,6-dione, 1a,2,3,4,5b,11,11a,11b-octahydro-10,11,11a-trihydroxy-3-methyl-
PRECURSORMZ:  341.10306184783
PRECURSORTYPE:  [M-H]-
FORMULA:  C19H18O6
Ontology: ;;;
INCHIKEY:  KALVKBCVJGXOKE-UHFFFAOYNA-N
SMILES:  CC1CC(=O)C2=C(C1)C1OC1C1(O)C(O)C3=C(C=CC=C3O)C(=O)C21
RETENTIONTIME:  
CCS:  185.9810526
IONMODE:  Negative
INSTRUMENTTYPE:  
INSTRUMENT:  Maxis II HD Q-TOF Bruker
COLLISIONENERGY:  
Comment:  DB#=CCMSLIB00000851211; origin=GNPS
Num Peaks:  37
135.04691	90.0
143.12184	60.0
145.04361	40.0
149.02098	510.0
171.42091	60.0
172.01654	90.0
175.04051	110.0
175.07484	360.0
176.90028	90.0
177.05562	60.0
191.07327	380.0
207.03769	80.0
208.04993	60.0
235.08191	80.0
236.09026	70.0
249.07881	50.0
249.10109	50.0
253.05762	50.0
263.03784	60.0
264.0748	70.0
265.09323	60.0
266.10562	130.0
267.10822	160.0
277.08862	180.0
278.09171	100.0
279.10199	270.0
281.08502	70.0
290.06125	40.0
293.07935	70.0
294.09543	150.0
295.09796	1000.0
297.09937	60.0
322.67984	40.0
322.74442	70.0
323.08914	980.0
325.75082	50.0
341.10291	830.0

NAME:  Vanillin
PRECURSORMZ:  151.04006766583
PRECURSORTYPE:  [M-H]-
FORMULA:  C8H8O3
Ontology: Kingdom: Organic compounds;Superclass: Benzenoids;Class: Phenols;Subclass: Methoxyphenols
INCHIKEY:  MWOOGOJBHIARFG-UHFFFAOYSA-N
SMILES:  COC1=C(O)C=CC(C=O)=C1
RETENTIONTIME:  
CCS:  128.7804142
IONMODE:  Negative
INSTRUMENTTYPE:  
INSTRUMENT:  Orbitrap
COLLISIONENERGY:  
Comment:  DB#=CCMSLIB00003142440; origin=GNPS
Num Peaks:  5
69.97718	20.0
106.9919	90.0
136.01553	1000.0
150.98155	20.0
151.03909	260.0

NAME:  NCGC00380668-01_C48H78O18_(3beta,5xi,9xi,22beta)-22,24-Dihydroxyolean-12-en-3-yl 6-deoxy-alpha-L-mannopyranosyl-(1->2)-beta-D-galactopyranosyl-(1->2)-beta-D-glucopyranosiduronic acid
PRECURSORMZ:  987.51701821983
PRECURSORTYPE:  [M+FA-H]-
FORMULA:  C48H78O18
Ontology: Kingdom: Organic compounds;Superclass: Lipids and lipid;Class: Prenol lipids;Subclass: Terpene glycosides
INCHIKEY:  PTDAHAWQAGSZDD-UHFFFAOYNA-N
SMILES:  CC1OC(OC2C(O)C(O)C(CO)OC2OC2C(O)C(O)C(OC2OC2CCC3(C)C(CCC4(C)C3CC=C3C5CC(C)(C)CC(O)C5(C)CCC43C)C2(C)CO)C(O)=O)C(O)C(O)C1O
RETENTIONTIME:  
CCS:  -1
IONMODE:  Negative
INSTRUMENTTYPE:  
INSTRUMENT:  Maxis II HD Q-TOF Bruker
COLLISIONENERGY:  
Comment:  DB#=CCMSLIB00000849764; origin=GNPS
Num Peaks:  15
85.02969	10.0
99.00851	30.0
101.02325	20.0
113.0242	50.0
115.04089	10.0
131.03442	30.0
143.03462	40.0
157.01501	20.0
161.04547	10.0
163.06027	20.0
205.07155	70.0
615.39197	20.0
941.51282	1000.0
942.5166	260.0
943.51648	10.0

NAME:  NCGC00380505-01_C23H30O12_3,4-Dihydroxy-5-[(6-O-{[4-(2-hydroxy-2-propanyl)-1-cyclohexen-1-yl]carbonyl}-beta-D-glucopyranosyl)oxy]benzoic acid
PRECURSORMZ:  497.16644995383
PRECURSORTYPE:  [M-H]-
FORMULA:  C23H30O12
Ontology: Kingdom: Organic compounds;Superclass: Phenylpropanoids and polyketides;Class: Tannins;Subclass: Hydrolyzable tannins
INCHIKEY:  QIYRQEHCCPTEPY-UHFFFAOYNA-N
SMILES:  CC(C)(O)C1CCC(=CC1)C(=O)OCC1OC(OC2=CC(=CC(O)=C2O)C(O)=O)C(O)C(O)C1O
RETENTIONTIME:  
CCS:  221.4517097
IONMODE:  Negative
INSTRUMENTTYPE:  
INSTRUMENT:  Maxis II HD Q-TOF Bruker
COLLISIONENERGY:  
Comment:  DB#=CCMSLIB00000850115; origin=GNPS
Num Peaks:  16
79.02019	10.0
123.00723	30.0
124.01815	30.0
125.02427	260.0
139.00885	10.0
168.00641	150.0
168.94688	10.0
169.01363	1000.0
183.10428	20.0
193.02226	10.0
224.04477	10.0
243.81465	10.0
269.13397	10.0
313.05811	40.0
331.06793	140.0
497.16733	700.0

NAME:  NCGC00385256-01_C51H84O23_(3beta,8xi,9xi,14xi,16xi)-3-{[6-Deoxy-alpha-L-mannopyranosyl-(1->2)-[6-deoxy-alpha-L-mannopyranosyl-(1->4)]-beta-D-glucopyranosyl]oxy}-17,22-dihydroxyfurost-5-en-26-yl beta-D-glucopyranoside
PRECURSORMZ:  1109.53854151283
PRECURSORTYPE:  [M+FA-H]-
FORMULA:  C51H84O23
Ontology: Kingdom: Organic compounds;Superclass: Lipids and lipid;Class: Steroids and steroid derivatives;Subclass: Steroidal glycosides
INCHIKEY:  BFRBGRATLDMPFZ-UHFFFAOYNA-N
SMILES:  CC(CCC1(O)OC2CC3C4CC=C5CC(CCC5(C)C4CCC3(C)C2(O)C1C)OC1OC(CO)C(OC2OC(C)C(O)C(O)C2O)C(O)C1OC1OC(C)C(O)C(O)C1O)COC1OC(CO)C(O)C(O)C1O
RETENTIONTIME:  
CCS:  -1
IONMODE:  Negative
INSTRUMENTTYPE:  
INSTRUMENT:  Maxis II HD Q-TOF Bruker
COLLISIONENERGY:  
Comment:  DB#=CCMSLIB00000849334; origin=GNPS
Num Peaks:  25
89.0243	20.0
101.02351	50.0
113.02308	40.0
119.03412	30.0
131.03378	20.0
143.03319	40.0
161.04428	60.0
163.06065	40.0
179.05493	20.0
205.07167	50.0
247.08305	20.0
289.09256	10.0
305.15982	140.0
306.16281	20.0
611.3089	170.0
612.31476	40.0
757.36749	1000.0
758.37128	270.0
759.37451	30.0
899.46436	10.0
1045.52417	110.0
1046.52686	40.0
1063.53333	320.0
1064.53687	110.0
1065.54285	20.0

NAME:  NCGC00347538-02_C21H26O5_15,16-Dimethoxytricyclo[12.3.1.1~2,6~]nonadeca-1(18),2(19),3,5,14,16-hexaene-3,9,17-triol
PRECURSORMZ:  357.17074748483
PRECURSORTYPE:  [M-H]-
FORMULA:  C21H26O5
Ontology: Kingdom: Organic compounds;Superclass: Phenylpropanoids and polyketides;Class: Diarylheptanoids;Subclass: Cyclic diarylheptanoids
INCHIKEY:  UTKZLHKWTSXNQI-UHFFFAOYNA-N
SMILES:  COC1=C2CCCCC(O)CCC3=CC(=C(O)C=C3)C(=C2)C(O)=C1OC
RETENTIONTIME:  
CCS:  -1
IONMODE:  Negative
INSTRUMENTTYPE:  
INSTRUMENT:  Maxis II HD Q-TOF Bruker
COLLISIONENERGY:  
Comment:  DB#=CCMSLIB00000850284; origin=GNPS
Num Peaks:  18
158.03693	40.0
173.12613	10.0
204.99043	30.0
213.04831	40.0
227.14392	140.0
230.06308	50.0
271.1409	10.0
299.12744	50.0
309.11484	30.0
311.21909	20.0
327.12283	490.0
341.67297	20.0
342.14508	390.0
342.31427	40.0
355.89154	20.0
357.1687	1000.0
359.59048	10.0
974.08905	30.0

NAME:  NCGC00380721-01_C20H30O4_2-Hydroxy-4,5',8a'-trimethyl-1'-oxo-4-vinyloctahydro-1'H-spiro[cyclopentane-1,2'-naphthalene]-5'-carboxylic acid
PRECURSORMZ:  379.21261199383
PRECURSORTYPE:  [M+FA-H]-
FORMULA:  C20H30O4
Ontology: Kingdom: Organic compounds;Superclass: Organic oxygen compounds;Class: Organooxygen compounds;Subclass: Alcohols and polyols
INCHIKEY:  JSXYBZIRJXMIMK-UHFFFAOYNA-N
SMILES:  CC1(CC(O)C2(C1)CCC1C(C)(CCCC1(C)C2=O)C(O)=O)C=C
RETENTIONTIME:  
CCS:  -1
IONMODE:  Negative
INSTRUMENTTYPE:  
INSTRUMENT:  Maxis II HD Q-TOF Bruker
COLLISIONENERGY:  
Comment:  DB#=CCMSLIB00000850904; origin=GNPS
Num Peaks:  4
235.13573	30.0
266.89819	10.0
289.21365	20.0
333.20831	1000.0

NAME:  NCGC00381184-01_C15H20O9_
PRECURSORMZ:  343.10345577183
PRECURSORTYPE:  [M-H]-
FORMULA:  C15H20O9
Ontology: Kingdom: Organic compounds;Superclass: Organic oxygen compounds;Class: Organooxygen compounds;Subclass: Carbohydrates and carbohydrate conjugates
INCHIKEY:  APQFDHZCDLNMLA-UHFFFAOYNA-N
SMILES:  OCC1OC(OC2=C(CCC(O)=O)C=CC=C2O)C(O)C(O)C1O
RETENTIONTIME:  
CCS:  -1
IONMODE:  Negative
INSTRUMENTTYPE:  
INSTRUMENT:  Maxis II HD Q-TOF Bruker
COLLISIONENERGY:  
Comment:  DB#=CCMSLIB00000851246; origin=GNPS
Num Peaks:  8
135.05086	180.0
136.01807	90.0
137.05807	950.0
163.04962	100.0
181.049	1000.0
182.05396	60.0
205.05038	80.0
343.09665	260.0

NAME:  NCGC00385221-01_C23H32O15_alpha-D-Glucopyranoside, beta-D-fructofuranosyl 6-O-[(2E)-3-(4-hydroxy-3,5-dimethoxyphenyl)-1-oxo-2-propen-1-yl]-
PRECURSORMZ:  593.17232287783
PRECURSORTYPE:  [M+FA-H]-
FORMULA:  C23H32O15
Ontology: Kingdom: Organic compounds;Superclass: Phenylpropanoids and polyketides;Class: Cinnamic acids and derivatives;Subclass: Hydroxycinnamic acids and derivatives
INCHIKEY:  DJBWDHVUJCXYBH-UHFFFAOYNA-N
SMILES:  COC1=CC(C=CC(=O)OCC2OC(OC3(CO)OC(CO)C(O)C3O)C(O)C(O)C2O)=CC(OC)=C1O
RETENTIONTIME:  
CCS:  -1
IONMODE:  Negative
INSTRUMENTTYPE:  
INSTRUMENT:  Maxis II HD Q-TOF Bruker
COLLISIONENERGY:  
Comment:  DB#=CCMSLIB00000850007; origin=GNPS
Num Peaks:  39
71.01179	10.0
90.15457	20.0
119.03374	10.0
149.02164	60.0
161.04498	20.0
164.0461	190.0
165.01474	10.0
175.00082	70.0
179.07018	50.0
190.02579	280.0
191.03773	10.0
192.03665	20.0
193.00435	10.0
204.72464	20.0
205.05069	790.0
207.03017	20.0
219.05309	10.0
220.08128	10.0
221.08871	30.0
222.05421	20.0
223.06096	650.0
237.0721	10.0
250.05289	10.0
251.0899	10.0
261.84174	10.0
263.08917	10.0
265.07022	200.0
295.07962	90.0
311.07724	10.0
315.82306	20.0
323.09616	10.0
325.09274	90.0
341.10342	10.0
367.09753	60.0
385.10873	50.0
532.14062	20.0
547.1662	1000.0
548.18719	10.0
1382.58398	10.0

NAME:  NCGC00381091-01_C20H24O4_1,7-Bis(4-hydroxyphenyl)-5-methoxy-3-heptanone
PRECURSORMZ:  373.16566180083
PRECURSORTYPE:  [M+FA-H]-
FORMULA:  C20H24O4
Ontology: Kingdom: Organic compounds;Superclass: Phenylpropanoids and polyketides;Class: Diarylheptanoids;Subclass: Linear diarylheptanoids
INCHIKEY:  PASZRDILCDRSOZ-UHFFFAOYNA-N
SMILES:  COC(CCC1=CC=C(O)C=C1)CC(=O)CCC1=CC=C(O)C=C1
RETENTIONTIME:  
CCS:  -1
IONMODE:  Negative
INSTRUMENTTYPE:  
INSTRUMENT:  Maxis II HD Q-TOF Bruker
COLLISIONENERGY:  
Comment:  DB#=CCMSLIB00000849226; origin=GNPS
Num Peaks:  12
83.05167	20.0
120.52753	10.0
177.49634	20.0
187.76694	30.0
189.0919	250.0
190.09375	30.0
221.1185	600.0
233.11328	100.0
295.13672	160.0
327.15933	1000.0
768.17072	20.0
854.31982	20.0

NAME:  NCGC00380620-01_C21H24O11_(3R,3'R,4R,6'S,7R)-5-Hydroxy-6',7-dimethyl-6,8-dioxo-3',4,4',5',6,6',7,8-octahydrospiro[isochromene-3,2'-pyran]-3',4,7-triyl triacetate
PRECURSORMZ:  451.12458514083
PRECURSORTYPE:  [M-H]-
FORMULA:  C21H24O11
Ontology: ;
INCHIKEY:  BLUQBEZYLPEUCP-UHFFFAOYNA-N
SMILES:  CC1CCC(OC(C)=O)C2(OC=C3C(=O)C(C)(OC(C)=O)C(=O)C(O)=C3C2OC(C)=O)O1
RETENTIONTIME:  
CCS:  -1
IONMODE:  Negative
INSTRUMENTTYPE:  
INSTRUMENT:  Maxis II HD Q-TOF Bruker
COLLISIONENERGY:  
Comment:  DB#=CCMSLIB00000850457; origin=GNPS
Num Peaks:  12
177.01883	110.0
219.02971	60.0
237.03969	10.0
271.05978	20.0
279.05136	40.0
287.09152	30.0
289.07431	10.0
331.08356	60.0
349.09433	20.0
391.10464	210.0
409.11368	10.0
451.1254	1000.0

NAME:  NCGC00380456-01_C36H58O11_Hexopyranose, 1-O-(20,24-epoxy-1,3,25-trihydroxy-28-oxo-9,19-cyclolanostan-28-yl)-
PRECURSORMZ:  711.39611523583
PRECURSORTYPE:  [M+FA-H]-
FORMULA:  C36H58O11
Ontology: Kingdom: Organic compounds;Superclass: Lipids and lipid;Class: Prenol lipids;Subclass: Terpene glycosides
INCHIKEY:  YAJZEISZRAKFLZ-UHFFFAOYNA-N
SMILES:  CC(C)(O)C1CCC(C)(O1)C1CCC2(C)C3CCC4C5(CC35CCC12C)C(O)CC(O)C4(C)C(=O)OC1OC(CO)C(O)C(O)C1O
RETENTIONTIME:  
CCS:  -1
IONMODE:  Negative
INSTRUMENTTYPE:  
INSTRUMENT:  Maxis II HD Q-TOF Bruker
COLLISIONENERGY:  
Comment:  DB#=CCMSLIB00000850142; origin=GNPS
Num Peaks:  7
179.05206	30.0
459.30902	30.0
485.32913	60.0
503.33743	1000.0
504.33932	30.0
545.34821	70.0
711.39807	60.0

NAME:  NCGC00381041-01_C54H88O24_(3beta,5xi,9xi,16alpha,18xi,22alpha,28S)-3-{[beta-D-Glucopyranosyl-(1->2)-[beta-D-xylopyranosyl-(1->2)-beta-D-glucopyranosyl-(1->4)]-alpha-L-arabinopyranosyl]oxy}-16,28-dihydroxy-13,28-epoxyoleanan-22-yl acetate
PRECURSORMZ:  1165.56475626183
PRECURSORTYPE:  [M+FA-H]-
FORMULA:  C54H88O24
Ontology: Kingdom: Organic compounds;Superclass: Lipids and lipid;Class: Prenol lipids;Subclass: Triterpenoids
INCHIKEY:  JJWANZJMZLNMQD-UHFFFAOYNA-N
SMILES:  CC(=O)OC1CC(C)(C)CC2C34CCC5C6(C)CCC(OC7OCC(OC8OC(CO)C(O)C(O)C8OC8OCC(O)C(O)C8O)C(O)C7OC7OC(CO)C(O)C(O)C7O)C(C)(C)C6CCC5(C)C3(C)CC(O)C12C(O)O4
RETENTIONTIME:  
CCS:  -1
IONMODE:  Negative
INSTRUMENTTYPE:  
INSTRUMENT:  Maxis II HD Q-TOF Bruker
COLLISIONENERGY:  
Comment:  DB#=CCMSLIB00000850841; origin=GNPS
Num Peaks:  22
71.01447	10.0
85.03	30.0
89.02486	30.0
101.02415	70.0
113.02415	90.0
119.03457	30.0
131.03546	40.0
149.04497	10.0
161.045	70.0
179.05707	10.0
191.05463	20.0
275.07675	40.0
465.28683	10.0
627.34027	10.0
663.40613	10.0
825.46301	90.0
826.46704	20.0
987.51843	240.0
988.52167	70.0
1119.56104	1000.0
1120.5647	380.0
1121.56531	60.0

NAME:  NCGC00169251-02_C47H76O18_6-O-Hexopyranosyl-1-O-[19-hydroxy-28-oxo-3-(pentopyranosyloxy)olean-12-en-28-yl]hexopyranose
PRECURSORMZ:  973.50136815483
PRECURSORTYPE:  [M+FA-H]-
FORMULA:  C47H76O18
Ontology: Kingdom: Organic compounds;Superclass: Lipids and lipid;Class: Prenol lipids;Subclass: Triterpenoids
INCHIKEY:  YLGANLNQTUGMCH-UHFFFAOYNA-N
SMILES:  CC1(C)CCC2(CCC3(C)C(=CCC4C5(C)CCC(OC6OCC(O)C(O)C6O)C(C)(C)C5CCC34C)C2C1O)C(=O)OC1OC(COC2OC(CO)C(O)C(O)C2O)C(O)C(O)C1O
RETENTIONTIME:  
CCS:  -1
IONMODE:  Negative
INSTRUMENTTYPE:  
INSTRUMENT:  Maxis II HD Q-TOF Bruker
COLLISIONENERGY:  
Comment:  DB#=CCMSLIB00000851052; origin=GNPS
Num Peaks:  11
131.03473	20.0
179.0575	30.0
221.06731	20.0
323.09909	60.0
557.39038	10.0
573.3808	30.0
585.38116	10.0
603.39197	1000.0
604.39392	170.0
927.49976	120.0
928.50073	40.0

NAME:  NCGC00381160-01_C14H12O6_Spiro[cyclopent-4-ene-1,1'(3'H)-isobenzofuran]-3,3'-dione, 2,4'-dihydroxy-6'-methoxy-5-methyl-
PRECURSORMZ:  275.05611165383
PRECURSORTYPE:  [M-H]-
FORMULA:  C14H12O6
Ontology: Kingdom: Organic compounds;Superclass: Organoheterocyclic compounds;Class: Benzofurans;Subclass: Benzofuranones
INCHIKEY:  ISNKGHIHBITAEG-UHFFFAOYNA-N
SMILES:  COC1=CC2=C(C(=O)OC22C(O)C(=O)C=C2C)C(O)=C1
RETENTIONTIME:  
CCS:  171.7977648
IONMODE:  Negative
INSTRUMENTTYPE:  
INSTRUMENT:  Maxis II HD Q-TOF Bruker
COLLISIONENERGY:  
Comment:  DB#=CCMSLIB00000850643; origin=GNPS
Num Peaks:  26
112.49229	60.0
112.84141	50.0
127.37909	30.0
136.01375	70.0
159.0538	140.0
161.02882	60.0
175.03337	40.0
188.05058	50.0
201.07019	110.0
203.03415	1000.0
204.03705	110.0
205.42302	80.0
217.01418	60.0
217.94035	30.0
218.05769	530.0
219.06729	230.0
219.4583	30.0
229.05443	70.0
231.06995	50.0
232.04393	70.0
247.05722	50.0
249.06148	60.0
257.04099	60.0
257.06448	60.0
260.03152	90.0
275.05536	650.0

NAME:  NCGC00380121-01_C61H96O29_Butanoic acid, 2-(acetyloxy)-2-methyl-, (3beta,5xi,9xi,15alpha,16alpha,21beta,22alpha)-22-(acetyloxy)-3-[[O-alpha-L-arabinopyranosyl-(1->3)-O-alpha-L-arabinopyranosyl-(1->3)-O-[beta-D-glucopyranosyl-(1->2)]-beta-D-glucopyranuronosyl]oxy]-15,16,28-trihydroxyolean-12-en-21-yl ester
PRECURSORMZ:  1337.60192961883
PRECURSORTYPE:  [M+FA-H]-
FORMULA:  C61H96O29
Ontology: Kingdom: Organic compounds;Superclass: Lipids and lipid;Class: Prenol lipids;Subclass: Terpene glycosides
INCHIKEY:  QGIIHPRMLUJLHC-UHFFFAOYNA-N
SMILES:  CCC(C)(OC(C)=O)C(=O)OC1C(OC(C)=O)C2(CO)C(O)C(O)C3(C)C(=CCC4C5(C)CCC(OC6OC(C(O)C(OC7OCC(O)C(OC8OCC(O)C(O)C8O)C7O)C6OC6OC(CO)C(O)C(O)C6O)C(O)=O)C(C)(C)C5CCC34C)C2CC1(C)C
RETENTIONTIME:  
CCS:  -1
IONMODE:  Negative
INSTRUMENTTYPE:  
INSTRUMENT:  Maxis II HD Q-TOF Bruker
COLLISIONENERGY:  
Comment:  DB#=CCMSLIB00000850706; origin=GNPS
Num Peaks:  73
71.01436	90.0
89.02812	50.0
95.01188	40.0
96.65311	10.0
99.04484	460.0
101.02755	110.0
113.02366	280.0
117.05435	400.0
119.03647	160.0
119.66338	20.0
120.83189	20.0
122.86716	30.0
128.2597	10.0
131.03265	50.0
139.00464	80.0
141.05746	50.0
143.03261	80.0
149.04361	80.0
152.92995	30.0
157.0123	40.0
159.06419	1000.0
160.06897	10.0
161.04108	70.0
161.34752	30.0
161.40388	40.0
166.06075	30.0
179.05508	120.0
189.00157	20.0
193.00955	20.0
198.99971	30.0
226.96523	30.0
227.05887	20.0
260.99399	50.0
271.04526	130.0
290.06558	60.0
295.03778	20.0
354.9791	20.0
435.08362	60.0
439.33267	20.0
456.85538	30.0
498.00092	20.0
515.98206	30.0
623.1546	10.0
625.38397	40.0
664.27173	30.0
689.48541	30.0
695.41962	50.0
757.44623	60.0
785.45929	50.0
811.41266	30.0
845.46362	20.0
892.84912	20.0
963.44543	20.0
989.15649	30.0
1005.76978	10.0
1007.51752	30.0
1008.53955	50.0
1055.53943	50.0
1056.56702	30.0
1097.6106	20.0
1117.55334	20.0
1244.37756	20.0
1289.01172	20.0
1289.65369	30.0
1290.66211	10.0
1291.50012	30.0
1291.59424	510.0
1292.59143	260.0
1293.48657	30.0
1293.6134	130.0
1296.54858	30.0
1313.55615	30.0
1679.94641	20.0

NAME:  NCGC00380453-01_C64H96O26_Pregn-5-en-20-one, 11-(acetyloxy)-12-(benzoyloxy)-3-[[O-hexopyranosyl-(1->4)-O--6-deoxy-3-O-methylhexopyranosyl-(1->4)-O--2,6-dideoxy-3-O-methylhexopyranosyl-(1->4)-O--2,6-dideoxy-3-O-methylhexopyranosyl-(1->4)-2,6-dideoxy-3-O-methylhexopyranosyl]oxy]-8,14-dihydroxy-, (3beta,9xi,11alpha,12beta,14beta)-
PRECURSORMZ:  1325.61718575883
PRECURSORTYPE:  [M+FA-H]-
FORMULA:  C64H96O26
Ontology: Kingdom: Organic compounds;Superclass: Lipids and lipid;Class: Steroids and steroid derivatives;Subclass: Steroidal glycosides
INCHIKEY:  QJRVMRSNTLYPQD-UHFFFAOYNA-N
SMILES:  COC1CC(OC2CCC3(C)C4C(OC(C)=O)C(OC(=O)C5=CC=CC=C5)C5(C)C(CCC5(O)C4(O)CC=C3C2)C(C)=O)OC(C)C1OC1CC(OC)C(OC2CC(OC)C(OC3OC(C)C(OC4OC(CO)C(O)C(O)C4O)C(OC)C3O)C(C)O2)C(C)O1
RETENTIONTIME:  
CCS:  -1
IONMODE:  Negative
INSTRUMENTTYPE:  
INSTRUMENT:  Maxis II HD Q-TOF Bruker
COLLISIONENERGY:  
Comment:  DB#=CCMSLIB00000849527; origin=GNPS
Num Peaks:  11
113.02428	10.0
121.02856	1000.0
122.03207	30.0
161.04419	10.0
325.18198	10.0
695.31403	40.0
1097.55298	90.0
1098.55872	30.0
1219.59167	10.0
1279.61218	40.0
1280.61255	20.0

NAME:  Pesticide4_Fluazinam_C13H4Cl2F6N4O4_2-Pyridinamine, 3-chloro-N-[3-chloro-2,6-dinitro-4-(trifluoromethyl)phenyl]-5-(trifluoromethyl)-
PRECURSORMZ:  462.94410254783
PRECURSORTYPE:  [M-H]-
FORMULA:  C13H4Cl2F6N4O4
Ontology: Kingdom: Organic compounds;Superclass: Benzenoids;Class: Benzene and substituted derivatives;Subclass: Trifluoromethylbenzenes
INCHIKEY:  UZCGKGPEKUCDTF-UHFFFAOYSA-N
SMILES:  FC(F)(F)C1=CC(Cl)=C(NC2=C(C=C(C(Cl)=C2N(=O)=O)C(F)(F)F)N(=O)=O)N=C1
RETENTIONTIME:  
CCS:  144.3736385
IONMODE:  Negative
INSTRUMENTTYPE:  
INSTRUMENT:  Q-Exactive Plus Orbitrap Res 70k
COLLISIONENERGY:  
Comment:  DB#=CCMSLIB00001058388; origin=GNPS
Num Peaks:  20
330.97083	10.0
334.98209	70.0
337.94431	20.0
349.96857	10.0
350.97787	10.0
351.98505	10.0
353.93964	10.0
357.95117	20.0
365.93997	40.0
366.94711	20.0
367.98032	20.0
369.9516	140.0
377.97144	30.0
379.96762	20.0
385.94565	40.0
386.95441	90.0
397.97845	460.0
415.94406	1000.0
416.95172	10.0
462.94427	150.0

NAME:  NCGC00380149-01_C22H26O11_Benzoic acid, 4-hydroxy-, 1-(hexopyranosyloxy)-1,4a,5,7a-tetrahydro-7-(hydroxymethyl)cyclopenta[c]pyran-5-yl ester
PRECURSORMZ:  465.14023520483
PRECURSORTYPE:  [M-H]-
FORMULA:  C22H26O11
Ontology: Kingdom: Organic compounds;Superclass: Lipids and lipid;Class: Prenol lipids;Subclass: Terpene glycosides
INCHIKEY:  JZWZFNOVWZEQMF-UHFFFAOYNA-N
SMILES:  OCC1OC(OC2OC=CC3C(OC(=O)C4=CC=C(O)C=C4)C=C(CO)C23)C(O)C(O)C1O
RETENTIONTIME:  
CCS:  212.6333692
IONMODE:  Negative
INSTRUMENTTYPE:  
INSTRUMENT:  Maxis II HD Q-TOF Bruker
COLLISIONENERGY:  
Comment:  DB#=CCMSLIB00000849874; origin=GNPS
Num Peaks:  8
91.65475	20.0
137.02357	1000.0
165.05103	10.0
267.15942	10.0
285.07288	20.0
303.08459	40.0
465.13852	130.0
469.33099	10.0

NAME:  NCGC00380736-01_C21H30O3_(2E,4E)-5-{(1S,2R,4aS,5S,8S,8aS)-2-[(2E)-2-Buten-2-yl]-5-hydroxy-3,8-dimethyl-1,2,4a,5,6,7,8,8a-octahydro-1-naphthalenyl}-2,4-pentadienoic acid
PRECURSORMZ:  375.21769737383
PRECURSORTYPE:  [M+FA-H]-
FORMULA:  C21H30O3
Ontology: Kingdom: Organic compounds;Superclass: Lipids and lipid;Class: Fatty Acyls;Subclass: Fatty acids and conjugates
INCHIKEY:  KNDPLJZJPQWOMQ-UHFFFAOYNA-N
SMILES:  CC=C(C)C1C(C=CC=CC(O)=O)C2C(C)CCC(O)C2C=C1C
RETENTIONTIME:  
CCS:  -1
IONMODE:  Negative
INSTRUMENTTYPE:  
INSTRUMENT:  Maxis II HD Q-TOF Bruker
COLLISIONENERGY:  
Comment:  DB#=CCMSLIB00000850244; origin=GNPS
Num Peaks:  7
154.67056	30.0
162.22696	30.0
167.23492	20.0
283.19843	40.0
285.21802	70.0
329.21304	1000.0
329.30475	40.0

NAME:  NCGC00381257-01_C20H30O5_1-Naphthalenecarboxylic acid, 5-[(3E)-4-carboxy-3-methyl-3-buten-1-yl]decahydro-3-hydroxy-1,4a-dimethyl-6-methylene-
PRECURSORMZ:  395.20752661383
PRECURSORTYPE:  [M+FA-H]-
FORMULA:  C20H30O5
Ontology: Kingdom: Organic compounds;Superclass: Lipids and lipid;Class: Prenol lipids;Subclass: Diterpenoids
INCHIKEY:  GKBWOXATOXYNRG-UHFFFAOYNA-N
SMILES:  CC(CCC1C(=C)CCC2C1(C)CC(O)CC2(C)C(O)=O)=CC(O)=O
RETENTIONTIME:  
CCS:  -1
IONMODE:  Negative
INSTRUMENTTYPE:  
INSTRUMENT:  Maxis II HD Q-TOF Bruker
COLLISIONENERGY:  
Comment:  DB#=CCMSLIB00000851455; origin=GNPS
Num Peaks:  6
156.36725	20.0
305.21307	20.0
331.19223	10.0
349.20349	1000.0
350.20163	20.0
376.99399	20.0

NAME:  NCGC00381038-01_C28H35NO8_2-[1-Hydroxy-1,4-dimethyl-4-(4-methyl-3-penten-1-yl)-7-oxo-2,3,3a,4,7,9,10a,10b-octahydro-5,10-dioxa-8-azadicyclopenta[b,def]phenanthren-8(1H)-yl]pentanedioic acid
PRECURSORMZ:  512.22899063883
PRECURSORTYPE:  [M-H]-
FORMULA:  C28H35NO8
Ontology: Kingdom: Organic compounds;Superclass: Organic acids and derivatives;Class: Carboxylic acids and derivatives;Subclass: Amino acids
INCHIKEY:  VNTDWOKCKOGMPX-UHFFFAOYNA-N
SMILES:  CC(C)=CCCC1(C)OC2=C3C4C(OC3=C3CN(C(CCC(O)=O)C(O)=O)C(=O)C3=C2)C(C)(O)CCC14
RETENTIONTIME:  
CCS:  -1
IONMODE:  Negative
INSTRUMENTTYPE:  
INSTRUMENT:  Maxis II HD Q-TOF Bruker
COLLISIONENERGY:  
Comment:  DB#=CCMSLIB00000849989; origin=GNPS
Num Peaks:  14
176.03552	50.0
188.03613	10.0
218.08444	30.0
230.08127	10.0
244.06209	30.0
245.06581	10.0
262.07208	20.0
382.20331	130.0
408.21957	30.0
424.25119	40.0
450.22891	430.0
468.23932	510.0
494.2204	50.0
512.23047	1000.0

NAME:  NCGC00380314-01_C22H27NO7_3,5,7,9-Undecatetraenoic acid, 2-ethylidene-11-[4-hydroxy-4-(2-hydroxyethyl)-2-oxo-6-oxa-3-azabicyclo[3.1.0]hex-1-yl]-4,10-dimethyl-11-oxo-, methyl ester, (2Z,3E,5E,7E,9E)-
PRECURSORMZ:  462.17695476083
PRECURSORTYPE:  [M+FA-H]-
FORMULA:  C22H27NO7
Ontology: Kingdom: Organic compounds;Superclass: Lipids and lipid;Class: Fatty Acyls;Subclass: Fatty acid esters
INCHIKEY:  OHWILISHWFHITP-UHFFFAOYNA-N
SMILES:  COC(=O)C(=CC)C=C(C)C=CC=CC=C(C)C(=O)C12OC1C(O)(CCO)N=C2O
RETENTIONTIME:  
CCS:  -1
IONMODE:  Negative
INSTRUMENTTYPE:  
INSTRUMENT:  Maxis II HD Q-TOF Bruker
COLLISIONENERGY:  
Comment:  DB#=CCMSLIB00000850301; origin=GNPS
Num Peaks:  86
95.01305	100.0
109.03272	120.0
113.06133	90.0
121.06632	80.0
126.81574	40.0
133.06535	140.0
137.05563	140.0
138.02176	1000.0
139.02736	790.0
139.07489	120.0
140.0332	190.0
141.05452	90.0
147.08032	140.0
150.0593	180.0
151.03123	70.0
152.03688	180.0
153.05141	50.0
158.05162	140.0
162.0172	100.0
163.03912	90.0
163.06781	60.0
165.0899	130.0
166.06192	80.0
171.01486	40.0
173.06387	90.0
175.07869	60.0
177.03711	70.0
177.09111	70.0
178.05266	70.0
178.07887	110.0
182.07674	110.0
188.07298	60.0
190.05634	110.0
191.03557	160.0
191.10271	40.0
193.08859	150.0
195.10352	60.0
199.07487	70.0
199.11011	70.0
205.10129	50.0
206.05954	70.0
211.11217	70.0
214.11694	40.0
222.07089	70.0
231.13548	310.0
236.0907	50.0
237.09438	60.0
238.04588	100.0
240.07854	60.0
243.13948	50.0
248.09419	20.0
254.13969	80.0
259.13593	60.0
261.14297	50.0
266.15604	40.0
267.13846	30.0
271.12222	50.0
282.11795	70.0
284.12714	30.0
285.11499	340.0
287.13144	380.0
296.09134	40.0
297.11313	40.0
301.15036	120.0
311.12711	90.0
312.11209	50.0
314.14804	110.0
316.12076	100.0
325.14648	50.0
325.2019	80.0
326.14639	40.0
327.10684	50.0
328.1113	170.0
330.14658	140.0
342.1488	50.0
343.14719	720.0
344.15744	60.0
368.15356	150.0
373.16849	420.0
373.20328	120.0
386.16125	280.0
398.17163	80.0
416.16251	310.0
418.22256	60.0
461.23059	210.0
462.22079	40.0

NAME:  NCGC00347668-02_C37H50O21_(1aS,2S,6S,6aS)-6-({6-Deoxy-3-O-(beta-D-glucopyranosyl)-4-O-[(2E)-3-(4-methoxyphenyl)-2-propenoyl]-alpha-L-mannopyranosyl}oxy)-1a-(hydroxymethyl)-1a,1b,2,5a,6,6a-hexahydrooxireno[4,5]cyclopenta[1,2-c]pyran-2-yl beta-D-glucopyranoside
PRECURSORMZ:  875.28266117783
PRECURSORTYPE:  [M+FA-H]-
FORMULA:  C37H50O21
Ontology: Kingdom: Organic compounds;Superclass: Phenylpropanoids and polyketides;Class: Cinnamic acids and derivatives;Subclass: Cinnamic acid esters
INCHIKEY:  JKLAVFMVEROOKJ-UHFFFAOYNA-N
SMILES:  COC1=CC=C(C=CC(=O)OC2C(C)OC(OC3C4OC4(CO)C4C3C=COC4OC3OC(CO)C(O)C(O)C3O)C(O)C2OC2OC(CO)C(O)C(O)C2O)C=C1
RETENTIONTIME:  
CCS:  -1
IONMODE:  Negative
INSTRUMENTTYPE:  
INSTRUMENT:  Maxis II HD Q-TOF Bruker
COLLISIONENERGY:  
Comment:  DB#=CCMSLIB00000850751; origin=GNPS
Num Peaks:  38
85.03	10.0
113.02468	30.0
117.03336	20.0
119.05016	130.0
121.02911	10.0
123.04646	10.0
125.02293	20.0
127.03947	50.0
133.06567	70.0
135.04543	40.0
137.02147	30.0
143.03528	20.0
145.03021	30.0
145.05067	100.0
151.03954	100.0
161.04553	30.0
163.04013	380.0
164.04428	20.0
177.05544	1000.0
178.05939	30.0
179.05521	90.0
181.05066	90.0
219.06619	10.0
289.09332	70.0
307.10614	10.0
361.11597	20.0
375.13013	140.0
393.13977	10.0
459.15222	20.0
471.14987	20.0
489.16052	30.0
553.19202	80.0
649.22113	10.0
651.21606	140.0
652.21356	20.0
667.22565	20.0
829.2796	80.0
830.27783	20.0

NAME:  quercetin-3-O-pentosyl-7-O-hexoside
PRECURSORMZ:  595.13045836983
PRECURSORTYPE:  [M-H]-
FORMULA:  C26H28O16
Ontology: Kingdom: Organic compounds;Superclass: Phenylpropanoids and polyketides;Class: Flavonoids;Subclass: Flavonoid glycosides
INCHIKEY:  RZVYTWRTBDNOPF-UHFFFAOYNA-N
SMILES:  OCC1OC(OC2=CC(O)=C3C(=O)C(OC4CC(O)C(O)C(O)O4)=C(OC3=C2)C2=CC(O)=C(O)C=C2)C(O)C(O)C1O
RETENTIONTIME:  
CCS:  -1
IONMODE:  Negative
INSTRUMENTTYPE:  
INSTRUMENT:  qTof
COLLISIONENERGY:  
Comment:  DB#=CCMSLIB00004678821; origin=GNPS
Num Peaks:  22
232.96808	30.0
247.96164	30.0
299.01797	20.0
355.07028	10.0
414.0936	10.0
433.07227	50.0
434.08212	20.0
462.07877	100.0
463.09076	40.0
464.09155	20.0
475.09052	20.0
536.23029	10.0
595.12909	1000.0
595.42889	10.0
595.52863	10.0
596.13245	270.0
596.32715	10.0
596.40265	10.0
597.13727	70.0
598.1543	10.0
598.70947	10.0
921.24219	10.0

NAME:  NCGC00380914-01_C32H38O17_alpha-D-Glucopyranoside, 3,6-bis-O-[(2E)-3-(4-hydroxy-3-methoxyphenyl)-1-oxo-2-propen-1-yl]-beta-D-fructofuranosyl
PRECURSORMZ:  693.20362331183
PRECURSORTYPE:  [M-H]-
FORMULA:  C32H38O17
Ontology: Kingdom: Organic compounds;Superclass: Phenylpropanoids and polyketides;Class: Cinnamic acids and derivatives;Subclass: Hydroxycinnamic acids and derivatives
INCHIKEY:  ZPIDHNQIWCJXAS-UHFFFAOYNA-N
SMILES:  COC1=C(O)C=CC(C=CC(=O)OCC2OC(CO)(OC3OC(CO)C(O)C(O)C3O)C(OC(=O)C=CC3=CC(OC)=C(O)C=C3)C2O)=C1
RETENTIONTIME:  
CCS:  273.8669304
IONMODE:  Negative
INSTRUMENTTYPE:  
INSTRUMENT:  Maxis II HD Q-TOF Bruker
COLLISIONENERGY:  
Comment:  DB#=CCMSLIB00000850478; origin=GNPS
Num Peaks:  16
108.02065	10.0
119.03518	20.0
132.02216	40.0
134.03654	20.0
149.05745	10.0
160.0162	230.0
175.04012	1000.0
193.04927	160.0
265.07092	40.0
319.07974	20.0
337.08871	30.0
341.1059	20.0
499.14981	40.0
513.13806	20.0
517.15808	160.0
693.20386	200.0

NAME:  NCGC00380752-01_C17H30O12_alpha-D-Glucopyranoside, alpha-D-glucopyranosyl, 2-(2-methylbutanoate)
PRECURSORMZ:  471.17192895383
PRECURSORTYPE:  [M+FA-H]-
FORMULA:  C17H30O12
Ontology: Kingdom: Organic compounds;Superclass: Lipids and lipid;Class: Saccharolipids;Subclass: Acyltrehaloses
INCHIKEY:  FNVXTGOURNXUCQ-UHFFFAOYNA-N
SMILES:  CCC(C)C(=O)OC1C(O)C(O)C(CO)OC1OC1OC(CO)C(O)C(O)C1O
RETENTIONTIME:  
CCS:  -1
IONMODE:  Negative
INSTRUMENTTYPE:  
INSTRUMENT:  Maxis II HD Q-TOF Bruker
COLLISIONENERGY:  
Comment:  DB#=CCMSLIB00000850028; origin=GNPS
Num Peaks:  19
101.02431	30.0
101.06033	390.0
113.02016	40.0
125.02647	30.0
136.675	20.0
137.02199	40.0
143.03831	100.0
149.02275	20.0
155.03654	20.0
161.04564	140.0
178.97897	40.0
203.104	40.0
205.71783	30.0
323.09711	1000.0
324.1076	30.0
341.10892	90.0
425.17505	340.0
469.27228	20.0
471.16885	390.0

NAME:  Pesticide5_Fipronil_C12H4Cl2F6N4OS_5-Amino-1-[2,6-dichloro-4-(trifluoromethyl)phenyl]-4-[(trifluoromethyl)sulfinyl]-1H-pyrazole-3-carbonitrile
PRECURSORMZ:  434.93142984783
PRECURSORTYPE:  [M-H]-
FORMULA:  C12H4Cl2F6N4OS
Ontology: ;;;
INCHIKEY:  ZOCSXAVNDGMNBV-UHFFFAOYNA-N
SMILES:  NC1=C(C(=NN1C1=C(Cl)C=C(C=C1Cl)C(F)(F)F)C#N)S(=O)C(F)(F)F
RETENTIONTIME:  
CCS:  157.9814668
IONMODE:  Negative
INSTRUMENTTYPE:  
INSTRUMENT:  Q-Exactive Plus Orbitrap Res 70k
COLLISIONENERGY:  
Comment:  DB#=CCMSLIB00001058449; origin=GNPS
Num Peaks:  22
84.99017	20.0
150.00339	10.0
163.01146	20.0
170.01007	60.0
182.01003	50.0
183.01791	290.0
208.95822	10.0
217.98701	100.0
233.98131	20.0
243.98955	110.0
249.95865	870.0
253.98671	30.0
267.98965	60.0
277.95386	360.0
280.95715	30.0
281.99298	120.0
287.96234	30.0
317.96942	240.0
329.96078	1000.0
365.93649	50.0
398.95541	20.0
434.93228	10.0

NAME:  NCGC00381304-01_C26H32O13_Cyclopenta[c]pyran-4-carboxylic acid, 6-(acetyloxy)-5-(benzoyloxy)-1-(hexopyranosyloxy)-1,4a,5,6,7,7a-hexahydro-7-methyl-, methyl ester
PRECURSORMZ:  597.18249363783
PRECURSORTYPE:  [M+FA-H]-
FORMULA:  C26H32O13
Ontology: Kingdom: Organic compounds;Superclass: Lipids and lipid;Class: Prenol lipids;Subclass: Terpene glycosides
INCHIKEY:  DHCJHCCWOGTAHR-UHFFFAOYNA-N
SMILES:  COC(=O)C1=COC(OC2OC(CO)C(O)C(O)C2O)C2C(C)C(OC(C)=O)C(OC(=O)C3=CC=CC=C3)C12
RETENTIONTIME:  
CCS:  -1
IONMODE:  Negative
INSTRUMENTTYPE:  
INSTRUMENT:  Maxis II HD Q-TOF Bruker
COLLISIONENERGY:  
Comment:  DB#=CCMSLIB00000851286; origin=GNPS
Num Peaks:  22
121.02908	1000.0
132.96255	10.0
147.04982	20.0
187.26833	20.0
190.86472	30.0
207.0638	40.0
211.0609	20.0
231.05969	50.0
267.08905	70.0
269.1062	60.0
321.09161	20.0
389.12354	530.0
389.16348	80.0
390.12686	40.0
429.13297	30.0
431.13022	10.0
431.16617	30.0
551.16522	40.0
551.21191	90.0
1261.31555	40.0
1870.62244	30.0
1870.84888	30.0

NAME:  NCGC00381132-01_C23H38O17_
PRECURSORMZ:  585.20362331183
PRECURSORTYPE:  [M-H]-
FORMULA:  C23H38O17
Ontology: ;;;
INCHIKEY:  IHDCTQODJUDCDH-UHFFFAOYNA-N
SMILES:  CC=C(C)C(=O)OCC1OC(OCC2OC(OC3(CO)OC(CO)C(O)C3O)C(O)C(O)C2O)C(O)C(O)C1O
RETENTIONTIME:  
CCS:  -1
IONMODE:  Negative
INSTRUMENTTYPE:  
INSTRUMENT:  Maxis II HD Q-TOF Bruker
COLLISIONENERGY:  
Comment:  DB#=CCMSLIB00000851013; origin=GNPS
Num Peaks:  13
165.5217	60.0
190.56039	20.0
208.01001	110.0
236.1393	70.0
282.17694	40.0
289.13205	40.0
311.89734	20.0
328.1091	1000.0
388.13184	610.0
391.57693	60.0
457.18494	500.0
517.20898	280.0
585.23645	40.0

NAME:  NCGC00180381-03_C20H24O7_2-Butenoic acid, 2-methyl-, (1aR,1bS,2aS,4R,4aS,7aR,8S)-dodecahydro-4-hydroxy-9a-methyl-3,7-bis(methylene)-6-oxobisoxireno[5,6:7,8]cyclodeca[1,2-b]furan-8-yl ester, (2Z)-
PRECURSORMZ:  421.15040566083
PRECURSORTYPE:  [M+FA-H]-
FORMULA:  C20H24O7
Ontology: ;;;
INCHIKEY:  RKAXEWSQYMGBAP-UHFFFAOYNA-N
SMILES:  CC=C(C)C(=O)OC1CC2(C)OC2C2OC2C(=C)C(O)C2OC(=O)C(=C)C12
RETENTIONTIME:  
CCS:  -1
IONMODE:  Negative
INSTRUMENTTYPE:  
INSTRUMENT:  Maxis II HD Q-TOF Bruker
COLLISIONENERGY:  
Comment:  DB#=CCMSLIB00000850602; origin=GNPS
Num Peaks:  16
78.28406	10.0
97.88264	20.0
139.12961	20.0
151.04172	50.0
171.15639	20.0
175.0392	30.0
176.04878	230.0
191.07199	1000.0
198.88788	20.0
209.08427	160.0
315.13013	40.0
318.0679	20.0
345.13409	350.0
348.14117	30.0
375.14563	40.0
425.96976	10.0

NAME:  NCGC00381111-01_C23H38N4O6_1-[(2E,4E)-6,7-Dihydroxy-2,4-octadienoyl]prolyl-N-methylvalyl-N~2~-methylalaninamide
PRECURSORMZ:  511.27733750783
PRECURSORTYPE:  [M+FA-H]-
FORMULA:  C23H38N4O6
Ontology: ;;;
INCHIKEY:  YHEIGYJZSXWHJB-UHFFFAOYNA-N
SMILES:  CC(C)C(N(C)C(=O)C1CCCN1C(=O)C=CC=CC(O)C(C)O)C(=O)N(C)C(C)C(O)=N
RETENTIONTIME:  
CCS:  -1
IONMODE:  Negative
INSTRUMENTTYPE:  
INSTRUMENT:  Maxis II HD Q-TOF Bruker
COLLISIONENERGY:  
Comment:  DB#=CCMSLIB00000849566; origin=GNPS
Num Peaks:  31
109.06756	30.0
113.07524	20.0
127.05177	330.0
148.07454	20.0
170.11703	20.0
170.13628	20.0
171.15033	30.0
189.02721	10.0
193.13499	10.0
194.13094	10.0
223.11653	80.0
226.15459	10.0
238.10741	10.0
246.83228	10.0
249.12762	20.0
257.76334	10.0
274.05814	10.0
280.133	10.0
293.18491	10.0
311.20789	30.0
349.22708	20.0
351.20242	20.0
377.25494	30.0
386.2298	20.0
403.2616	10.0
418.43265	10.0
419.64249	10.0
421.24518	1000.0
421.6084	10.0
447.26083	40.0
465.27206	520.0

NAME:  NCGC00380718-01_C29H40O8_2-Butenoic acid, 2-methyl-, 1a,1b,4,4a,5,7a,7b,8,9,9a-decahydro-4a,7b-dihydroxy-3-(hydroxymethyl)-1,1,6,8-tetramethyl-9a-(2-methyl-1-oxopropoxy)-5-oxo-1H-cyclopropa[3,4]benz[1,2-e]azulen-9-yl ester, (2E)-
PRECURSORMZ:  561.27052079583
PRECURSORTYPE:  [M+FA-H]-
FORMULA:  C29H40O8
Ontology: ;;;
INCHIKEY:  MVWXLRYZCZSBKW-UHFFFAOYNA-N
SMILES:  CC=C(C)C(=O)OC1C(C)C2(O)C3C=C(C)C(=O)C3(O)CC(CO)=CC2C2C(C)(C)C12OC(=O)C(C)C
RETENTIONTIME:  
CCS:  -1
IONMODE:  Negative
INSTRUMENTTYPE:  
INSTRUMENT:  Maxis II HD Q-TOF Bruker
COLLISIONENERGY:  
Comment:  DB#=CCMSLIB00000850897; origin=GNPS
Num Peaks:  29
87.04351	260.0
150.02269	160.0
177.00586	170.0
178.01396	120.0
193.09389	190.0
215.06625	130.0
223.00941	270.0
257.12384	180.0
265.05771	160.0
265.15155	630.0
291.13699	150.0
309.15118	250.0
319.00272	200.0
347.97754	110.0
351.05005	210.0
369.0397	150.0
376.97842	220.0
396.99255	80.0
397.2045	1000.0
415.21368	140.0
417.06772	90.0
444.27078	100.0
447.08124	240.0
449.2334	70.0
457.01657	240.0
479.25223	90.0
515.27325	340.0
516.38037	90.0
560.29376	80.0

NAME:  quercetin-3-O-deoxyhexosyl(1-2)pentoside
PRECURSORMZ:  579.13554374983
PRECURSORTYPE:  [M-H]-
FORMULA:  C26H28O15
Ontology: ;;;
INCHIKEY:  WRLBRIWXGBKVHQ-UHFFFAOYNA-N
SMILES:  CC1OC(OC2=C(OC3=CC(O)=CC(O)=C3C2=O)C2=CC(O)=C(O)C=C2)C(OC2OCC(O)C(O)C2O)C(O)C1O
RETENTIONTIME:  
CCS:  248.7094624
IONMODE:  Negative
INSTRUMENTTYPE:  
INSTRUMENT:  qTof
COLLISIONENERGY:  
Comment:  DB#=CCMSLIB00004678837; origin=GNPS
Num Peaks:  12
178.99852	20.0
232.97197	10.0
255.03036	10.0
271.02341	20.0
299.01636	10.0
300.0282	1000.0
300.23267	10.0
301.03357	200.0
302.04108	20.0
579.13727	860.0
580.14093	260.0
581.14392	40.0

NAME:  NCGC00380914-01_C32H38O17_alpha-D-Glucopyranoside, 3,6-bis-O-[(2E)-3-(4-hydroxy-3-methoxyphenyl)-1-oxo-2-propen-1-yl]-beta-D-fructofuranosyl
PRECURSORMZ:  739.20910231183
PRECURSORTYPE:  [M+FA-H]-
FORMULA:  C32H38O17
Ontology: ;;;
INCHIKEY:  ZPIDHNQIWCJXAS-UHFFFAOYNA-N
SMILES:  COC1=C(O)C=CC(C=CC(=O)OCC2OC(CO)(OC3OC(CO)C(O)C(O)C3O)C(OC(=O)C=CC3=CC(OC)=C(O)C=C3)C2O)=C1
RETENTIONTIME:  
CCS:  -1
IONMODE:  Negative
INSTRUMENTTYPE:  
INSTRUMENT:  Maxis II HD Q-TOF Bruker
COLLISIONENERGY:  
Comment:  DB#=CCMSLIB00000850481; origin=GNPS
Num Peaks:  13
132.02161	30.0
134.03665	40.0
149.06026	10.0
160.01634	300.0
175.03967	1000.0
193.05031	120.0
265.07269	10.0
337.09488	30.0
499.14566	70.0
513.1424	20.0
517.1543	170.0
693.20551	300.0
694.20673	30.0

NAME:  NCGC00380538-01_C21H36O10_(6,6-Dimethylbicyclo[3.1.1]hept-2-yl)methyl 6-O-[(2R,3R,4R)-3,4-dihydroxy-4-(hydroxymethyl)tetrahydro-2-furanyl]-beta-D-glucopyranoside
PRECURSORMZ:  447.22357090683
PRECURSORTYPE:  [M-H]-
FORMULA:  C21H36O10
Ontology: ;;;
INCHIKEY:  RSKTWDAINBIMPD-UHFFFAOYNA-N
SMILES:  [H]C12CC([H])(C(COC3OC(COC4OCC(O)(CO)C4O)C(O)C(O)C3O)CC1)C2(C)C
RETENTIONTIME:  
CCS:  -1
IONMODE:  Negative
INSTRUMENTTYPE:  
INSTRUMENT:  Maxis II HD Q-TOF Bruker
COLLISIONENERGY:  
Comment:  DB#=CCMSLIB00000850205; origin=GNPS
Num Peaks:  11
161.03992	10.0
161.0603	80.0
163.83504	10.0
232.8396	20.0
243.69301	30.0
314.0015	30.0
315.18024	450.0
446.53589	30.0
447.22476	1000.0
447.48322	20.0
448.00479	20.0

NAME:  NCGC00179768-02_C19H20O7_2H-Benz[1,2]anthra[10,4a-b]oxirene-7,8(3H,12bH)-dione, 3a,4,5,6,7a,7b-hexahydro-2,3a,7b,12-tetrahydroxy-5-methyl-
PRECURSORMZ:  405.11910553183
PRECURSORTYPE:  [M+FA-H]-
FORMULA:  C19H20O7
Ontology: ;;;
INCHIKEY:  FXOBIDROVMXPBW-UHFFFAOYNA-N
SMILES:  CC1CC(=O)C2C(O)(C1)CC(O)C13OC1C1=C(C=CC=C1O)C(=O)C23O
RETENTIONTIME:  
CCS:  -1
IONMODE:  Negative
INSTRUMENTTYPE:  
INSTRUMENT:  Maxis II HD Q-TOF Bruker
COLLISIONENERGY:  
Comment:  DB#=CCMSLIB00000850655; origin=GNPS
Num Peaks:  29
125.06225	50.0
126.64987	30.0
149.01959	20.0
173.0197	20.0
175.03934	260.0
187.04025	40.0
187.08244	30.0
189.01834	200.0
190.03656	20.0
191.0376	50.0
192.40857	20.0
196.04872	40.0
201.05048	20.0
214.0233	20.0
215.03333	20.0
229.04478	30.0
243.11351	10.0
261.08838	30.0
269.11807	60.0
271.09891	20.0
279.10635	30.0
295.09174	40.0
305.08304	40.0
313.11258	60.0
323.08926	80.0
341.08649	10.0
358.72018	10.0
359.11404	1000.0
773.41974	20.0

NAME:  NCGC00180415-03_C30H46O6_Urs-12-ene-24,28-dioic acid, 3,19-dihydroxy-, (3beta,5xi,9xi,18xi)-
PRECURSORMZ:  547.32764174883
PRECURSORTYPE:  [M+FA-H]-
FORMULA:  C30H46O6
Ontology: ;;;
INCHIKEY:  UIEGOKVPCRANSU-UHFFFAOYNA-N
SMILES:  CC1CCC2(CCC3(C)C(=CCC4C5(C)CCC(O)C(C)(C5CCC34C)C(O)=O)C2C1(C)O)C(O)=O
RETENTIONTIME:  
CCS:  -1
IONMODE:  Negative
INSTRUMENTTYPE:  
INSTRUMENT:  Maxis II HD Q-TOF Bruker
COLLISIONENERGY:  
Comment:  DB#=CCMSLIB00000849862; origin=GNPS
Num Peaks:  12
177.01068	20.0
200.86763	10.0
237.02106	20.0
268.80618	40.0
270.0647	20.0
304.98404	20.0
351.01355	30.0
383.02158	10.0
439.31943	70.0
501.32141	1000.0
502.02094	10.0
502.32077	30.0

NAME:  NCGC00347812-02_C26H34O12_beta-D-Glucopyranoside, 2-methoxy-4-[(1S,2S,3S)-1,2,3,4-tetrahydro-3,7-dihydroxy-2,3-bis(hydroxymethyl)-6-methoxy-1-naphthalenyl]phenyl
PRECURSORMZ:  537.19775008283
PRECURSORTYPE:  [M-H]-
FORMULA:  C26H34O12
Ontology: ;;;
INCHIKEY:  CBHWSKLIWKFSRU-UHFFFAOYNA-N
SMILES:  COC1=C(O)C=C2C(C(CO)C(O)(CO)CC2=C1)C1=CC(OC)=C(OC2OC(CO)C(O)C(O)C2O)C=C1
RETENTIONTIME:  
CCS:  237.8068866
IONMODE:  Negative
INSTRUMENTTYPE:  
INSTRUMENT:  Maxis II HD Q-TOF Bruker
COLLISIONENERGY:  
Comment:  DB#=CCMSLIB00000850340; origin=GNPS
Num Peaks:  18
177.9577	20.0
182.05267	30.0
183.60674	30.0
214.07198	40.0
222.91545	20.0
256.07541	60.0
259.10083	20.0
271.11301	20.0
297.07608	30.0
311.10168	20.0
342.13284	30.0
357.62738	40.0
360.10898	120.0
375.146	1000.0
376.16321	50.0
394.83963	30.0
491.14749	30.0
632.46552	40.0

NAME:  NCGC00380836-01_C19H22O6_(1R,2R,4S,5R,8R,9S,10R,11S,12S)-4,12-Dihydroxy-11-methyl-6-methylene-16-oxo-15-oxapentacyclo[9.3.2.1~5,8~.0~1,10~.0~2,8~]heptadec-13-ene-9-carboxylic acid
PRECURSORMZ:  391.13984097583
PRECURSORTYPE:  [M+FA-H]-
FORMULA:  C19H22O6
Ontology: ;;;
INCHIKEY:  XRIRDTGIFOWQDB-UHFFFAOYNA-N
SMILES:  [H]C12CC3(CC1=C)C(CC2O)C12OC(=O)C(C)(C1C3C(O)=O)C(O)C=C2
RETENTIONTIME:  
CCS:  -1
IONMODE:  Negative
INSTRUMENTTYPE:  
INSTRUMENT:  Maxis II HD Q-TOF Bruker
COLLISIONENERGY:  
Comment:  DB#=CCMSLIB00000851228; origin=GNPS
Num Peaks:  22
118.32778	30.0
134.40205	30.0
140.39969	10.0
170.07573	60.0
171.07874	20.0
184.08658	10.0
193.09785	10.0
209.09599	10.0
211.15115	10.0
213.12814	10.0
227.10786	90.0
239.14365	1000.0
241.12106	10.0
251.10739	20.0
253.12288	50.0
257.15442	90.0
273.15115	30.0
283.13712	80.0
301.14401	40.0
327.12128	20.0
345.13461	900.0
349.51575	10.0

NAME:  NCGC00380774-01_C22H27ClO7_
PRECURSORMZ:  437.13725444783
PRECURSORTYPE:  [M-H]-
FORMULA:  C22H27ClO7
Ontology: ;;;
INCHIKEY:  QBTPSJBCRQLPLW-UHFFFAOYNA-N
SMILES:  CCC(C)C=C(C)C=CC1=CC2=C(Cl)C(=O)C(C)(OC(C)=O)C(=O)C2(O)C(OC)O1
RETENTIONTIME:  
CCS:  -1
IONMODE:  Negative
INSTRUMENTTYPE:  
INSTRUMENT:  Maxis II HD Q-TOF Bruker
COLLISIONENERGY:  
Comment:  DB#=CCMSLIB00000851382; origin=GNPS
Num Peaks:  33
116.00659	80.0
133.09659	110.0
146.03146	150.0
171.11664	240.0
174.96045	130.0
190.02451	160.0
194.10725	220.0
215.06767	220.0
231.14917	160.0
253.08186	120.0
255.14024	220.0
269.06699	120.0
271.13382	100.0
282.12747	240.0
283.13922	210.0
284.06503	100.0
287.12747	130.0
295.09329	90.0
298.12042	90.0
299.12967	70.0
309.11304	160.0
315.13013	400.0
325.14471	130.0
326.1142	410.0
327.12265	1000.0
333.12802	70.0
341.14038	690.0
343.11804	620.0
344.13361	140.0
359.15302	270.0
386.13437	360.0
437.00024	90.0
1077.7948	90.0

NAME:  NCGC00381190-01_C27H29N5O5_
PRECURSORMZ:  502.20959260183
PRECURSORTYPE:  [M-H]-
FORMULA:  C27H29N5O5
Ontology: ;;;
INCHIKEY:  ZCTHXQVUJKDGDA-UHFFFAOYNA-N
SMILES:  CC(C)C1(O)N=C(O)C(CC2(O)C3NC(C)(C)C(=O)N3C3=CC=CC=C23)N2C(=O)C3=CC=CC=C3N=C12
RETENTIONTIME:  
CCS:  -1
IONMODE:  Negative
INSTRUMENTTYPE:  
INSTRUMENT:  Maxis II HD Q-TOF Bruker
COLLISIONENERGY:  
Comment:  DB#=CCMSLIB00000850439; origin=GNPS
Num Peaks:  21
136.04242	10.0
145.0363	20.0
148.55296	10.0
157.89917	30.0
184.07928	10.0
185.10612	10.0
199.11609	10.0
212.08566	10.0
215.0836	20.0
217.10175	10.0
225.05539	110.0
226.06168	20.0
227.08508	120.0
239.0753	20.0
240.11806	40.0
268.10922	1000.0
269.10602	20.0
313.13516	30.0
484.19989	290.0
485.21356	10.0
502.20557	10.0

NAME:  NCGC00380242-01_C30H42O9_Card-20(22)-enolide, 1,3-bis(acetyloxy)-14,15-epoxy-7,21-dihydroxy-4,4,8-trimethyl-, (1alpha,3alpha,7alpha,9xi,13alpha,15beta,17alpha)-
PRECURSORMZ:  545.27560647983
PRECURSORTYPE:  [M-H]-
FORMULA:  C30H42O9
Ontology: ;;;
INCHIKEY:  VODAHSRZQBCHLA-UHFFFAOYNA-N
SMILES:  CC(=O)OC1CC(OC(C)=O)C2(C)C3CCC4(C)C(CC5OC45C3(C)C(O)CC2C1(C)C)C1=CC(=O)OC1O
RETENTIONTIME:  
CCS:  -1
IONMODE:  Negative
INSTRUMENTTYPE:  
INSTRUMENT:  Maxis II HD Q-TOF Bruker
COLLISIONENERGY:  
Comment:  DB#=CCMSLIB00000849248; origin=GNPS
Num Peaks:  41
85.06102	20.0
95.04684	10.0
97.0643	40.0
133.06769	10.0
137.05736	60.0
145.05042	10.0
159.07474	10.0
161.09789	10.0
163.1161	10.0
181.12506	20.0
199.11235	10.0
217.11797	10.0
221.15314	10.0
233.18599	10.0
254.23355	20.0
283.16614	50.0
301.17905	40.0
315.19531	20.0
321.20392	10.0
333.21078	10.0
335.22604	40.0
339.19696	10.0
355.22751	10.0
363.23459	20.0
377.24741	20.0
381.23978	40.0
387.24734	10.0
389.26959	20.0
397.2374	20.0
399.25232	170.0
402.24823	10.0
415.25046	10.0
417.26495	1000.0
421.03806	10.0
441.26285	80.0
459.27432	570.0
483.27094	40.0
503.26041	20.0
545.27771	760.0
546.2663	10.0
907.78632	20.0

NAME:  NCGC00381207-01_C20H28O5_2(5H)-Furanone, 3-[2-[(1R,4aS,5R,6R,8aS)-decahydro-6-hydroxy-5-(hydroxymethyl)-5,8a-dimethyl-2-methylene-1-naphthalenyl]acetyl]-
PRECURSORMZ:  347.18639754983
PRECURSORTYPE:  [M-H]-
FORMULA:  C20H28O5
Ontology: ;;;
INCHIKEY:  KPJIGLLMDBHXEB-UHFFFAOYNA-N
SMILES:  CC1(CO)C(O)CCC2(C)C(CC(=O)C3=CCOC3=O)C(=C)CCC12
RETENTIONTIME:  
CCS:  -1
IONMODE:  Negative
INSTRUMENTTYPE:  
INSTRUMENT:  Maxis II HD Q-TOF Bruker
COLLISIONENERGY:  
Comment:  DB#=CCMSLIB00000850784; origin=GNPS
Num Peaks:  21
135.08177	20.0
146.33342	30.0
173.09842	40.0
199.11386	10.0
229.16327	20.0
239.14333	40.0
240.15651	20.0
255.17548	80.0
262.16214	30.0
269.1543	20.0
273.1803	20.0
275.17557	10.0
275.20572	10.0
285.18637	10.0
287.17203	10.0
294.14578	60.0
301.17783	10.0
303.19714	1000.0
303.75851	30.0
319.2005	20.0
347.18689	290.0

NAME:  NCGC00025342-07_C27H33NO4_(2R,4bS,6aS,12bS,12cR,14aS)-4b-Hydroxy-2-(2-hydroxy-2-propanyl)-12b,12c-dimethyl-5,6,6a,7,12,12b,12c,13,14,14a-decahydro-2H-chromeno[5',6':6,7]indeno[1,2-b]indol-3(4bH)-one
PRECURSORMZ:  434.23368209483
PRECURSORTYPE:  [M-H]-
FORMULA:  C27H33NO4
Ontology: Kingdom: Organic compounds;Superclass: Organoheterocyclic compounds;Class: Naphthopyrans;
INCHIKEY:  ACNHBCIZLNNLRS-UHFFFAOYNA-N
SMILES:  CC(C)(O)C1OC2CCC3(C)C4(C)C(CC5=C4NC4=CC=CC=C54)CCC3(O)C2=CC1=O
RETENTIONTIME:  
CCS:  213.375151
IONMODE:  Negative
INSTRUMENTTYPE:  
INSTRUMENT:  Maxis II HD Q-TOF Bruker
COLLISIONENERGY:  
Comment:  DB#=CCMSLIB00000850157; origin=GNPS
Num Peaks:  28
123.04389	30.0
133.06354	20.0
137.06694	20.0
161.09154	30.0
196.11501	40.0
208.10196	20.0
209.08878	20.0
210.00484	20.0
210.09648	40.0
217.34802	30.0
222.09103	20.0
256.98764	30.0
300.14142	20.0
304.18759	20.0
318.18741	20.0
330.17807	20.0
342.14832	10.0
346.19229	10.0
357.53787	20.0
358.17593	40.0
360.1633	30.0
374.1727	20.0
375.12054	20.0
375.53577	10.0
376.19012	630.0
377.17786	40.0
431.78601	30.0
434.23486	1000.0

NAME:  NCGC00381231-01_C35H40O19_Spiro[cyclopenta[c]pyran-7(1H),2'(5'H)-furan]-4-carboxylic acid, 1-[(6-O-beta-D-glucopyranosyl-beta-D-glucopyranosyl)oxy]-4a,7a-dihydro-4'-[(1R)-1-[[(2E)-3-(4-hydroxyphenyl)-1-oxo-2-propen-1-yl]oxy]ethyl]-5'-oxo-, (1S,4aS,7S,7aS)-
PRECURSORMZ:  763.20910261583
PRECURSORTYPE:  [M-H]-
FORMULA:  C35H40O19
Ontology: ;;;
INCHIKEY:  BPDAGEICGCCTGJ-UHFFFAOYNA-N
SMILES:  CC(OC(=O)C=CC1=CC=C(O)C=C1)C1=CC2(OC1=O)C=CC1C2C(OC2OC(COC3OC(CO)C(O)C(O)C3O)C(O)C(O)C2O)OC=C1C(O)=O
RETENTIONTIME:  
CCS:  -1
IONMODE:  Negative
INSTRUMENTTYPE:  
INSTRUMENT:  Maxis II HD Q-TOF Bruker
COLLISIONENERGY:  
Comment:  DB#=CCMSLIB00000851316; origin=GNPS
Num Peaks:  33
87.42651	10.0
89.02168	10.0
113.02251	40.0
119.04981	140.0
141.0721	30.0
144.05624	20.0
145.02667	10.0
154.04208	780.0
156.05867	10.0
161.04961	10.0
163.03989	610.0
164.04753	10.0
168.05672	30.0
169.06557	1000.0
170.06956	40.0
179.05655	40.0
184.05266	10.0
185.05667	50.0
187.07533	70.0
203.06934	30.0
213.05554	890.0
214.05823	40.0
231.06529	40.0
255.06767	20.0
257.04831	10.0
275.05768	20.0
393.11902	10.0
455.12677	20.0
557.16534	30.0
601.16174	190.0
602.18903	10.0
763.21466	250.0
764.21484	30.0

NAME:  NCGC00381001-01_C32H41NO11_
PRECURSORMZ:  614.26068469183
PRECURSORTYPE:  [M-H]-
FORMULA:  C32H41NO11
Ontology: ;;;
INCHIKEY:  AAIIJIOWYALNCC-UHFFFAOYNA-N
SMILES:  CC1CCC2C(C)(C)C(OC(C)=O)C(CC2(C)C11CC2=C(O)C=C3C(=O)N(CC3=C2O1)C(CCC(O)=O)C(O)=O)OC(C)=O
RETENTIONTIME:  
CCS:  -1
IONMODE:  Negative
INSTRUMENTTYPE:  
INSTRUMENT:  Maxis II HD Q-TOF Bruker
COLLISIONENERGY:  
Comment:  DB#=CCMSLIB00000851253; origin=GNPS
Num Peaks:  27
175.02672	10.0
176.03575	40.0
177.04355	20.0
205.07825	10.0
219.08797	20.0
231.05472	10.0
245.0672	10.0
364.18903	40.0
380.21771	10.0
382.19763	30.0
390.20349	30.0
400.2149	30.0
424.24942	10.0
442.22751	10.0
442.26425	30.0
450.22964	100.0
468.23956	200.0
484.23871	20.0
484.27524	30.0
486.24921	230.0
510.24969	110.0
528.26013	240.0
552.25952	50.0
570.27155	560.0
596.25043	10.0
614.2616	1000.0
615.25934	10.0

NAME:  NCGC00380367-01_C21H24O5_7-Benzofurancarboxylic acid, 2,3-dihydro-2-(1-hydroxy-1-methylethyl)-4-methoxy-6-(2-phenylethyl)-
PRECURSORMZ:  401.16057642083
PRECURSORTYPE:  [M+FA-H]-
FORMULA:  C21H24O5
Ontology: ;;;
INCHIKEY:  XJKIBJFVLHQLKC-UHFFFAOYNA-N
SMILES:  COC1=C2CC(OC2=C(C(O)=O)C(CCC2=CC=CC=C2)=C1)C(C)(C)O
RETENTIONTIME:  
CCS:  -1
IONMODE:  Negative
INSTRUMENTTYPE:  
INSTRUMENT:  Maxis II HD Q-TOF Bruker
COLLISIONENERGY:  
Comment:  DB#=CCMSLIB00000849663; origin=GNPS
Num Peaks:  22
125.01672	10.0
148.989	40.0
175.07625	40.0
189.08624	40.0
207.099	260.0
224.06744	40.0
233.11415	30.0
237.09381	30.0
238.0988	50.0
241.11534	20.0
253.1235	120.0
257.08932	30.0
277.14282	30.0
293.15475	60.0
296.14743	30.0
309.15134	60.0
309.75287	10.0
311.16763	990.0
312.17581	10.0
312.94214	30.0
325.14252	30.0
355.15591	1000.0

NAME:  NCGC00381190-01_C27H29N5O5_
PRECURSORMZ:  484.19902792183
PRECURSORTYPE:  [M-H2O-H]-
FORMULA:  C27H29N5O5
Ontology: ;;;
INCHIKEY:  ZCTHXQVUJKDGDA-UHFFFAOYNA-N
SMILES:  CC(C)C1(O)N=C(O)C(CC2(O)C3NC(C)(C)C(=O)N3C3=CC=CC=C23)N2C(=O)C3=CC=CC=C3N=C12
RETENTIONTIME:  
CCS:  -1
IONMODE:  Negative
INSTRUMENTTYPE:  
INSTRUMENT:  Maxis II HD Q-TOF Bruker
COLLISIONENERGY:  
Comment:  DB#=CCMSLIB00000850442; origin=GNPS
Num Peaks:  26
88.32159	30.0
145.03864	170.0
160.06129	20.0
170.03714	40.0
199.08943	80.0
201.09572	30.0
210.03001	30.0
214.09441	150.0
215.08527	100.0
225.06323	60.0
227.08255	40.0
239.0746	70.0
240.07913	250.0
240.11786	60.0
252.07375	60.0
254.10429	30.0
268.10867	860.0
268.17404	20.0
287.01569	30.0
331.00525	30.0
387.15021	20.0
389.1965	30.0
393.19119	40.0
457.1825	30.0
483.69452	40.0
484.19763	1000.0

NAME:  NCGC00381095-01_C26H44O8_7-Hydroxy-4-[(3Z)-5-hydroxy-3-methyl-3-penten-1-yl]-4a,8,8-trimethyl-3-methylenedecahydro-2-naphthalenyl beta-D-mannopyranoside
PRECURSORMZ:  529.30182092483
PRECURSORTYPE:  [M+FA-H]-
FORMULA:  C26H44O8
Ontology: ;;;
INCHIKEY:  JECOCDKQCZSANH-UHFFFAOYNA-N
SMILES:  CC(CCC1C(=C)C(CC2C(C)(C)C(O)CCC12C)OC1OC(CO)C(O)C(O)C1O)=CCO
RETENTIONTIME:  
CCS:  -1
IONMODE:  Negative
INSTRUMENTTYPE:  
INSTRUMENT:  Maxis II HD Q-TOF Bruker
COLLISIONENERGY:  
Comment:  DB#=CCMSLIB00000849233; origin=GNPS
Num Peaks:  11
101.02368	100.0
131.03505	60.0
144.18279	30.0
161.04518	180.0
164.80675	30.0
179.04897	70.0
189.13512	70.0
263.01633	50.0
465.27551	100.0
483.29117	1000.0
529.30377	280.0

NAME:  NCGC00380873-01_C47H74O16_
PRECURSORMZ:  939.49588885083
PRECURSORTYPE:  [M+FA-H]-
FORMULA:  C47H74O16
Ontology: ;;;
INCHIKEY:  LXAMCLNOVGHDMD-UHFFFAOYNA-N
SMILES:  CC1OC(OC2C(O)C(OC(OC3CCC4(C)C(CCC5(C)C4C=CC4=C6CC(C)(C)CC(O)C6(C)CCC54C)C3(C)C)C2OC2OCC(O)C(O)C2O)C(O)=O)C(O)C(O)C1O
RETENTIONTIME:  
CCS:  -1
IONMODE:  Negative
INSTRUMENTTYPE:  
INSTRUMENT:  Maxis II HD Q-TOF Bruker
COLLISIONENERGY:  
Comment:  DB#=CCMSLIB00000849458; origin=GNPS
Num Peaks:  16
71.01749	10.0
85.02909	20.0
99.00795	10.0
113.02423	60.0
131.03461	30.0
143.03448	40.0
157.01265	20.0
205.0722	50.0
437.34167	20.0
507.38626	30.0
597.38226	20.0
747.43109	10.0
875.48676	10.0
893.492	1000.0
894.49854	210.0
895.51215	10.0

NAME:  NCGC00380795-01_C19H22O5_(1R,2R,5R,8R,9S,10R,12S)-12-Hydroxy-11-methyl-6-methylene-16-oxo-15-oxapentacyclo[9.3.2.1~5,8~.0~1,10~.0~2,8~]heptadec-13-ene-9-carboxylic acid
PRECURSORMZ:  329.13944735583
PRECURSORTYPE:  [M-H]-
FORMULA:  C19H22O5
Ontology: ;;;
INCHIKEY:  SEEGHKWOBVVBTQ-UHFFFAOYNA-N
SMILES:  [H]C12CC3(CC1=C)C(CC2)C12OC(=O)C(C)(C1C3C(O)=O)C(O)C=C2
RETENTIONTIME:  
CCS:  181.818773
IONMODE:  Negative
INSTRUMENTTYPE:  
INSTRUMENT:  Maxis II HD Q-TOF Bruker
COLLISIONENERGY:  
Comment:  DB#=CCMSLIB00000850679; origin=GNPS
Num Peaks:  17
82.37688	30.0
82.90235	40.0
117.01358	20.0
155.0869	60.0
162.48727	30.0
195.11948	20.0
221.13501	30.0
222.95955	40.0
223.1152	30.0
223.15198	1000.0
225.13643	40.0
237.12738	90.0
241.17737	30.0
255.09798	20.0
267.13071	50.0
329.13943	490.0
610.96826	60.0

NAME:  NCGC00380290-01_C20H24O6_2-Butenoic acid, 2-methyl-, (3aR,4R,5R,6E,9Z,11aR)-2,3,3a,4,5,8,11,11a-octahydro-4-hydroxy-6,10-dimethyl-3-methylene-2,8-dioxocyclodeca[b]furan-5-yl ester, (2Z)-
PRECURSORMZ:  359.15001204083
PRECURSORTYPE:  [M-H]-
FORMULA:  C20H24O6
Ontology: ;;;
INCHIKEY:  BIHIEAXOTSXYAE-UHFFFAOYNA-N
SMILES:  CC=C(C)C(=O)OC1C(O)C2C(CC(C)=CC(=O)C=C1C)OC(=O)C2=C
RETENTIONTIME:  
CCS:  -1
IONMODE:  Negative
INSTRUMENTTYPE:  
INSTRUMENT:  Maxis II HD Q-TOF Bruker
COLLISIONENERGY:  
Comment:  DB#=CCMSLIB00000850229; origin=GNPS
Num Peaks:  31
99.04212	450.0
119.05302	70.0
133.06265	120.0
135.08411	80.0
147.07574	470.0
148.40884	30.0
148.88033	70.0
163.07681	240.0
170.68292	80.0
171.02509	90.0
173.09875	140.0
186.06848	120.0
186.80141	70.0
187.11746	30.0
191.07106	70.0
196.51999	70.0
197.09433	830.0
200.08189	80.0
204.99043	100.0
213.08998	180.0
215.10915	520.0
215.14305	60.0
254.97182	60.0
257.07391	80.0
259.09927	770.0
273.06076	50.0
277.11099	450.0
283.06625	100.0
310.27472	80.0
359.14758	1000.0
360.1427	80.0

NAME:  NCGC00381214-01_C21H30O12_beta-D-Glucopyranoside, 2-hydroxy-4-(2-propen-1-yl)phenyl 6-O-beta-D-glucopyranosyl-
PRECURSORMZ:  519.17192895383
PRECURSORTYPE:  [M+FA-H]-
FORMULA:  C21H30O12
Ontology: ;;;
INCHIKEY:  JSQKCXPOJUGOCX-UHFFFAOYNA-N
SMILES:  OCC1OC(OCC2OC(OC3=C(O)C=C(CC=C)C=C3)C(O)C(O)C2O)C(O)C(O)C1O
RETENTIONTIME:  
CCS:  -1
IONMODE:  Negative
INSTRUMENTTYPE:  
INSTRUMENT:  Maxis II HD Q-TOF Bruker
COLLISIONENERGY:  
Comment:  DB#=CCMSLIB00000850803; origin=GNPS
Num Peaks:  8
148.05431	10.0
149.06078	1000.0
161.04524	10.0
179.05788	20.0
221.06647	20.0
263.07745	10.0
323.09933	80.0
473.16727	180.0

NAME:  NCGC00380714-01_C20H22O9_3,5-Dihydroxy-2-(4-hydroxyphenyl)-3,4-dihydro-2H-chromen-7-yl pentofuranoside
PRECURSORMZ:  451.12458483583
PRECURSORTYPE:  [M+FA-H]-
FORMULA:  C20H22O9
Ontology: ;;;
INCHIKEY:  XWFQRXGYJJOFCO-UHFFFAOYNA-N
SMILES:  OCC1OC(OC2=CC(O)=C3CC(O)C(OC3=C2)C2=CC=C(O)C=C2)C(O)C1O
RETENTIONTIME:  
CCS:  -1
IONMODE:  Negative
INSTRUMENTTYPE:  
INSTRUMENT:  Maxis II HD Q-TOF Bruker
COLLISIONENERGY:  
Comment:  DB#=CCMSLIB00000850100; origin=GNPS
Num Peaks:  9
137.02457	90.0
166.02434	10.0
187.07532	10.0
189.05754	10.0
205.0843	20.0
229.08553	30.0
269.06674	20.0
273.077	1000.0
405.121	70.0

NAME:  NCGC00385189-01_C44H68O19_Card-20(22)-enolide, 16-(acetyloxy)-3-[[O-hexopyranosyl-(1->6)-O-hexopyranosyl-(1->4)-2,6-dideoxy-3-O-methylhexopyranosyl]oxy]-14-hydroxy-
PRECURSORMZ:  945.43368251783
PRECURSORTYPE:  [M+FA-H]-
FORMULA:  C44H68O19
Ontology: ;;;
INCHIKEY:  PKZLCDIEFSFXDK-UHFFFAOYNA-N
SMILES:  COC1CC(OC2CCC3(C)C(CCC4C3CCC3(C)C(C(CC43O)OC(C)=O)C3=CC(=O)OC3)C2)OC(C)C1OC1OC(COC2OC(CO)C(O)C(O)C2O)C(O)C(O)C1O
RETENTIONTIME:  
CCS:  -1
IONMODE:  Negative
INSTRUMENTTYPE:  
INSTRUMENT:  Maxis II HD Q-TOF Bruker
COLLISIONENERGY:  
Comment:  DB#=CCMSLIB00000850550; origin=GNPS
Num Peaks:  45
71.01467	20.0
83.01341	20.0
85.02948	50.0
89.02567	30.0
95.0137	10.0
97.02953	20.0
99.00898	20.0
101.02357	150.0
111.04478	10.0
113.02283	200.0
119.03336	70.0
125.02376	50.0
131.03265	10.0
138.0338	10.0
139.03993	20.0
141.01579	10.0
143.0334	80.0
145.05002	10.0
149.04524	20.0
159.02873	30.0
161.04478	350.0
179.05563	100.0
203.0553	10.0
221.06496	60.0
225.09442	10.0
233.06566	20.0
245.06718	30.0
263.07584	70.0
323.09708	100.0
497.29181	110.0
498.29507	10.0
659.3465	200.0
660.3476	30.0
803.38538	50.0
804.39044	10.0
821.39819	1000.0
822.40234	240.0
839.40894	30.0
840.414	10.0
855.39893	30.0
857.42981	10.0
863.40613	20.0
881.41663	10.0
899.43311	90.0
900.43793	20.0

NAME:  NCGC00380690-01_C22H22O11_beta-D-Glucopyranose, 6-O-[(2E)-1-oxo-3-phenyl-2-propen-1-yl]-, 1-(3,4,5-trihydroxybenzoate)
PRECURSORMZ:  461.10893507583
PRECURSORTYPE:  [M-H]-
FORMULA:  C22H22O11
Ontology: ;;;
INCHIKEY:  REBRERQNUHGTMS-UHFFFAOYNA-N
SMILES:  OC1C(COC(=O)C=CC2=CC=CC=C2)OC(OC(=O)C2=CC(O)=C(O)C(O)=C2)C(O)C1O
RETENTIONTIME:  
CCS:  218.0904258
IONMODE:  Negative
INSTRUMENTTYPE:  
INSTRUMENT:  Maxis II HD Q-TOF Bruker
COLLISIONENERGY:  
Comment:  DB#=CCMSLIB00000850415; origin=GNPS
Num Peaks:  15
123.00854	70.0
125.02404	60.0
141.0204	30.0
147.04565	90.0
151.00325	260.0
161.06075	140.0
167.03487	10.0
168.00523	40.0
169.01454	490.0
183.03096	20.0
189.05577	70.0
211.02356	150.0
253.03487	50.0
313.05701	140.0
461.11002	1000.0

NAME:  NCGC00347837-02_C42H58N8O7_1,4,7,10,13,16,19-Heptaazacyclotricosane-2,5,8,11,14,17,20-heptone, 3-(1H-indol-3-ylmethyl)-6,18-dimethyl-15-(1-methylethyl)-9-(2-methylpropyl)-12-(1-phenylethyl)-
PRECURSORMZ:  831.44104878783
PRECURSORTYPE:  [M+FA-H]-
FORMULA:  C42H58N8O7
Ontology: ;;;
INCHIKEY:  JYHXDMQYXCMDPF-UHFFFAOYNA-N
SMILES:  CC(C)CC1N=C(O)C(N=C(O)C(N=C(O)C(C)N=C(O)CCCN=C(O)C(CC2=CNC3=CC=CC=C23)N=C(O)C(C)N=C1O)C(C)C)C(C)C1=CC=CC=C1
RETENTIONTIME:  
CCS:  -1
IONMODE:  Negative
INSTRUMENTTYPE:  
INSTRUMENT:  Maxis II HD Q-TOF Bruker
COLLISIONENERGY:  
Comment:  DB#=CCMSLIB00000850946; origin=GNPS
Num Peaks:  59
99.01991	20.0
115.08714	20.0
127.0518	40.0
129.10439	10.0
139.08757	10.0
140.08417	20.0
141.06638	40.0
142.06563	20.0
144.07799	20.0
153.06595	10.0
154.09767	20.0
155.08134	20.0
155.11716	20.0
158.09409	20.0
165.10364	40.0
170.09651	10.0
172.11195	10.0
182.12973	50.0
183.11462	20.0
184.07115	10.0
186.1257	20.0
200.14172	100.0
211.11929	50.0
225.13434	10.0
226.12352	20.0
229.13145	80.0
239.15274	10.0
241.1317	10.0
243.1451	20.0
255.14801	10.0
259.14487	30.0
267.18149	10.0
268.11581	10.0
276.17422	20.0
282.16101	10.0
285.19537	20.0
294.1557	10.0
324.20627	10.0
328.19888	60.0
338.22269	20.0
354.22186	10.0
355.22195	10.0
358.19162	30.0
381.22803	30.0
399.23645	30.0
413.25073	10.0
442.28619	10.0
457.255	10.0
460.29211	80.0
472.25793	10.0
489.28845	40.0
528.29932	30.0
542.31262	10.0
612.39032	20.0
618.34418	30.0
656.37885	120.0
741.44763	10.0
785.43677	1000.0
786.4386	140.0

NAME:  NCGC00385731-01_C46H74O17_(3beta,5xi,9xi,16alpha)-3-{[alpha-L-Arabinopyranosyl-(1->2)-alpha-L-arabinopyranosyl-(1->6)-beta-D-glucopyranosyl]oxy}-16-hydroxyolean-12-en-28-oic acid
PRECURSORMZ:  897.48532447083
PRECURSORTYPE:  [M-H]-
FORMULA:  C46H74O17
Ontology: ;;;
INCHIKEY:  WGFGSGMOAHUFDZ-UHFFFAOYNA-N
SMILES:  CC1(C)CCC2(C(O)CC3(C)C(=CCC4C5(C)CCC(OC6OC(COC7OCC(O)C(O)C7OC7OCC(O)C(O)C7O)C(O)C(O)C6O)C(C)(C)C5CCC34C)C2C1)C(O)=O
RETENTIONTIME:  
CCS:  283.9385978
IONMODE:  Negative
INSTRUMENTTYPE:  
INSTRUMENT:  Maxis II HD Q-TOF Bruker
COLLISIONENERGY:  
Comment:  DB#=CCMSLIB00000851204; origin=GNPS
Num Peaks:  7
571.40314	10.0
703.45203	20.0
835.4837	30.0
836.49603	10.0
897.48578	1000.0
897.99359	20.0
898.48901	160.0

NAME:  NCGC00380749-01_C30H32O12_{(1R,2S,3R,5R,6R,8S)-3-[(6-O-Benzoyl-beta-D-glucopyranosyl)oxy]-6-hydroxy-8-methyl-9,10-dioxatetracyclo[4.3.1.0~2,5~.0~3,8~]dec-2-yl}methyl benzoate
PRECURSORMZ:  583.18210001783
PRECURSORTYPE:  [M-H]-
FORMULA:  C30H32O12
Ontology: ;;;
INCHIKEY:  LATYEZNGPQKAIK-UHFFFAOYNA-N
SMILES:  [H]C12OC3(O)CC(C)(O1)C1(CC3C21COC(=O)C1=CC=CC=C1)OC1OC(COC(=O)C2=CC=CC=C2)C(O)C(O)C1O
RETENTIONTIME:  
CCS:  235.3376656
IONMODE:  Negative
INSTRUMENTTYPE:  
INSTRUMENT:  Maxis II HD Q-TOF Bruker
COLLISIONENERGY:  
Comment:  DB#=CCMSLIB00000851091; origin=GNPS
Num Peaks:  18
125.02411	10.0
134.03824	60.0
137.02473	10.0
145.0294	20.0
149.0611	60.0
151.04108	20.0
160.01668	90.0
163.03946	30.0
175.04002	360.0
181.05031	50.0
193.05098	280.0
217.08546	20.0
233.08275	10.0
261.07758	690.0
357.10321	20.0
375.11035	120.0
522.14288	20.0
537.16272	1000.0

NAME:  NCGC00381332-01_C28H38N2O7_Spiro[2H-furo[2,3-e]isoindole-2,1'(2'H)-naphthalene]-7(3H)-acetic acid, alpha-(3-amino-3-oxopropyl)-3',4',4'a,5',6,6',7',8,8',8'a-decahydro-4,6'-dihydroxy-2',5',5',8'a-tetramethyl-6-oxo-
PRECURSORMZ:  513.26062511983
PRECURSORTYPE:  [M-H]-
FORMULA:  C28H38N2O7
Ontology: ;;;
INCHIKEY:  VGRPJNIVIGBNNK-UHFFFAOYNA-N
SMILES:  CC1CCC2C(C)(C)C(O)CCC2(C)C11CC2=C(O)C=C3C(=O)N(CC3=C2O1)C(CCC(O)=N)C(O)=O
RETENTIONTIME:  
CCS:  -1
IONMODE:  Negative
INSTRUMENTTYPE:  
INSTRUMENT:  Maxis II HD Q-TOF Bruker
COLLISIONENERGY:  
Comment:  DB#=CCMSLIB00000849767; origin=GNPS
Num Peaks:  15
122.95339	20.0
175.02603	30.0
176.03397	250.0
176.06987	30.0
245.34442	40.0
260.09341	50.0
262.09082	30.0
276.29007	50.0
303.98511	30.0
372.96835	40.0
451.28534	40.0
468.21326	30.0
469.27448	670.0
511.63971	40.0
513.25812	1000.0

NAME:  NCGC00169103-03_C19H18O6_Benz[3,4]anthra[1,2-b]oxirene-5,6-dione, 1a,2,3,4,5b,11,11a,11b-octahydro-10,11,11a-trihydroxy-3-methyl-
PRECURSORMZ:  387.10854084783
PRECURSORTYPE:  [M+FA-H]-
FORMULA:  C19H18O6
Ontology: ;;;
INCHIKEY:  KALVKBCVJGXOKE-UHFFFAOYNA-N
SMILES:  CC1CC(=O)C2=C(C1)C1OC1C1(O)C(O)C3=C(C=CC=C3O)C(=O)C21
RETENTIONTIME:  
CCS:  -1
IONMODE:  Negative
INSTRUMENTTYPE:  
INSTRUMENT:  Maxis II HD Q-TOF Bruker
COLLISIONENERGY:  
Comment:  DB#=CCMSLIB00000851212; origin=GNPS
Num Peaks:  24
142.90964	40.0
149.02271	60.0
151.07349	40.0
159.24757	10.0
177.05911	70.0
178.42665	30.0
189.05249	50.0
191.06805	200.0
199.03905	20.0
211.11194	30.0
253.05246	140.0
261.05487	30.0
269.08694	20.0
277.08679	70.0
279.10489	110.0
281.07584	20.0
293.08298	60.0
294.08823	70.0
295.09045	290.0
305.08182	30.0
323.08957	410.0
325.55087	20.0
341.10196	1000.0
1557.02185	20.0

NAME:  NCGC00380976-01_C28H42N2O7_(4E,10E)-13,20-Dihydroxy-8,14-dimethoxy-4,10,12,16-tetramethyl-3-oxo-2-azabicyclo[16.3.1]docosa-1(22),4,10,18,20-pentaen-9-yl carbamate
PRECURSORMZ:  517.29192524783
PRECURSORTYPE:  [M-H]-
FORMULA:  C28H42N2O7
Ontology: ;;;
INCHIKEY:  HUXWGTSMSXMDBH-UHFFFAOYNA-N
SMILES:  COC1CCC=C(C)C(O)=NC2=CC(O)=CC(CC(C)CC(OC)C(O)C(C)C=C(C)C1OC(O)=N)=C2
RETENTIONTIME:  
CCS:  224.4537996
IONMODE:  Negative
INSTRUMENTTYPE:  
INSTRUMENT:  Maxis II HD Q-TOF Bruker
COLLISIONENERGY:  
Comment:  DB#=CCMSLIB00000849788; origin=GNPS
Num Peaks:  35
87.41383	30.0
141.09071	30.0
161.13448	110.0
179.14781	20.0
205.11438	20.0
214.08148	30.0
220.10803	20.0
221.12234	20.0
234.11223	20.0
236.1272	200.0
243.44218	20.0
262.1084	250.0
281.93732	10.0
288.14291	40.0
290.97821	40.0
292.15558	10.0
302.11993	30.0
318.17383	90.0
330.16599	20.0
330.19321	20.0
344.172	30.0
360.18201	20.0
424.12521	20.0
424.24405	90.0
424.26718	100.0
442.26321	380.0
456.26901	130.0
459.26996	20.0
473.49683	40.0
473.94574	20.0
474.17172	20.0
474.28656	1000.0
477.73013	20.0
482.3916	10.0
1299.11267	30.0

NAME:  NCGC00381154-01_C27H35ClN2O6_6-{7-Acetoxy-5-chloro-3-[(1E,3E)-3,5-dimethyl-1,3-heptadien-1-yl]-7-methyl-6,8-dioxo-7,8-dihydro-2(6H)-isoquinolinyl}norleucine
PRECURSORMZ:  517.21108814783
PRECURSORTYPE:  [M-H]-
FORMULA:  C27H35ClN2O6
Ontology: ;;;
INCHIKEY:  QTKJPFQTRUDUFR-UHFFFAOYNA-N
SMILES:  CCC(C)C=C(C)C=CC1=CC2=C(Cl)C(=O)C(C)(OC(C)=O)C(=O)C2=CN1CCCCC(N)C(O)=O
RETENTIONTIME:  
CCS:  -1
IONMODE:  Negative
INSTRUMENTTYPE:  
INSTRUMENT:  Maxis II HD Q-TOF Bruker
COLLISIONENERGY:  
Comment:  DB#=CCMSLIB00000851029; origin=GNPS
Num Peaks:  33
116.05101	10.0
144.0437	20.0
162.05858	10.0
183.53818	20.0
191.35519	20.0
219.1049	10.0
221.02594	10.0
224.01268	10.0
236.14339	20.0
264.13174	30.0
270.03702	20.0
278.11557	10.0
280.13239	20.0
282.1489	20.0
284.05994	20.0
292.13281	50.0
294.1387	10.0
298.06686	10.0
310.14661	30.0
324.16754	20.0
326.10138	10.0
328.11191	1000.0
328.40155	20.0
329.10782	10.0
346.11517	20.0
377.7309	10.0
388.13419	540.0
413.20181	10.0
421.2204	20.0
437.44293	10.0
457.18988	340.0
517.0238	10.0
517.20197	50.0

NAME:  NCGC00380849-01_C28H34O8_(2E,4E)-1-{(1R,3S,7S,8R,10S)-12-[(4E)-4-Hexenoyl]-1,6,8,13-tetrahydroxy-3,7,10,14-tetramethyl-2,9-dioxapentacyclo[8.4.0.0~3,8~.0~4,14~.0~7,11~]tetradeca-5,12-dien-5-yl}-2,4-hexadien-1-one
PRECURSORMZ:  497.21809160283
PRECURSORTYPE:  [M-H]-
FORMULA:  C28H34O8
Ontology: ;;;
INCHIKEY:  AWAWQVBWAWCQSJ-UHFFFAOYNA-N
SMILES:  CC=CCCC(=O)C1=C(O)C2(C)C3C(C(=O)C=CC=CC)=C(O)C4(C)C1C1(C)OC4(O)C3(C)OC21O
RETENTIONTIME:  
CCS:  -1
IONMODE:  Negative
INSTRUMENTTYPE:  
INSTRUMENT:  Maxis II HD Q-TOF Bruker
COLLISIONENERGY:  
Comment:  DB#=CCMSLIB00000849419; origin=GNPS
Num Peaks:  24
135.04143	20.0
136.05099	20.0
147.08281	20.0
152.04993	40.0
153.05597	120.0
179.03006	30.0
180.0421	10.0
189.13025	10.0
192.04205	20.0
193.08588	10.0
205.08543	50.0
205.12187	30.0
207.09802	40.0
231.09898	20.0
232.07353	40.0
234.0887	80.0
247.09682	440.0
249.11259	1000.0
285.14407	10.0
291.13586	10.0
313.17096	10.0
453.22861	10.0
457.78165	10.0
497.21869	150.0

NAME:  NCGC00380658-01_C35H52O15_3-{[6-Deoxy-4-O-(beta-D-glucopyranosyl)-alpha-L-mannopyranosyl]oxy}-14,16-dihydroxy-19-oxocard-20(22)-enolide
PRECURSORMZ:  757.32882352183
PRECURSORTYPE:  [M+FA-H]-
FORMULA:  C35H52O15
Ontology: ;;;
INCHIKEY:  PKLYKXCZFIDRLH-UHFFFAOYNA-N
SMILES:  CC1OC(OC2CCC3(C=O)C(CCC4C3CCC3(C)C(C(O)CC43O)C3=CC(=O)OC3)C2)C(O)C(O)C1OC1OC(CO)C(O)C(O)C1O
RETENTIONTIME:  
CCS:  -1
IONMODE:  Negative
INSTRUMENTTYPE:  
INSTRUMENT:  Maxis II HD Q-TOF Bruker
COLLISIONENERGY:  
Comment:  DB#=CCMSLIB00000850268; origin=GNPS
Num Peaks:  51
85.03059	20.0
89.0237	30.0
95.01373	30.0
99.01009	30.0
101.02417	100.0
113.02392	70.0
119.03471	40.0
121.03268	20.0
122.03587	30.0
123.04343	30.0
125.02338	10.0
127.03779	10.0
131.03484	10.0
143.03748	30.0
149.04124	10.0
159.02756	70.0
161.04506	120.0
179.05664	50.0
189.09045	20.0
221.06804	20.0
241.13725	10.0
247.07898	10.0
263.16766	50.0
283.17303	10.0
323.20703	20.0
329.17447	10.0
329.5069	10.0
357.20389	20.0
359.1861	40.0
359.23105	10.0
367.18719	40.0
385.20242	50.0
409.21722	10.0
485.24963	10.0
487.25015	10.0
505.24722	70.0
513.24982	50.0
531.26196	230.0
532.26617	20.0
549.26984	10.0
623.30438	20.0
647.30084	20.0
649.32379	50.0
667.29907	290.0
668.31134	40.0
675.30603	470.0
676.30414	50.0
693.31299	1000.0
694.31134	110.0
711.32324	940.0
712.32812	130.0

NAME:  NCGC00385651-01_C23H32O7_
PRECURSORMZ:  465.21300591783
PRECURSORTYPE:  [M+FA-H]-
FORMULA:  C23H32O7
Ontology: ;;;
INCHIKEY:  ZFHBPZHOLGMDMW-UHFFFAOYNA-N
SMILES:  COC(=O)C1(C)CCC(O)C2(C)C1C(OC(C)=O)C(O)C1=CC(C(C)C)=C(O)C=C21
RETENTIONTIME:  
CCS:  -1
IONMODE:  Negative
INSTRUMENTTYPE:  
INSTRUMENT:  Maxis II HD Q-TOF Bruker
COLLISIONENERGY:  
Comment:  DB#=CCMSLIB00000851300; origin=GNPS
Num Peaks:  20
157.10196	20.0
170.69171	20.0
175.98167	10.0
199.11133	20.0
215.11101	30.0
252.4781	10.0
253.11911	20.0
255.10139	20.0
257.1171	10.0
285.12527	20.0
285.15027	20.0
301.11722	10.0
341.17731	170.0
343.15039	10.0
358.02991	10.0
358.17352	40.0
359.18759	1000.0
360.19778	30.0
401.20322	130.0
419.207	460.0

NAME:  NCGC00385221-01_C23H32O15_alpha-D-Glucopyranoside, beta-D-fructofuranosyl 6-O-[(2E)-3-(4-hydroxy-3,5-dimethoxyphenyl)-1-oxo-2-propen-1-yl]-
PRECURSORMZ:  547.16684387783
PRECURSORTYPE:  [M-H]-
FORMULA:  C23H32O15
Ontology: ;;;
INCHIKEY:  DJBWDHVUJCXYBH-UHFFFAOYNA-N
SMILES:  COC1=CC(C=CC(=O)OCC2OC(OC3(CO)OC(CO)C(O)C3O)C(O)C(O)C2O)=CC(OC)=C1O
RETENTIONTIME:  
CCS:  253.6870035
IONMODE:  Negative
INSTRUMENTTYPE:  
INSTRUMENT:  Maxis II HD Q-TOF Bruker
COLLISIONENERGY:  
Comment:  DB#=CCMSLIB00000850004; origin=GNPS
Num Peaks:  41
105.37634	10.0
113.02405	20.0
123.00797	20.0
135.81703	20.0
149.0208	60.0
152.00323	20.0
157.05161	20.0
161.0475	80.0
164.04546	120.0
165.01752	40.0
169.33731	10.0
179.05295	20.0
190.02434	180.0
201.02882	20.0
203.05333	20.0
203.65599	30.0
204.73781	10.0
204.8502	20.0
205.0498	930.0
207.02612	20.0
219.06607	20.0
223.05893	830.0
237.07347	20.0
241.07535	10.0
247.0652	10.0
249.07472	20.0
250.04697	30.0
251.05293	30.0
263.09058	10.0
265.0726	250.0
295.08844	100.0
325.09503	30.0
341.10782	20.0
367.10788	110.0
385.1131	90.0
531.46869	10.0
532.13464	10.0
547.16992	1000.0
548.28174	30.0
585.289	10.0
593.17596	20.0

NAME:  NCGC00380619-01_C27H37NO7_Spiro[2H-furo[2,3-e]isoindole-2,1'(2'H)-naphthalene]-7(3H)-butanoic acid, 3',4',4'a,5',6,6',7',8,8',8'a-decahydro-4,6',7'-trihydroxy-2',5',5',8'a-tetramethyl-6-oxo-, (2R,2'R,6'S,7'R,8'aS)-
PRECURSORMZ:  486.24972608283
PRECURSORTYPE:  [M-H]-
FORMULA:  C27H37NO7
Ontology: ;;;
INCHIKEY:  WENVIACWNHYPLR-UHFFFAOYNA-N
SMILES:  CC1CCC2C(C)(C)C(O)C(O)CC2(C)C11CC2=C(O)C=C3C(=O)N(CCCC(O)=O)CC3=C2O1
RETENTIONTIME:  
CCS:  220.9395489
IONMODE:  Negative
INSTRUMENTTYPE:  
INSTRUMENT:  Maxis II HD Q-TOF Bruker
COLLISIONENERGY:  
Comment:  DB#=CCMSLIB00000850454; origin=GNPS
Num Peaks:  2
468.23917	150.0
486.25049	1000.0

NAME:  NCGC00380724-01_C28H47NO8_(3R,5R,6S,7S,9R,11E,13S,14R)-14-Ethyl-13-hydroxy-3,5,7,9,13-pentamethyl-2,4,10-trioxooxacyclotetradec-11-en-6-yl 3,4,6-trideoxy-3-(dimethylamino)-D-xylo-hexopyranoside
PRECURSORMZ:  524.32289102483
PRECURSORTYPE:  [M-H]-
FORMULA:  C28H47NO8
Ontology: ;;;
INCHIKEY:  UZQBOFAUUTZOQE-UHFFFAOYNA-N
SMILES:  CCC1OC(=O)C(C)C(=O)C(C)C(OC2OC(C)CC(C2O)N(C)C)C(C)CC(C)C(=O)C=CC1(C)O
RETENTIONTIME:  
CCS:  226.2980816
IONMODE:  Negative
INSTRUMENTTYPE:  
INSTRUMENT:  Maxis II HD Q-TOF Bruker
COLLISIONENERGY:  
Comment:  DB#=CCMSLIB00000850907; origin=GNPS
Num Peaks:  38
85.02978	80.0
111.04577	30.0
113.06012	10.0
121.06403	10.0
122.47834	10.0
123.07841	40.0
125.09928	170.0
127.07827	20.0
137.09734	510.0
141.09792	10.0
149.09064	10.0
151.07825	60.0
152.05049	30.0
153.05313	50.0
161.11148	20.0
167.10478	100.0
172.33391	10.0
174.11386	110.0
179.10741	1000.0
181.089	10.0
184.58696	10.0
191.15047	20.0
193.12183	100.0
205.1637	20.0
221.15352	20.0
235.13562	50.0
247.16809	110.0
249.15149	50.0
253.62056	20.0
256.21878	10.0
259.77252	20.0
273.15768	20.0
287.20557	30.0
291.15973	220.0
305.21667	50.0
349.2005	480.0
466.28369	60.0
524.32532	330.0

NAME:  NCGC00380837-01_C18H27NO5_
PRECURSORMZ:  382.18712552083
PRECURSORTYPE:  [M+FA-H]-
FORMULA:  C18H27NO5
Ontology: ;;;
INCHIKEY:  ZCEYUYRVYFKPRM-UHFFFAOYNA-N
SMILES:  CC(C)(O)CC(CO)N=C(O)CC(O)CC(=O)CC1=CC=CC=C1
RETENTIONTIME:  
CCS:  -1
IONMODE:  Negative
INSTRUMENTTYPE:  
INSTRUMENT:  Maxis II HD Q-TOF Bruker
COLLISIONENERGY:  
Comment:  DB#=CCMSLIB00000851232; origin=GNPS
Num Peaks:  5
107.88799	50.0
158.07932	840.0
159.08234	570.0
202.10861	1000.0
318.16049	150.0

NAME:  NCGC00380549-01_C36H43NO17_Evonine
PRECURSORMZ:  806.25130147683
PRECURSORTYPE:  [M+FA-H]-
FORMULA:  C36H43NO17
Ontology: Kingdom: Organic compounds;Superclass: Alkaloids and derivatives;;
INCHIKEY:  IMIAGCONYJPMDY-UHFFFAOYNA-N
SMILES:  [H]C12C(OC(C)=O)C34OC1(C)COC(=O)C1=C(N=CC=C1)C(C)C(C)C(=O)OC([H])(C(OC(C)=O)C(OC(C)=O)C3(COC(C)=O)C(OC(C)=O)C2=O)C4(C)O
RETENTIONTIME:  
CCS:  -1
IONMODE:  Negative
INSTRUMENTTYPE:  
INSTRUMENT:  Maxis II HD Q-TOF Bruker
COLLISIONENERGY:  
Comment:  DB#=CCMSLIB00000850970; origin=GNPS
Num Peaks:  57
75.89605	20.0
99.03452	20.0
99.71971	10.0
104.04955	20.0
109.02972	20.0
118.02303	10.0
135.04424	20.0
144.03665	10.0
145.05235	130.0
147.04684	10.0
151.04399	30.0
158.03891	10.0
159.04332	20.0
160.07635	980.0
161.07953	10.0
162.45377	10.0
171.076	10.0
173.06322	20.0
178.08696	110.0
187.04752	40.0
189.05371	30.0
191.03111	10.0
204.06651	1000.0
204.17464	10.0
207.05743	10.0
212.03912	10.0
215.05197	10.0
216.76819	20.0
217.04962	30.0
217.08408	10.0
222.08165	20.0
259.06143	60.0
264.10626	20.0
271.00583	20.0
273.07434	40.0
291.08856	10.0
296.99051	20.0
319.08676	20.0
346.05435	10.0
351.09335	10.0
351.13596	10.0
369.11905	60.0
393.1102	10.0
411.12805	30.0
445.94504	10.0
453.13284	20.0
476.98001	10.0
496.16153	20.0
523.95453	10.0
543.9585	20.0
616.22211	10.0
676.21033	10.0
718.23566	280.0
719.23682	50.0
785.98914	20.0
805.9848	90.0
1766.8562	20.0

NAME:  NCGC00381084-01_C31H36O12_8'-Acetoxy-2,2,2',9',13'-pentamethyl-6'-methylene-6,11',15',16'-tetraoxodihydro-4H-spiro[pyran-3,5'-[10,14,17]trioxapentacyclo[7.6.1.1~7,12~.0~1,12~.0~2,7~]heptadecan]-3'-yl (2E)-2-methyl-2-butenoate
PRECURSORMZ:  645.21887914683
PRECURSORTYPE:  [M+FA-H]-
FORMULA:  C31H36O12
Ontology: Kingdom: Organic compounds;Superclass: Organic acids and derivatives;Class: Carboxylic acids and derivatives;Subclass: Pentacarboxylic acids and derivatives
INCHIKEY:  PUNXZEDIXYLVKL-UHFFFAOYNA-N
SMILES:  CC=C(C)C(=O)OC1CC2(CCC(=O)OC2(C)C)C(=C)C23OC45C(C)OC(=O)C4(C(=O)C(C)(OC5=O)C2OC(C)=O)C13C
RETENTIONTIME:  
CCS:  -1
IONMODE:  Negative
INSTRUMENTTYPE:  
INSTRUMENT:  Maxis II HD Q-TOF Bruker
COLLISIONENERGY:  
Comment:  DB#=CCMSLIB00000849602; origin=GNPS
Num Peaks:  50
99.04785	260.0
149.06273	130.0
155.06932	120.0
161.0968	320.0
163.11568	140.0
177.05875	740.0
199.11459	150.0
212.08846	220.0
227.17572	70.0
229.16084	260.0
253.12361	150.0
255.16789	160.0
263.18311	200.0
265.12173	80.0
266.01913	140.0
271.11682	160.0
272.14484	170.0
287.0032	260.0
297.18607	210.0
307.16989	110.0
319.25067	150.0
321.18954	240.0
323.16537	90.0
323.20505	210.0
338.24463	270.0
339.12494	130.0
340.17575	180.0
341.13242	170.0
345.22311	90.0
353.13705	150.0
353.20883	180.0
356.96048	140.0
363.23618	220.0
367.97839	170.0
369.16925	510.0
379.1925	130.0
381.2428	110.0
407.25363	220.0
410.20441	240.0
413.15738	270.0
413.18692	250.0
425.23645	1000.0
431.96829	310.0
442.93332	170.0
501.22794	160.0
513.2121	80.0
557.05841	100.0
557.26666	130.0
598.10547	120.0
603.20782	130.0

NAME:  NCGC00380812-02_C23H22N4O5_1H-Imidazo[1,2-a]indole-9-propanoic acid, 2,3,9,9a-tetrahydro-9-hydroxy-2,2-dimethyl-3-oxo-alpha-(4-oxo-3(4H)-quinazolinyl)-
PRECURSORMZ:  479.15722237183
PRECURSORTYPE:  [M+FA-H]-
FORMULA:  C23H22N4O5
Ontology: Kingdom: Organic compounds;Superclass: Organoheterocyclic compounds;Class: Diazanaphthalenes;Subclass: Benzodiazines
INCHIKEY:  BMFPATPGMGPSGR-UHFFFAOYNA-N
SMILES:  CC1(C)NC2N(C1=O)C1=CC=CC=C1C2(O)CC(N1C=NC2=CC=CC=C2C1=O)C(O)=O
RETENTIONTIME:  
CCS:  -1
IONMODE:  Negative
INSTRUMENTTYPE:  
INSTRUMENT:  Maxis II HD Q-TOF Bruker
COLLISIONENERGY:  
Comment:  DB#=CCMSLIB00000850423; origin=GNPS
Num Peaks:  33
130.06255	20.0
141.99409	30.0
144.29036	30.0
145.04089	1000.0
146.04082	30.0
148.04251	150.0
155.24263	20.0
156.04631	30.0
157.05049	40.0
158.05995	30.0
158.23495	20.0
171.03181	30.0
171.05777	30.0
172.03224	40.0
172.06563	20.0
173.04538	20.0
173.07541	70.0
174.05942	40.0
187.08351	40.0
200.03326	30.0
211.08495	50.0
213.10266	440.0
229.09447	40.0
240.06448	20.0
249.07794	50.0
257.10461	20.0
271.08752	50.0
290.05246	30.0
302.08926	70.0
303.0961	20.0
347.08273	30.0
447.12524	80.0
461.01859	20.0

NAME:  NCGC00380952-01_C26H34O9_(1R,2R,4S,7S,8R,9R,10S,11R,12S,13S,14R,17R,18R,19R)-8-Acetoxy-10,19-dihydroxy-1,9,18-trimethyl-15-oxo-16,20-dioxahexacyclo[15.3.2.0~2,13~.0~4,12~.0~7,11~.0~14,19~]docos-5-ene-5-carboxylic acid
PRECURSORMZ:  535.21848522283
PRECURSORTYPE:  [M+FA-H]-
FORMULA:  C26H34O9
Ontology: ;;;
INCHIKEY:  OTGHTIDLDTWPFJ-UHFFFAOYNA-N
SMILES:  [H]C12CCC3(C)OC(O)(C1C)C(C1C3CC3C1C1C(O)C(C)C(OC(C)=O)C1C=C3C(O)=O)C(=O)O2
RETENTIONTIME:  
CCS:  -1
IONMODE:  Negative
INSTRUMENTTYPE:  
INSTRUMENT:  Maxis II HD Q-TOF Bruker
COLLISIONENERGY:  
Comment:  DB#=CCMSLIB00000850589; origin=GNPS
Num Peaks:  6
367.18994	30.0
385.20425	10.0
427.2088	20.0
429.19202	30.0
471.2027	50.0
489.21362	1000.0

NAME:  NCGC00347665-02_C31H40O12_Butanoic acid, 2-methyl-, 9-(3-furanyl)decahydro-2,6,8,9,14-pentahydroxy-3,8a-dimethyl-7-oxo-12H,13aH-3,6a,11b-[1,1,3]propanetriyl-2H,8H-oxireno[3',3a']indeno[5',4':4,5]pyrano[2,3-b]oxocin-4-yl ester
PRECURSORMZ:  649.25017927583
PRECURSORTYPE:  [M+FA-H]-
FORMULA:  C31H40O12
Ontology: Kingdom: Organic compounds;Superclass: Lipids and lipid;Class: Prenol lipids;Subclass: Triterpenoids
INCHIKEY:  GSAWBDXYMSQMRT-UHFFFAOYNA-N
SMILES:  CCC(C)C(=O)OC1CC(O)C23C4OCC5(C(O)CC2C1(C)C(O)O4)C3C(=O)C(O)C1(C)C52OC2CC1(O)C1=COC=C1
RETENTIONTIME:  
CCS:  -1
IONMODE:  Negative
INSTRUMENTTYPE:  
INSTRUMENT:  Maxis II HD Q-TOF Bruker
COLLISIONENERGY:  
Comment:  DB#=CCMSLIB00000850073; origin=GNPS
Num Peaks:  146
73.86979	20.0
85.53934	80.0
93.03244	30.0
101.06304	390.0
101.21056	10.0
102.06422	30.0
109.0301	180.0
111.00623	30.0
111.04464	650.0
113.75606	10.0
123.04474	30.0
134.03568	30.0
135.01253	40.0
135.04646	130.0
135.80244	20.0
137.02364	80.0
137.05219	30.0
149.0553	30.0
151.03548	80.0
157.05885	20.0
157.93787	30.0
161.06184	40.0
163.03725	20.0
163.07607	50.0
164.14732	60.0
165.05222	30.0
169.05988	40.0
173.05956	30.0
175.03966	50.0
175.06276	30.0
175.09258	60.0
177.05537	30.0
178.06209	20.0
179.03448	60.0
185.06439	30.0
186.02444	20.0
189.05193	40.0
193.08678	20.0
199.07809	80.0
199.6925	20.0
201.05034	90.0
202.05942	10.0
203.06177	20.0
206.06842	10.0
213.05791	20.0
215.07214	110.0
217.07249	40.0
221.09818	20.0
223.0614	20.0
225.04951	10.0
227.11356	40.0
228.26947	40.0
229.08353	20.0
230.06287	30.0
231.06572	20.0
233.08165	250.0
235.91632	20.0
239.07077	30.0
240.07578	10.0
242.83987	10.0
243.0692	30.0
251.0681	40.0
251.09995	50.0
255.10303	80.0
255.15562	20.0
257.08365	20.0
261.0712	90.0
263.10739	20.0
266.12518	10.0
269.08475	20.0
271.06631	10.0
273.07492	60.0
273.11047	20.0
277.125	30.0
281.08771	50.0
281.11411	30.0
282.05215	20.0
283.10147	40.0
283.12714	20.0
297.11252	50.0
299.09357	40.0
299.11826	60.0
301.10013	20.0
301.14938	40.0
305.08603	40.0
305.11523	60.0
309.07935	40.0
315.12048	20.0
317.10773	20.0
317.14261	20.0
323.0856	70.0
327.07892	40.0
333.11819	20.0
341.10532	250.0
343.1232	60.0
345.09116	30.0
347.14603	20.0
349.15649	20.0
351.13028	20.0
352.90817	20.0
353.11343	100.0
355.1203	20.0
361.13412	20.0
361.16974	40.0
363.14294	30.0
371.11588	50.0
375.12354	30.0
379.15073	20.0
381.14648	40.0
387.13501	30.0
389.11832	90.0
391.13406	50.0
393.13599	90.0
399.16602	20.0
401.12497	30.0
419.14218	20.0
437.20474	20.0
445.19781	30.0
447.19662	220.0
453.16815	60.0
455.1629	20.0
461.18027	30.0
464.20453	80.0
464.37616	30.0
465.21262	330.0
471.44327	10.0
474.7663	20.0
475.20276	180.0
475.24432	20.0
478.17905	50.0
478.29153	10.0
483.16937	100.0
489.21289	40.0
493.20911	1000.0
494.24487	30.0
496.77466	30.0
501.18375	70.0
509.22455	10.0
519.17383	70.0
555.21027	20.0
559.22449	230.0
563.57025	10.0
585.23309	100.0
603.24609	820.0
604.2533	50.0
649.23859	20.0

NAME:  NCGC00380454-01_C17H24O11_2H-Pyran-4-acetic acid, 3-ethenyl-2-(beta-D-glucopyranosyloxy)-3,4-dihydro-5-(methoxycarbonyl)-, (2S,3R,4S)-
PRECURSORMZ:  449.13006414083
PRECURSORTYPE:  [M+FA-H]-
FORMULA:  C17H24O11
Ontology: Kingdom: Organic compounds;Superclass: Lipids and lipid;Class: Prenol lipids;Subclass: Terpene glycosides
INCHIKEY:  MQLSOVRLZHTATK-UHFFFAOYNA-N
SMILES:  COC(=O)C1=COC(OC2OC(CO)C(O)C(O)C2O)C(C=C)C1CC(O)=O
RETENTIONTIME:  
CCS:  -1
IONMODE:  Negative
INSTRUMENTTYPE:  
INSTRUMENT:  Maxis II HD Q-TOF Bruker
COLLISIONENERGY:  
Comment:  DB#=CCMSLIB00000850136; origin=GNPS
Num Peaks:  20
70.37308	30.0
113.02301	70.0
119.02839	70.0
121.02987	400.0
139.00436	150.0
149.02501	160.0
161.04994	110.0
163.04102	60.0
165.05411	700.0
175.24327	30.0
179.05562	620.0
195.02983	60.0
205.05498	30.0
209.04752	140.0
213.07327	60.0
223.0591	540.0
241.06824	140.0
333.07687	150.0
371.0965	1000.0
403.12833	880.0

NAME:  NCGC00169467-03_C42H66O14_Hexopyranose, 1-O-[3-[(6-deoxyhexopyranosyl)oxy]-27-hydroxy-27,28-dioxours-12-en-28-yl]-
PRECURSORMZ:  839.44345935283
PRECURSORTYPE:  [M+FA-H]-
FORMULA:  C42H66O14
Ontology: Kingdom: Organic compounds;Superclass: Lipids and lipid;Class: Prenol lipids;Subclass: Terpene glycosides
INCHIKEY:  AQLCKWUMMOZIEY-UHFFFAOYNA-N
SMILES:  CC1CCC2(CCC3(C(O)=O)C(=CCC4C5(C)CCC(OC6OC(C)C(O)C(O)C6O)C(C)(C)C5CCC34C)C2C1C)C(=O)OC1OC(CO)C(O)C(O)C1O
RETENTIONTIME:  
CCS:  -1
IONMODE:  Negative
INSTRUMENTTYPE:  
INSTRUMENT:  Maxis II HD Q-TOF Bruker
COLLISIONENERGY:  
Comment:  DB#=CCMSLIB00000850835; origin=GNPS
Num Peaks:  8
113.02137	10.0
119.03525	10.0
161.04434	10.0
179.05605	30.0
587.39685	1000.0
588.3985	110.0
629.40521	20.0
793.44073	20.0

NAME:  NCGC00380434-01_C26H32O14_Methyl 1-(hexopyranosyloxy)-5,6-dihydroxy-7-({[(2E)-3-(4-hydroxyphenyl)-2-propenoyl]oxy}methyl)-1,4a,5,6,7,7a-hexahydrocyclopenta[c]pyran-4-carboxylate
PRECURSORMZ:  613.17740825783
PRECURSORTYPE:  [M+FA-H]-
FORMULA:  C26H32O14
Ontology: ;;;
INCHIKEY:  SOLWETWNPWWTPC-UHFFFAOYNA-N
SMILES:  COC(=O)C1=COC(OC2OC(CO)C(O)C(O)C2O)C2C(COC(=O)C=CC3=CC=C(O)C=C3)C(O)C(O)C12
RETENTIONTIME:  
CCS:  -1
IONMODE:  Negative
INSTRUMENTTYPE:  
INSTRUMENT:  Maxis II HD Q-TOF Bruker
COLLISIONENERGY:  
Comment:  DB#=CCMSLIB00000849194; origin=GNPS
Num Peaks:  18
101.02425	50.0
111.00788	20.0
117.03432	20.0
119.04932	70.0
143.03363	80.0
145.02869	320.0
163.03943	680.0
209.04474	30.0
227.05479	20.0
241.07063	50.0
259.08176	40.0
261.07669	10.0
303.0863	30.0
359.10645	10.0
373.08923	70.0
403.12314	10.0
405.11826	430.0
567.1723	1000.0

NAME:  NCGC00380149-01_C22H26O11_Benzoic acid, 4-hydroxy-, 1-(hexopyranosyloxy)-1,4a,5,7a-tetrahydro-7-(hydroxymethyl)cyclopenta[c]pyran-5-yl ester
PRECURSORMZ:  511.14571420483
PRECURSORTYPE:  [M+FA-H]-
FORMULA:  C22H26O11
Ontology: Kingdom: Organic compounds;Superclass: Lipids and lipid;Class: Prenol lipids;Subclass: Terpene glycosides
INCHIKEY:  JZWZFNOVWZEQMF-UHFFFAOYNA-N
SMILES:  OCC1OC(OC2OC=CC3C(OC(=O)C4=CC=C(O)C=C4)C=C(CO)C23)C(O)C(O)C1O
RETENTIONTIME:  
CCS:  -1
IONMODE:  Negative
INSTRUMENTTYPE:  
INSTRUMENT:  Maxis II HD Q-TOF Bruker
COLLISIONENERGY:  
Comment:  DB#=CCMSLIB00000849878; origin=GNPS
Num Peaks:  9
93.0423	20.0
134.50055	10.0
136.01352	30.0
137.02318	1000.0
165.0545	40.0
285.06876	20.0
303.08401	60.0
327.10028	10.0
465.14084	540.0

NAME:  NCGC00380940-01_C36H60O10_
PRECURSORMZ:  697.41685067983
PRECURSORTYPE:  [M+FA-H]-
FORMULA:  C36H60O10
Ontology: ;;;
INCHIKEY:  BSLRSZZCUIZWND-UHFFFAOYNA-N
SMILES:  CC(O)(C1CCC2(C)C1CCC1(C)C2CCC2C3(C)CCC(O)C(C)(COC4OC(CO)C(O)C(O)C4O)C3CCC12C)C(O)=O
RETENTIONTIME:  
CCS:  -1
IONMODE:  Negative
INSTRUMENTTYPE:  
INSTRUMENT:  Maxis II HD Q-TOF Bruker
COLLISIONENERGY:  
Comment:  DB#=CCMSLIB00000850474; origin=GNPS
Num Peaks:  8
101.02266	10.0
265.14404	10.0
316.16348	10.0
605.41174	30.0
650.61133	10.0
651.41302	1000.0
652.40454	10.0
1338.90454	20.0

NAME:  NCGC00381003-01_C48H78O17_(3beta,5xi,9xi,18xi)-22-Hydroxyolean-12-en-3-yl 6-deoxy-alpha-L-mannopyranosyl-(1->2)hexopyranosyl-(1->2)-beta-D-glucopyranosiduronic acid
PRECURSORMZ:  971.52210359983
PRECURSORTYPE:  [M+FA-H]-
FORMULA:  C48H78O17
Ontology: ;;;
INCHIKEY:  ISTWCKNDZOSMPU-UHFFFAOYNA-N
SMILES:  CC1OC(OC2C(O)C(O)C(CO)OC2OC2C(O)C(O)C(OC2OC2CCC3(C)C(CCC4(C)C3CC=C3C5CC(C)(C)CC(O)C5(C)CCC43C)C2(C)C)C(O)=O)C(O)C(O)C1O
RETENTIONTIME:  
CCS:  -1
IONMODE:  Negative
INSTRUMENTTYPE:  
INSTRUMENT:  Maxis II HD Q-TOF Bruker
COLLISIONENERGY:  
Comment:  DB#=CCMSLIB00000851265; origin=GNPS
Num Peaks:  18
85.03026	10.0
101.02262	20.0
113.02457	60.0
115.00314	10.0
119.03488	10.0
131.03528	30.0
143.03433	30.0
145.04878	10.0
157.01364	10.0
161.04601	20.0
163.06111	30.0
205.07228	80.0
439.3576	30.0
509.39908	40.0
599.39648	20.0
907.49896	20.0
925.51819	1000.0
926.52032	260.0

NAME:  NCGC00380637-01_C28H34O8_2(5H)-Furanone, 5-[(1S,2S,3R,4R,7S)-5,7-dihydroxy-4,7-dimethyl-8-oxo-6-[(2E,4E)-1-oxo-2,4-hexadien-1-yl]-3-[(4E)-1-oxo-4-hexen-1-yl]bicyclo[2.2.2]oct-5-en-2-yl]-4-hydroxy-3,5-dimethyl-, (5R)-
PRECURSORMZ:  497.21809160283
PRECURSORTYPE:  [M-H]-
FORMULA:  C28H34O8
Ontology: Kingdom: Organic compounds;Superclass: Organic oxygen compounds;Class: Organooxygen compounds;Subclass: Carbonyl compounds
INCHIKEY:  CXIHBIKIPKUWBP-UHFFFAOYNA-N
SMILES:  [H]C12C(C(C(=O)CCC=CC)C(C)(C(O)=C1C(=O)C=CC=CC)C(=O)C2(C)O)C1(C)OC(=O)C(C)=C1O
RETENTIONTIME:  
CCS:  246.9226757
IONMODE:  Negative
INSTRUMENTTYPE:  
INSTRUMENT:  Maxis II HD Q-TOF Bruker
COLLISIONENERGY:  
Comment:  DB#=CCMSLIB00000850862; origin=GNPS
Num Peaks:  12
109.06688	10.0
127.03825	20.0
165.09529	10.0
189.09169	10.0
217.08548	10.0
219.10164	20.0
247.09457	30.0
249.11496	50.0
285.14355	10.0
453.22906	20.0
479.20547	20.0
497.21973	1000.0

NAME:  NCGC00381233-01_C21H28O12_alpha-D-Glucopyranoside, 4-O-[(2E)-1-oxo-3-phenyl-2-propen-1-yl]-beta-D-fructofuranosyl
PRECURSORMZ:  517.15627888983
PRECURSORTYPE:  [M+FA-H]-
FORMULA:  C21H28O12
Ontology: ;;;
INCHIKEY:  AKARZXADDNXORH-UHFFFAOYNA-N
SMILES:  OCC1OC(CO)(OC2OC(CO)C(O)C(O)C2O)C(O)C1OC(=O)C=CC1=CC=CC=C1
RETENTIONTIME:  
CCS:  -1
IONMODE:  Negative
INSTRUMENTTYPE:  
INSTRUMENT:  Maxis II HD Q-TOF Bruker
COLLISIONENERGY:  
Comment:  DB#=CCMSLIB00000851320; origin=GNPS
Num Peaks:  3
147.04482	1000.0
323.09784	70.0
471.15253	30.0

NAME:  NCGC00385668-01_C21H24O8_4-[(E)-2-(3-Hydroxy-5-methoxyphenyl)vinyl]phenyl beta-D-glucopyranoside
PRECURSORMZ:  449.14532028083
PRECURSORTYPE:  [M+FA-H]-
FORMULA:  C21H24O8
Ontology: ;;;
INCHIKEY:  IIISUZGWBIPYEJ-UHFFFAOYNA-N
SMILES:  COC1=CC(C=CC2=CC=C(OC3OC(CO)C(O)C(O)C3O)C=C2)=CC(O)=C1
RETENTIONTIME:  
CCS:  -1
IONMODE:  Negative
INSTRUMENTTYPE:  
INSTRUMENT:  Maxis II HD Q-TOF Bruker
COLLISIONENERGY:  
Comment:  DB#=CCMSLIB00000850618; origin=GNPS
Num Peaks:  3
225.05908	30.0
226.06464	20.0
241.08728	1000.0

NAME:  NCGC00170013-03_C15H22O5_1H-3,9a-Methanocyclopent[c]oxocin-4-carboxylic acid, 3,4,5,6,6a,9-hexahydro-4-hydroxy-7-(1-hydroxy-1-methylethyl)-
PRECURSORMZ:  281.13944735583
PRECURSORTYPE:  [M-H]-
FORMULA:  C15H22O5
Ontology: ;;;
INCHIKEY:  LKOCXGZSSYQSLN-UHFFFAOYNA-N
SMILES:  CC(C)(O)C1=CCC23COC(C2)C(O)(CCC13)C(O)=O
RETENTIONTIME:  
CCS:  -1
IONMODE:  Negative
INSTRUMENTTYPE:  
INSTRUMENT:  Maxis II HD Q-TOF Bruker
COLLISIONENERGY:  
Comment:  DB#=CCMSLIB00000849593; origin=GNPS
Num Peaks:  8
102.13571	20.0
104.23976	40.0
175.07649	30.0
177.08981	60.0
201.09439	40.0
281.13995	1000.0
282.14099	20.0
317.39035	20.0

NAME:  NCGC00180427-03_C41H56N8O7_1,4,7,10,13,16,19-Heptaazacyclotricosane-2,5,8,11,14,17,20-heptone, 3-(1H-indol-3-ylmethyl)-6,18-dimethyl-9,15-bis(1-methylethyl)-12-(1-phenylethyl)-
PRECURSORMZ:  807.3965974349
PRECURSORTYPE:  [M+Cl]-
FORMULA:  C41H56N8O7
Ontology: Kingdom: Organic compounds;Superclass: Organic acids and derivatives;Class: Peptidomimetics;Subclass: Hybrid peptides
INCHIKEY:  NZNSTOHSZZLSNP-UHFFFAOYNA-N
SMILES:  CC(C)C1N=C(O)C(C)N=C(O)CCCN=C(O)C(CC2=CNC3=CC=CC=C23)N=C(O)C(C)N=C(O)C(N=C(O)C(N=C1O)C(C)C1=CC=CC=C1)C(C)C
RETENTIONTIME:  
CCS:  -1
IONMODE:  Negative
INSTRUMENTTYPE:  
INSTRUMENT:  Maxis II HD Q-TOF Bruker
COLLISIONENERGY:  
Comment:  DB#=CCMSLIB00000850931; origin=GNPS
Num Peaks:  127
91.00492	20.0
111.02387	30.0
113.03506	40.0
116.0487	30.0
127.05701	20.0
138.85178	30.0
139.84171	20.0
141.10245	30.0
142.06619	10.0
143.07083	30.0
154.09563	20.0
161.93394	20.0
164.46686	70.0
167.94046	20.0
168.06183	10.0
181.09108	40.0
182.13184	20.0
186.12556	90.0
197.15514	40.0
198.0864	20.0
201.93457	20.0
211.12454	70.0
222.9082	20.0
224.09404	20.0
226.11163	90.0
229.13197	50.0
235.25957	10.0
243.14153	40.0
267.18051	20.0
268.10974	20.0
271.1748	30.0
279.93634	20.0
281.9389	160.0
288.97223	30.0
291.94019	20.0
296.14294	20.0
298.20013	30.0
298.92703	10.0
301.94504	20.0
308.18024	20.0
315.94339	40.0
316.95099	20.0
323.16522	20.0
326.03503	10.0
327.00824	20.0
327.18143	50.0
328.1868	20.0
338.22006	50.0
348.93149	10.0
349.94022	30.0
351.18274	20.0
354.17654	30.0
359.10818	50.0
361.22354	30.0
361.48535	40.0
364.49933	20.0
366.51566	30.0
366.58368	10.0
366.88272	10.0
385.26105	20.0
390.63126	20.0
399.23111	70.0
402.25201	20.0
403.27295	20.0
409.95642	40.0
411.94107	30.0
413.91904	20.0
415.70386	30.0
428.29333	20.0
431.95282	60.0
432.93774	20.0
446.28345	100.0
446.32837	30.0
446.94434	10.0
447.28882	20.0
447.96228	20.0
457.25867	20.0
467.27274	20.0
471.27896	20.0
480.94089	40.0
483.9339	20.0
489.28964	60.0
503.95215	40.0
504.97491	30.0
508.21933	50.0
513.32812	30.0
523.96735	130.0
524.95325	20.0
528.28259	80.0
543.96521	590.0
544.94977	40.0
563.9892	30.0
579.9859	10.0
584.9068	30.0
585.34576	20.0
592.94244	20.0
597.95026	30.0
598.36938	20.0
601.3266	20.0
618.34399	40.0
619.36469	30.0
641.35614	40.0
642.35358	190.0
643.35785	10.0
656.96423	20.0
663.83228	20.0
671.96722	30.0
672.41809	20.0
675.9856	70.0
676.05115	20.0
677.01001	30.0
693.97449	40.0
694.04041	30.0
705.53497	20.0
717.96344	20.0
745.98236	80.0
759.40216	20.0
765.97272	90.0
771.42542	810.0
772.42059	110.0
785.9696	150.0
786.99139	10.0
805.98303	1000.0
806.98193	110.0
807.01965	110.0
807.39661	280.0
1985.66724	20.0

NAME:  NCGC00163645-02_C20H28O4_3-{(E)-2-[(1R,4aS,5R,6R,8aR)-6-Hydroxy-5-(hydroxymethyl)-5,8a-dimethyl-2-methylenedecahydro-1-naphthalenyl]vinyl}-2(5H)-furanone
PRECURSORMZ:  331.19148292983
PRECURSORTYPE:  [M-H]-
FORMULA:  C20H28O4
Ontology: Kingdom: Organic compounds;Superclass: Lipids and lipid;Class: Prenol lipids;Subclass: Terpene lactones
INCHIKEY:  XMJAJFVLHDIEHF-UHFFFAOYNA-N
SMILES:  CC1(CO)C(O)CCC2(C)C1CCC(=C)C2C=CC1=CCOC1=O
RETENTIONTIME:  
CCS:  191.4576543
IONMODE:  Negative
INSTRUMENTTYPE:  
INSTRUMENT:  Maxis II HD Q-TOF Bruker
COLLISIONENERGY:  
Comment:  DB#=CCMSLIB00000851336; origin=GNPS
Num Peaks:  5
120.73947	10.0
313.16776	20.0
331.19272	1000.0
332.17645	30.0
334.34256	20.0

NAME:  NCGC00380894-01_C22H36O5_1-Naphthalenepentanoic acid, 4-(acetyloxy)-3,4,4a,5,6,7,8,8a-octahydro-3-hydroxy-beta,2,5,5,8a-pentamethyl-
PRECURSORMZ:  379.24899780683
PRECURSORTYPE:  [M-H]-
FORMULA:  C22H36O5
Ontology: Kingdom: Organic compounds;Superclass: Lipids and lipid;Class: Prenol lipids;Subclass: Diterpenoids
INCHIKEY:  XFCLFWWTDWKJAH-UHFFFAOYNA-N
SMILES:  CC(CCC1=C(C)C(O)C(OC(C)=O)C2C(C)(C)CCCC12C)CC(O)=O
RETENTIONTIME:  
CCS:  -1
IONMODE:  Negative
INSTRUMENTTYPE:  
INSTRUMENT:  Maxis II HD Q-TOF Bruker
COLLISIONENERGY:  
Comment:  DB#=CCMSLIB00000849839; origin=GNPS
Num Peaks:  10
171.11235	20.0
174.9408	30.0
241.15634	20.0
287.19583	20.0
319.22812	1000.0
320.22577	40.0
322.59125	30.0
335.22437	30.0
379.24957	460.0
382.60886	20.0

NAME:  NCGC00380234-01_C20H22O9_4-Hydroxy-2-(hydroxymethyl)phenyl 2-O-benzoyl-beta-D-glucopyranoside
PRECURSORMZ:  451.12458483583
PRECURSORTYPE:  [M+FA-H]-
FORMULA:  C20H22O9
Ontology: ;;;
INCHIKEY:  OKUXNMMTKMWVBG-UHFFFAOYNA-N
SMILES:  OCC1OC(OC2=CC=C(O)C=C2CO)C(OC(=O)C2=CC=CC=C2)C(O)C1O
RETENTIONTIME:  
CCS:  -1
IONMODE:  Negative
INSTRUMENTTYPE:  
INSTRUMENT:  Maxis II HD Q-TOF Bruker
COLLISIONENERGY:  
Comment:  DB#=CCMSLIB00000849244; origin=GNPS
Num Peaks:  18
120.92853	10.0
121.02893	940.0
136.01363	60.0
137.02513	100.0
138.03024	1000.0
139.03957	330.0
141.19495	20.0
145.05028	30.0
163.0399	10.0
165.05208	30.0
170.20461	20.0
176.02963	20.0
193.0455	10.0
267.0896	10.0
283.08423	170.0
405.11752	160.0
488.60571	10.0
744.23553	10.0

NAME:  NCGC00381089-01_C41H64O15_1-O-[(2beta,3beta,5xi,9xi,18xi)-2,23-Dihydroxy-28,29-dioxo-3-(beta-D-xylopyranosyloxy)olean-12-en-28-yl]-beta-D-glucopyranose
PRECURSORMZ:  841.42272390883
PRECURSORTYPE:  [M+FA-H]-
FORMULA:  C41H64O15
Ontology: Kingdom: Organic compounds;Superclass: Lipids and lipid;Class: Prenol lipids;Subclass: Terpene glycosides
INCHIKEY:  XMIDHJQDTWKJIZ-UHFFFAOYNA-N
SMILES:  CC1(CCC2(CCC3(C)C(=CCC4C5(C)CC(O)C(OC6OCC(O)C(O)C6O)C(C)(CO)C5CCC34C)C2C1)C(=O)OC1OC(CO)C(O)C(O)C1O)C=O
RETENTIONTIME:  
CCS:  -1
IONMODE:  Negative
INSTRUMENTTYPE:  
INSTRUMENT:  Maxis II HD Q-TOF Bruker
COLLISIONENERGY:  
Comment:  DB#=CCMSLIB00000849614; origin=GNPS
Num Peaks:  12
113.02561	10.0
161.04556	20.0
501.32608	10.0
543.33453	20.0
633.36658	1000.0
634.36871	160.0
675.37396	80.0
676.38123	10.0
839.40784	20.0
840.40442	10.0
841.4248	90.0
842.42456	30.0

NAME:  NCGC00380546-01_C35H54O14_
PRECURSORMZ:  743.34955896683
PRECURSORTYPE:  [M+FA-H]-
FORMULA:  C35H54O14
Ontology: Kingdom: Organic compounds;Superclass: Lipids and lipid;Class: Steroids and steroid derivatives;Subclass: Steroidal glycosides
INCHIKEY:  ITXARCZXQRQZRW-UHFFFAOYNA-N
SMILES:  CC12CCC3C(CCC4CC(CCC34C)OC3OC(CO)C(O)C(OC4OC(CO)C(O)C(O)C4O)C3O)C1(O)CCC2=C1COC(=O)C1
RETENTIONTIME:  
CCS:  -1
IONMODE:  Negative
INSTRUMENTTYPE:  
INSTRUMENT:  Maxis II HD Q-TOF Bruker
COLLISIONENERGY:  
Comment:  DB#=CCMSLIB00000850966; origin=GNPS
Num Peaks:  14
101.02393	50.0
113.02422	70.0
143.03517	20.0
159.02991	20.0
161.0451	120.0
179.05678	40.0
221.06441	20.0
373.23914	210.0
535.29291	380.0
536.2962	20.0
695.3266	10.0
696.33881	30.0
697.34564	1000.0
698.35065	120.0

NAME:  NCGC00380223-01_C20H24N2O5_3-Pyridinecarboxylic acid, 1,4-dihydro-6-(hydroxyphenylmethyl)-1-[2-[(3-methyl-1-oxobutyl)amino]ethyl]-4-oxo-
PRECURSORMZ:  371.16124542883
PRECURSORTYPE:  [M-H]-
FORMULA:  C20H24N2O5
Ontology: Kingdom: Organic compounds;Superclass: Organoheterocyclic compounds;Class: Pyridines and derivatives;Subclass: Pyridinecarboxylic acids and derivatives
INCHIKEY:  YTPQOAKWPUOEEC-UHFFFAOYNA-N
SMILES:  CC(C)CC(O)=NCCN1C=C(C(O)=O)C(=O)C=C1C(O)C1=CC=CC=C1
RETENTIONTIME:  
CCS:  -1
IONMODE:  Negative
INSTRUMENTTYPE:  
INSTRUMENT:  Maxis II HD Q-TOF Bruker
COLLISIONENERGY:  
Comment:  DB#=CCMSLIB00000850823; origin=GNPS
Num Peaks:  11
108.04263	90.0
119.03231	70.0
133.03906	40.0
137.03413	270.0
164.04427	70.0
220.91698	50.0
221.09131	1000.0
221.18599	70.0
235.11362	350.0
369.15186	60.0
1304.34717	190.0

NAME:  NCGC00380800-01_C36H50N2O7_(5R,13S,14R,15R)-15,22-Dihydroxy-5-methoxy-14,16-dimethyl-3-oxo-2-azabicyclo[18.3.1]tetracosa-1(24),6,8,10,16,20,22-heptaen-13-yl N-(cyclohexylcarbonyl)-D-alaninate
PRECURSORMZ:  621.35452550583
PRECURSORTYPE:  [M-H]-
FORMULA:  C36H50N2O7
Ontology: ;;;
INCHIKEY:  WACCDLYIHBADOZ-UHFFFAOYNA-N
SMILES:  COC1CC(O)=NC2=CC(O)=CC(CCC=C(C)C(O)C(C)C(CC=CC=CC=C1)OC(=O)C(C)N=C(O)C1CCCCC1)=C2
RETENTIONTIME:  
CCS:  294.3375006
IONMODE:  Negative
INSTRUMENTTYPE:  
INSTRUMENT:  Maxis II HD Q-TOF Bruker
COLLISIONENERGY:  
Comment:  DB#=CCMSLIB00000850989; origin=GNPS
Num Peaks:  15
75.11833	10.0
119.09285	10.0
136.0347	10.0
146.06136	40.0
172.03557	10.0
180.10226	120.0
198.11284	1000.0
230.08018	70.0
270.11734	10.0
332.98666	10.0
350.17789	80.0
382.2088	50.0
408.21649	30.0
422.22488	20.0
440.24451	30.0

NAME:  NCGC00386008-01_C29H44O8_Card-20(22)-enolide, 3-[(6-deoxy-alpha-L-mannopyranosyl)oxy]-14-hydroxy-, (3beta,9xi)-
PRECURSORMZ:  565.30182092483
PRECURSORTYPE:  [M+FA-H]-
FORMULA:  C29H44O8
Ontology: ;;;
INCHIKEY:  WQMLFJWIKARBFW-UHFFFAOYNA-N
SMILES:  CC1OC(OC2CCC3(C)C(CCC4C3CCC3(C)C(CCC43O)C3=CC(=O)OC3)C2)C(O)C(O)C1O
RETENTIONTIME:  
CCS:  -1
IONMODE:  Negative
INSTRUMENTTYPE:  
INSTRUMENT:  Maxis II HD Q-TOF Bruker
COLLISIONENERGY:  
Comment:  DB#=CCMSLIB00000851361; origin=GNPS
Num Peaks:  12
101.02218	70.0
125.02243	40.0
131.03366	60.0
149.04266	70.0
161.04263	40.0
192.05023	50.0
217.99457	40.0
268.09293	20.0
271.20355	40.0
387.23535	200.0
519.28302	1000.0
564.26202	60.0

NAME:  NCGC00380663-01_C24H26O8_Spiro[furo[4,3,2-ij]pyrano[4',3':4,5]cyclohepta[1,2-f][2]benzopyran-7(9H),2'-oxirane]-1,5,9,13(2H,3aH,11H)-tetrone, 5a,6,6a,13a,13b,13c-hexahydro-2,5a,11,11,13a-pentamethyl-
PRECURSORMZ:  441.15549134483
PRECURSORTYPE:  [M-H]-
FORMULA:  C24H26O8
Ontology: ;;;
INCHIKEY:  PCBBMDQLBUYDDZ-UHFFFAOYNA-N
SMILES:  CC1OC2OC(=O)C3(C)CC4C5(CO5)C5=CC(=O)OC(C)(C)C5=CC(=O)C4(C)C(C23)C1=O
RETENTIONTIME:  
CCS:  205.435463
IONMODE:  Negative
INSTRUMENTTYPE:  
INSTRUMENT:  Maxis II HD Q-TOF Bruker
COLLISIONENERGY:  
Comment:  DB#=CCMSLIB00000849751; origin=GNPS
Num Peaks:  24
83.04674	70.0
83.08787	20.0
133.06741	60.0
151.07397	50.0
161.10109	40.0
185.05571	30.0
189.09137	40.0
191.0732	70.0
199.07988	40.0
201.09033	30.0
219.084	20.0
225.12404	70.0
249.12755	40.0
255.09956	80.0
265.1485	40.0
278.16998	50.0
280.11139	40.0
296.99646	20.0
305.15085	40.0
316.98135	140.0
342.99731	20.0
349.14276	60.0
411.14255	50.0
441.1525	1000.0

NAME:  NCGC00381274-01_C18H34O12_3-Hydroxy-3-(hydroxymethyl)-4-methylpentyl 6-O-[(2S,3R,4R)-3,4-dihydroxy-4-(hydroxymethyl)tetrahydro-2-furanyl]-beta-D-glucopyranoside
PRECURSORMZ:  487.20322908283
PRECURSORTYPE:  [M+FA-H]-
FORMULA:  C18H34O12
Ontology: ;;;
INCHIKEY:  MHJYRHBCBPGGHL-UHFFFAOYNA-N
SMILES:  CC(C)C(O)(CO)CCOC1OC(COC2OCC(O)(CO)C2O)C(O)C(O)C1O
RETENTIONTIME:  
CCS:  -1
IONMODE:  Negative
INSTRUMENTTYPE:  
INSTRUMENT:  Maxis II HD Q-TOF Bruker
COLLISIONENERGY:  
Comment:  DB#=CCMSLIB00000850570; origin=GNPS
Num Peaks:  13
89.02543	10.0
101.02496	20.0
131.03674	20.0
147.09802	10.0
149.04326	110.0
161.04233	50.0
191.05637	70.0
221.06821	20.0
233.06503	30.0
251.07643	50.0
293.09183	20.0
309.15707	130.0
441.19876	1000.0

NAME:  NCGC00380334-01_C34H42O18_beta-D-Glucopyranoside, (1aS,1bS,2S,5aR,6S,6aS)-6-[[3-O-acetyl-6-deoxy-2-O-[(2E)-3-(4-hydroxyphenyl)-1-oxo-2-propen-1-yl]-alpha-L-mannopyranosyl]oxy]-1a,1b,2,5a,6,6a-hexahydro-1a-(hydroxymethyl)oxireno[4,5]cyclopenta[1,2-c]pyran-2-yl, 2-acetate
PRECURSORMZ:  737.22983805983
PRECURSORTYPE:  [M-H]-
FORMULA:  C34H42O18
Ontology: ;;;
INCHIKEY:  MIQMVCTWXSPFSC-UHFFFAOYNA-N
SMILES:  CC1OC(OC2C3OC3(CO)C3C2C=COC3OC2OC(CO)C(O)C(O)C2OC(C)=O)C(OC(=O)C=CC2=CC=C(O)C=C2)C(OC(C)=O)C1O
RETENTIONTIME:  
CCS:  -1
IONMODE:  Negative
INSTRUMENTTYPE:  
INSTRUMENT:  Maxis II HD Q-TOF Bruker
COLLISIONENERGY:  
Comment:  DB#=CCMSLIB00000849497; origin=GNPS
Num Peaks:  25
117.03405	70.0
119.051	80.0
135.0443	10.0
145.02881	1000.0
151.03966	20.0
161.0591	10.0
163.0397	440.0
181.05025	20.0
205.05038	10.0
249.07593	10.0
291.08853	20.0
333.09946	10.0
351.10837	60.0
359.11688	10.0
419.13501	260.0
515.15747	20.0
533.16785	20.0
617.18811	30.0
635.20044	30.0
677.20966	630.0
678.20978	60.0
695.2204	230.0
696.22101	20.0
737.23077	580.0
738.23535	70.0

NAME:  Pesticide6_Ethirimol_C11H19N3O_882476
PRECURSORMZ:  208.14553579183
PRECURSORTYPE:  [M-H]-
FORMULA:  C11H19N3O
Ontology: ;;;
INCHIKEY:  BBXXLROWFHWFQY-UHFFFAOYSA-N
SMILES:  CCCCC1=C(C)NC(=NCC)N=C1O
RETENTIONTIME:  
CCS:  153.8402459
IONMODE:  Negative
INSTRUMENTTYPE:  
INSTRUMENT:  Q-Exactive Plus Orbitrap Res 70k
COLLISIONENERGY:  
Comment:  DB#=CCMSLIB00001058238; origin=GNPS
Num Peaks:  3
165.09099	30.0
180.1145	330.0
208.14548	1000.0

NAME:  NCGC00169028-02_C25H34O8_1H-Furo[3,4-b]xanthene-9-propanoic acid, 3,5a,6,7,8,9,9a,10-octahydro-7-hydroxy-8-(1-hydroxy-1-methylethyl)-11-methoxy-4,5a,9-trimethyl-1-oxo-
PRECURSORMZ:  507.22357060283
PRECURSORTYPE:  [M+FA-H]-
FORMULA:  C25H34O8
Ontology: ;;;
INCHIKEY:  NNOMPFCNQCRAIO-UHFFFAOYNA-N
SMILES:  COC1=C2C(=O)OCC2=C(C)C2=C1CC1C(C)(CC(O)C(C(C)(C)O)C1(C)CCC(O)=O)O2
RETENTIONTIME:  
CCS:  -1
IONMODE:  Negative
INSTRUMENTTYPE:  
INSTRUMENT:  Maxis II HD Q-TOF Bruker
COLLISIONENERGY:  
Comment:  DB#=CCMSLIB00000850858; origin=GNPS
Num Peaks:  8
191.03413	70.0
238.04837	10.0
329.14136	20.0
385.16776	10.0
389.20087	20.0
417.23141	10.0
461.21872	1000.0
462.21594	10.0

NAME:  NCGC00380518-01_C22H30O8_(5S,10Z,11aR)-5-Acetoxy-6,10-bis(hydroxymethyl)-3-methylene-2-oxo-2,3,3a,4,5,8,9,11a-octahydrocyclodeca[b]furan-4-yl 2-methylbutanoate
PRECURSORMZ:  467.19227047383
PRECURSORTYPE:  [M+FA-H]-
FORMULA:  C22H30O8
Ontology: ;;;
INCHIKEY:  LQQVURUBFJKELJ-UHFFFAOYNA-N
SMILES:  CCC(C)C(=O)OC1C2C(OC(=O)C2=C)C=C(CO)CCC=C(CO)C1OC(C)=O
RETENTIONTIME:  
CCS:  -1
IONMODE:  Negative
INSTRUMENTTYPE:  
INSTRUMENT:  Maxis II HD Q-TOF Bruker
COLLISIONENERGY:  
Comment:  DB#=CCMSLIB00000849680; origin=GNPS
Num Peaks:  33
82.82763	10.0
101.06078	390.0
101.19977	10.0
157.93694	30.0
159.08224	40.0
175.0742	30.0
181.06395	30.0
183.07675	90.0
185.09509	130.0
189.0878	60.0
195.08549	30.0
197.09958	20.0
199.07225	40.0
201.08858	50.0
203.09413	30.0
209.08107	40.0
211.08057	30.0
215.06998	110.0
215.11426	20.0
216.0813	20.0
227.07063	490.0
229.08763	1000.0
229.17784	10.0
229.72726	10.0
237.12294	20.0
245.0701	70.0
246.08527	20.0
247.10152	30.0
259.09814	170.0
260.1033	30.0
285.03439	20.0
408.92621	20.0
550.69336	10.0

NAME:  NCGC00385739-01_C48H76O20_(3beta,5xi,9xi,22beta)-22,24,29-Trihydroxy-29-oxoolean-12-en-3-yl 6-deoxy-alpha-L-mannopyranosyl-(1->2)-beta-D-galactopyranosyl-(1->2)-beta-D-glucopyranosiduronic acid
PRECURSORMZ:  971.48571839483
PRECURSORTYPE:  [M-H]-
FORMULA:  C48H76O20
Ontology: Kingdom: Organic compounds;Superclass: Lipids and lipid;Class: Prenol lipids;Subclass: Terpene glycosides
INCHIKEY:  JCHUCLMYSKXMOY-UHFFFAOYNA-N
SMILES:  CC1OC(OC2C(O)C(O)C(CO)OC2OC2C(O)C(O)C(OC2OC2CCC3(C)C(CCC4(C)C3CC=C3C5CC(C)(CC(O)C5(C)CCC43C)C(O)=O)C2(C)CO)C(O)=O)C(O)C(O)C1O
RETENTIONTIME:  
CCS:  312.988474
IONMODE:  Negative
INSTRUMENTTYPE:  
INSTRUMENT:  Maxis II HD Q-TOF Bruker
COLLISIONENERGY:  
Comment:  DB#=CCMSLIB00000849395; origin=GNPS
Num Peaks:  5
969.46942	10.0
970.47198	10.0
971.48529	1000.0
972.49518	130.0
973.51782	10.0

NAME:  NCGC00385678-01_C27H33NO14_4,8-Dimethoxyfuro[2,3-b]quinolin-7-yl 2-O-acetyl-6-deoxy-3-O-beta-D-glucopyranosyl-alpha-L-mannopyranoside
PRECURSORMZ:  640.18830729483
PRECURSORTYPE:  [M+FA-H]-
FORMULA:  C27H33NO14
Ontology: Kingdom: Organic compounds;Superclass: Organic oxygen compounds;Class: Organooxygen compounds;Subclass: Carbohydrates and carbohydrate conjugates
INCHIKEY:  RHOKVADXUJGRSQ-UHFFFAOYNA-N
SMILES:  COC1=C2C=COC2=NC2=C1C=CC(OC1OC(C)C(O)C(OC3OC(CO)C(O)C(O)C3O)C1OC(C)=O)=C2OC
RETENTIONTIME:  
CCS:  -1
IONMODE:  Negative
INSTRUMENTTYPE:  
INSTRUMENT:  Maxis II HD Q-TOF Bruker
COLLISIONENERGY:  
Comment:  DB#=CCMSLIB00000849815; origin=GNPS
Num Peaks:  7
145.0511	30.0
214.01498	230.0
229.03905	210.0
244.0619	1000.0
289.09793	10.0
307.10464	70.0
349.11246	20.0

NAME:  NCGC00385729-01_C52H84O22_6-Deoxy-alpha-D-mannopyranosyl-(1->3)-beta-D-xylopyranosyl-(1->4)-6-deoxy-alpha-L-mannopyranosyl-(1->2)-1-O-[(2alpha,3alpha,5xi,6beta,9xi)-2,3,6,23-tetrahydroxy-28-oxoolean-12-en-28-yl]-alpha-L-arabinopyranose
PRECURSORMZ:  1105.54362689283
PRECURSORTYPE:  [M+FA-H]-
FORMULA:  C52H84O22
Ontology: ;;;
INCHIKEY:  FCEXYTCUWAIJHN-UHFFFAOYNA-N
SMILES:  CC1OC(OC2C(O)COC(OC3C(C)OC(OC4C(O)C(O)COC4OC(=O)C45CCC(C)(C)CC4C4=CCC6C7(C)CC(O)C(O)C(C)(CO)C7C(O)CC6(C)C4(C)CC5)C(O)C3O)C2O)C(O)C(O)C1O
RETENTIONTIME:  
CCS:  -1
IONMODE:  Negative
INSTRUMENTTYPE:  
INSTRUMENT:  Maxis II HD Q-TOF Bruker
COLLISIONENERGY:  
Comment:  DB#=CCMSLIB00000851199; origin=GNPS
Num Peaks:  26
85.03024	20.0
101.02512	10.0
113.02531	100.0
115.04025	10.0
127.04237	10.0
131.03571	90.0
143.03607	30.0
145.05133	40.0
163.06166	30.0
205.0726	30.0
277.09344	30.0
295.10272	10.0
337.11465	90.0
379.12604	10.0
381.14005	10.0
423.15186	50.0
441.16559	10.0
483.1741	250.0
484.17932	20.0
503.33914	1000.0
504.34222	80.0
555.19482	30.0
969.50665	20.0
1059.53979	400.0
1060.54236	140.0
1061.54333	10.0

NAME:  NCGC00347834-02_C20H30O5_6,10a-Dihydroxy-4-(hydroxymethyl)-4,7,11b-trimethyl-2,3,4,4a,5,6,6a,7,10a,11,11a,11b-dodecahydrophenanthro[3,2-b]furan-9(1H)-one
PRECURSORMZ:  349.20204761383
PRECURSORTYPE:  [M-H]-
FORMULA:  C20H30O5
Ontology: ;;;
INCHIKEY:  LLKIVVHUJOPYIV-UHFFFAOYNA-N
SMILES:  CC1C2C(O)CC3C(C)(CO)CCCC3(C)C2CC2(O)OC(=O)C=C12
RETENTIONTIME:  
CCS:  -1
IONMODE:  Negative
INSTRUMENTTYPE:  
INSTRUMENT:  Maxis II HD Q-TOF Bruker
COLLISIONENERGY:  
Comment:  DB#=CCMSLIB00000849950; origin=GNPS
Num Peaks:  8
121.06488	60.0
142.98967	70.0
175.44919	50.0
277.20508	50.0
302.92578	10.0
305.21606	1000.0
322.1174	20.0
349.1994	970.0

NAME:  Pesticide4_Dinotefuran_C7H14N4O3_Guanidine, N-methyl-N''-nitro-N'-[(tetrahydro-3-furanyl)methyl]-
PRECURSORMZ:  201.09931387483
PRECURSORTYPE:  [M-H]-
FORMULA:  C7H14N4O3
Ontology: ;;;
INCHIKEY:  YKBZOVFACRVRJN-UHFFFAOYNA-N
SMILES:  CN=C(NCC1CCOC1)NN(=O)=O
RETENTIONTIME:  
CCS:  144.0731029
IONMODE:  Negative
INSTRUMENTTYPE:  
INSTRUMENT:  Q-Exactive Plus Orbitrap Res 70k
COLLISIONENERGY:  
Comment:  DB#=CCMSLIB00001058306; origin=GNPS
Num Peaks:  10
73.04021	50.0
80.05011	20.0
82.02937	20.0
98.06105	10.0
100.07677	20.0
109.07718	80.0
110.06119	10.0
139.0878	50.0
157.09814	20.0
201.09967	1000.0

NAME:  NCGC00380730-01_C42H66O16_beta-D-Glucopyranose, 6-O-beta-D-glucopyranosyl-1-O-[(3beta,5xi,9xi)-3,19,24-trihydroxy-24,28-dioxours-12-en-28-yl]-
PRECURSORMZ:  825.42780959283
PRECURSORTYPE:  [M-H]-
FORMULA:  C42H66O16
Ontology: Kingdom: Organic compounds;Superclass: Lipids and lipid;Class: Prenol lipids;Subclass: Terpene glycosides
INCHIKEY:  LCQFYEBJTAIMPC-UHFFFAOYNA-N
SMILES:  CC1CCC2(CCC3(C)C(=CCC4C5(C)CCC(O)C(C)(C5CCC34C)C(O)=O)C2C1(C)O)C(=O)OC1OC(COC2OC(CO)C(O)C(O)C2O)C(O)C(O)C1O
RETENTIONTIME:  
CCS:  -1
IONMODE:  Negative
INSTRUMENTTYPE:  
INSTRUMENT:  Maxis II HD Q-TOF Bruker
COLLISIONENERGY:  
Comment:  DB#=CCMSLIB00000849287; origin=GNPS
Num Peaks:  8
179.05592	10.0
323.09879	30.0
501.32211	1000.0
502.3252	60.0
543.33423	20.0
825.42975	330.0
825.92877	10.0
826.43591	40.0

NAME:  methoxy-myricetin-3-O-deoxyhexosyl-7-O-hexoside
PRECURSORMZ:  639.15667311783
PRECURSORTYPE:  [M-H]-
FORMULA:  C28H32O17
Ontology: ;;;
INCHIKEY:  SEKPJVSISAFUEN-UHFFFAOYNA-N
SMILES:  COC1=C(O)C=C(C=C1O)C1=C(OC2OC(C)C(O)C(O)C2O)C(=O)C2=C(O)C=C(OC3OC(CO)C(O)C(O)C3O)C=C2O1
RETENTIONTIME:  
CCS:  -1
IONMODE:  Negative
INSTRUMENTTYPE:  
INSTRUMENT:  qTof
COLLISIONENERGY:  
Comment:  DB#=CCMSLIB00004678840; origin=GNPS
Num Peaks:  68
119.02548	30.0
141.01254	20.0
149.0209	20.0
164.03471	20.0
164.89175	20.0
165.007	20.0
165.31598	10.0
193.0425	20.0
230.85744	20.0
232.95917	20.0
244.04529	20.0
278.16132	10.0
287.03314	10.0
307.07761	60.0
308.02637	10.0
315.01611	30.0
316.03238	30.0
319.83487	10.0
329.03238	20.0
330.03693	470.0
331.04385	600.0
331.27155	10.0
332.03751	40.0
335.96536	10.0
383.07605	20.0
397.09427	20.0
408.40488	10.0
441.07471	10.0
464.68188	10.0
467.08875	10.0
469.23581	10.0
472.02295	10.0
477.80078	10.0
479.0885	20.0
493.09927	510.0
493.29266	10.0
494.10062	170.0
495.11246	30.0
495.20251	10.0
497.07611	20.0
497.79199	10.0
504.56522	30.0
505.20044	10.0
530.18842	10.0
546.27814	20.0
560.27112	10.0
566.89307	10.0
589.40546	10.0
604.13153	10.0
607.29437	20.0
608.13177	10.0
623.1156	10.0
639.13513	1000.0
639.41809	10.0
639.57526	10.0
640.13928	330.0
640.29175	20.0
640.48145	20.0
641.14404	30.0
641.26831	10.0
641.34485	10.0
641.47382	10.0
641.62097	10.0
642.21466	20.0
727.53387	10.0
817.53943	20.0
834.14276	20.0
835.00116	20.0

NAME:  NCGC00385731-01_C46H74O17_(3beta,5xi,9xi,16alpha)-3-{[alpha-L-Arabinopyranosyl-(1->2)-alpha-L-arabinopyranosyl-(1->6)-beta-D-glucopyranosyl]oxy}-16-hydroxyolean-12-en-28-oic acid
PRECURSORMZ:  943.49080347083
PRECURSORTYPE:  [M+FA-H]-
FORMULA:  C46H74O17
Ontology: ;;;
INCHIKEY:  WGFGSGMOAHUFDZ-UHFFFAOYNA-N
SMILES:  CC1(C)CCC2(C(O)CC3(C)C(=CCC4C5(C)CCC(OC6OC(COC7OCC(O)C(O)C7OC7OCC(O)C(O)C7O)C(O)C(O)C6O)C(C)(C)C5CCC34C)C2C1)C(O)=O
RETENTIONTIME:  
CCS:  -1
IONMODE:  Negative
INSTRUMENTTYPE:  
INSTRUMENT:  Maxis II HD Q-TOF Bruker
COLLISIONENERGY:  
Comment:  DB#=CCMSLIB00000851208; origin=GNPS
Num Peaks:  18
89.02522	50.0
101.02476	30.0
113.02515	50.0
131.03535	80.0
143.0365	20.0
149.04585	40.0
161.04521	30.0
191.05496	80.0
233.06877	10.0
571.40021	10.0
703.44482	40.0
747.4397	20.0
765.448	40.0
835.48956	80.0
836.48505	20.0
897.48804	1000.0
898.4892	270.0
899.49243	10.0

NAME:  NCGC00347400-02_C30H42O12_1,7-Bis(4-hydroxyphenyl)-3-heptanyl 2-O-[(2S,3R,4R)-3,4-dihydroxy-4-(hydroxymethyl)tetrahydro-2-furanyl]-beta-D-glucopyranoside
PRECURSORMZ:  593.26035033983
PRECURSORTYPE:  [M-H]-
FORMULA:  C30H42O12
Ontology: ;;;
INCHIKEY:  GFFOBQNFESRPJR-UHFFFAOYNA-N
SMILES:  OCC1OC(OC(CCCCC2=CC=C(O)C=C2)CCC2=CC=C(O)C=C2)C(OC2OCC(O)(CO)C2O)C(O)C1O
RETENTIONTIME:  
CCS:  -1
IONMODE:  Negative
INSTRUMENTTYPE:  
INSTRUMENT:  Maxis II HD Q-TOF Bruker
COLLISIONENERGY:  
Comment:  DB#=CCMSLIB00000849638; origin=GNPS
Num Peaks:  16
99.00706	30.0
101.0252	30.0
119.03597	10.0
159.02707	20.0
191.06447	30.0
299.16672	340.0
314.70288	30.0
353.16956	20.0
413.19687	10.0
443.2171	30.0
461.21689	860.0
592.56207	10.0
592.96619	10.0
593.2597	1000.0
593.38293	20.0
594.25842	10.0

NAME:  NCGC00380894-01_C22H36O5_1-Naphthalenepentanoic acid, 4-(acetyloxy)-3,4,4a,5,6,7,8,8a-octahydro-3-hydroxy-beta,2,5,5,8a-pentamethyl-
PRECURSORMZ:  425.25447680683
PRECURSORTYPE:  [M+FA-H]-
FORMULA:  C22H36O5
Ontology: ;;;
INCHIKEY:  XFCLFWWTDWKJAH-UHFFFAOYNA-N
SMILES:  CC(CCC1=C(C)C(O)C(OC(C)=O)C2C(C)(C)CCCC12C)CC(O)=O
RETENTIONTIME:  
CCS:  -1
IONMODE:  Negative
INSTRUMENTTYPE:  
INSTRUMENT:  Maxis II HD Q-TOF Bruker
COLLISIONENERGY:  
Comment:  DB#=CCMSLIB00000849842; origin=GNPS
Num Peaks:  9
193.23723	20.0
215.13849	10.0
261.0119	10.0
318.73709	10.0
319.22842	1000.0
335.21762	20.0
344.98053	10.0
379.24893	1000.0
379.40396	20.0

NAME:  NCGC00385692-01_C44H68O14_3-Hydroxyspirosta-5,25(27)-dien-1-yl 2-O-(6-deoxy-alpha-L-mannopyranosyl)-4-O-(2-hydroxy-3-methylpentanoyl)-alpha-L-arabinopyranoside
PRECURSORMZ:  865.45910941783
PRECURSORTYPE:  [M+FA-H]-
FORMULA:  C44H68O14
Ontology: Kingdom: Organic compounds;Superclass: Lipids and lipid;Class: Steroids and steroid derivatives;Subclass: Steroidal glycosides
INCHIKEY:  QCKCJABEPSOSMR-UHFFFAOYNA-N
SMILES:  CCC(C)C(O)C(=O)OC1COC(OC2CC(O)CC3=CCC4C5CC6OC7(CCC(=C)CO7)C(C)C6C5(C)CCC4C23C)C(OC2OC(C)C(O)C(O)C2O)C1O
RETENTIONTIME:  
CCS:  -1
IONMODE:  Negative
INSTRUMENTTYPE:  
INSTRUMENT:  Maxis II HD Q-TOF Bruker
COLLISIONENERGY:  
Comment:  DB#=CCMSLIB00000851121; origin=GNPS
Num Peaks:  8
85.06783	10.0
131.03545	50.0
131.07179	1000.0
132.07513	20.0
559.33081	80.0
705.38831	230.0
706.39154	40.0
819.45349	40.0

NAME:  NCGC00179952-02_C16H20O5_2H-3-Benzoxacyclododecin-2,10(1H)-dione, 4,5,6,7,8,9-hexahydro-11,13-dihydroxy-4-methyl-
PRECURSORMZ:  291.12379729183
PRECURSORTYPE:  [M-H]-
FORMULA:  C16H20O5
Ontology: ;;;
INCHIKEY:  VDUIGYAPSXCJFC-UHFFFAOYNA-N
SMILES:  CC1CCCCCC(=O)C2=C(O)C=C(O)C=C2CC(=O)O1
RETENTIONTIME:  
CCS:  174.674065
IONMODE:  Negative
INSTRUMENTTYPE:  
INSTRUMENT:  Maxis II HD Q-TOF Bruker
COLLISIONENERGY:  
Comment:  DB#=CCMSLIB00000850730; origin=GNPS
Num Peaks:  20
107.68682	10.0
122.03648	30.0
123.04603	140.0
144.62747	10.0
146.03239	30.0
147.00861	60.0
149.02396	50.0
150.03693	20.0
159.04213	10.0
161.07117	30.0
190.02928	40.0
191.03601	30.0
203.12401	30.0
203.14276	30.0
204.03792	60.0
236.03316	20.0
247.13681	60.0
247.18515	20.0
291.12433	1000.0
304.32968	10.0

NAME:  NCGC00381199-01_C25H38O4_(3aR,5E,7S,10E,14E,16aS)-2,7-Dihydroxy-3-[(2S)-1-hydroxy-2-propanyl]-6,10,14,16a-tetramethyl-4,7,8,9,12,13,16,16a-octahydrocyclopenta[15]annulen-1(3aH)-one
PRECURSORMZ:  401.26973325183
PRECURSORTYPE:  [M-H]-
FORMULA:  C25H38O4
Ontology: Kingdom: Organic compounds;Superclass: Organic oxygen compounds;Class: Organooxygen compounds;Subclass: Alcohols and polyols
INCHIKEY:  UTGBBPSEQPITLF-UHFFFAOYNA-N
SMILES:  CC(CO)C1=C(O)C(=O)C2(C)CC=C(C)CCC=C(C)CCC(O)C(C)=CCC12
RETENTIONTIME:  
CCS:  205.7421757
IONMODE:  Negative
INSTRUMENTTYPE:  
INSTRUMENT:  Maxis II HD Q-TOF Bruker
COLLISIONENERGY:  
Comment:  DB#=CCMSLIB00000851064; origin=GNPS
Num Peaks:  21
122.03468	30.0
136.05409	50.0
137.06233	210.0
150.0705	30.0
151.03781	60.0
157.93887	20.0
176.08273	20.0
180.66508	10.0
204.11465	20.0
214.03491	30.0
217.19716	20.0
243.13458	40.0
255.2159	20.0
256.9758	20.0
269.01028	20.0
353.24765	340.0
357.22369	20.0
371.26056	1000.0
380.97653	10.0
383.25995	20.0
401.27109	140.0

NAME:  NCGC00380982-01_C22H25NO8_8-Benzoyl-2-[(3E)-1,2-dihydroxy-3-hexen-1-yl]-9-hydroxy-8-methoxy-3-methyl-1-oxa-7-azaspiro[4.4]non-2-ene-4,6-dione
PRECURSORMZ:  476.15621931683
PRECURSORTYPE:  [M+FA-H]-
FORMULA:  C22H25NO8
Ontology: Kingdom: Organic compounds;Superclass: Organic oxygen compounds;Class: Organooxygen compounds;Subclass: Carbonyl compounds
INCHIKEY:  SLYDIPAXCVVRNY-UHFFFAOYNA-N
SMILES:  CCC=CC(O)C(O)C1=C(C)C(=O)C2(O1)C(O)C(OC)(N=C2O)C(=O)C1=CC=CC=C1
RETENTIONTIME:  
CCS:  -1
IONMODE:  Negative
INSTRUMENTTYPE:  
INSTRUMENT:  Maxis II HD Q-TOF Bruker
COLLISIONENERGY:  
Comment:  DB#=CCMSLIB00000850376; origin=GNPS
Num Peaks:  71
83.01154	130.0
101.07101	110.0
109.02821	140.0
111.04584	90.0
121.02859	90.0
121.0483	60.0
124.04115	280.0
125.02208	90.0
137.02335	90.0
138.02097	110.0
139.03789	640.0
141.10039	110.0
144.04642	330.0
145.03107	220.0
148.04039	310.0
153.01813	100.0
156.07516	80.0
158.06383	100.0
160.04013	160.0
165.04466	160.0
170.05319	100.0
171.08333	170.0
172.03918	200.0
175.03735	100.0
176.07076	150.0
176.79213	90.0
184.04132	180.0
188.03717	310.0
189.07808	130.0
198.09464	130.0
200.03688	500.0
200.0703	450.0
200.14331	120.0
202.08789	140.0
212.07104	60.0
214.08301	110.0
217.03392	70.0
223.24376	80.0
224.06935	230.0
226.05452	250.0
226.08597	400.0
227.0546	160.0
228.02919	120.0
228.07106	270.0
229.0451	140.0
233.11661	120.0
242.08905	200.0
243.06685	100.0
252.05962	230.0
255.05325	430.0
259.05878	80.0
268.06287	60.0
270.07297	1000.0
286.07315	210.0
289.03171	70.0
293.15363	50.0
296.04874	190.0
301.1553	100.0
313.44736	40.0
313.74753	50.0
314.06888	480.0
314.35703	40.0
351.13168	70.0
354.13766	80.0
356.1799	120.0
373.16238	150.0
418.14188	60.0
431.23755	40.0
432.23691	60.0
457.25909	80.0
475.21045	80.0

NAME:  NCGC00380900-01_C20H29NO12_2-{[6-O-(beta-D-Glucopyranosyl)-beta-D-glucopyranosyl]oxy}-2-phenylacetamide
PRECURSORMZ:  520.16717792583
PRECURSORTYPE:  [M+FA-H]-
FORMULA:  C20H29NO12
Ontology: Kingdom: Organic compounds;Superclass: Lipids and lipid;Class: Fatty Acyls;Subclass: Fatty acyl glycosides
INCHIKEY:  OCQMNDCGKQJTNY-UHFFFAOYNA-N
SMILES:  OCC1OC(OCC2OC(OC(C(O)=N)C3=CC=CC=C3)C(O)C(O)C2O)C(O)C(O)C1O
RETENTIONTIME:  
CCS:  -1
IONMODE:  Negative
INSTRUMENTTYPE:  
INSTRUMENT:  Maxis II HD Q-TOF Bruker
COLLISIONENERGY:  
Comment:  DB#=CCMSLIB00000849854; origin=GNPS
Num Peaks:  29
92.35959	10.0
95.01223	20.0
99.01047	30.0
100.6879	10.0
101.02274	30.0
113.02679	40.0
117.01756	20.0
119.03372	40.0
121.05905	10.0
125.02107	70.0
131.03999	20.0
137.03197	20.0
143.0323	110.0
150.05661	230.0
161.04657	140.0
167.03188	20.0
179.05457	80.0
221.06706	50.0
233.06786	30.0
245.06487	50.0
263.07751	90.0
269.10388	20.0
305.09341	20.0
312.10928	280.0
323.09943	260.0
431.15598	70.0
474.0466	10.0
474.0809	20.0
474.16177	1000.0

NAME:  NCGC00381203-01_C31H46N4O7_2H-Pyrido[1,2-a][1,4,7,10]tetraazacyclododecine-1,4,7,10(3H,12H)-tetrone, 3-(7,8-dihydroxy-6-oxooctyl)octahydro-9-(1-methylpropyl)-6-(phenylmethyl)-
PRECURSORMZ:  585.32937338483
PRECURSORTYPE:  [M-H]-
FORMULA:  C31H46N4O7
Ontology: Kingdom: Organic compounds;Superclass: Organic acids and derivatives;Class: Carboxylic acids and derivatives;Subclass: Amino acids
INCHIKEY:  YSNRSVKJRYQIIA-UHFFFAOYNA-N
SMILES:  CCC(C)C1N=C(O)C(CC2=CC=CC=C2)N=C(O)C(CCCCCC(=O)C(O)CO)N=C(O)C2CCCCN2C1=O
RETENTIONTIME:  
CCS:  -1
IONMODE:  Negative
INSTRUMENTTYPE:  
INSTRUMENT:  Maxis II HD Q-TOF Bruker
COLLISIONENERGY:  
Comment:  DB#=CCMSLIB00000851072; origin=GNPS
Num Peaks:  42
99.07961	10.0
127.08672	20.0
137.07072	20.0
140.07649	10.0
150.08762	10.0
155.0695	10.0
163.08534	10.0
182.0795	10.0
183.10869	10.0
214.12892	10.0
215.14584	10.0
223.14828	80.0
227.10403	90.0
231.15198	10.0
237.0672	10.0
239.09679	20.0
239.15775	10.0
240.17642	30.0
242.11984	30.0
253.03355	10.0
262.64957	10.0
276.16895	10.0
278.38022	20.0
282.15335	30.0
294.18619	30.0
306.18231	20.0
306.21164	10.0
312.19128	150.0
314.1619	10.0
320.16498	30.0
322.72769	10.0
324.19086	60.0
331.17068	40.0
389.26099	10.0
411.23407	10.0
525.31592	30.0
537.3031	10.0
539.18042	10.0
555.31958	1000.0
556.31195	20.0
567.31915	160.0
585.32996	330.0

NAME:  NCGC00380382-01_C23H30O7_1-Phenanthrenecarboxylic acid, 10-(acetyloxy)-1,2,3,4,4a,9,10,10a-octahydro-5,9-dihydroxy-1,4a-dimethyl-7-(1-methylethyl)-4-oxo-, methyl ester
PRECURSORMZ:  417.19187685383
PRECURSORTYPE:  [M-H]-
FORMULA:  C23H30O7
Ontology: Kingdom: Organic compounds;Superclass: Lipids and lipid;Class: Prenol lipids;Subclass: Diterpenoids
INCHIKEY:  PRXFPPAVWQDTHT-UHFFFAOYNA-N
SMILES:  COC(=O)C1(C)CCC(=O)C2(C)C1C(OC(C)=O)C(O)C1=C2C(O)=CC(=C1)C(C)C
RETENTIONTIME:  
CCS:  -1
IONMODE:  Negative
INSTRUMENTTYPE:  
INSTRUMENT:  Maxis II HD Q-TOF Bruker
COLLISIONENERGY:  
Comment:  DB#=CCMSLIB00000850663; origin=GNPS
Num Peaks:  16
97.03006	40.0
135.04295	80.0
171.06523	50.0
216.07639	70.0
239.0666	40.0
241.12694	100.0
245.12363	560.0
250.98758	60.0
280.14868	110.0
297.13837	130.0
309.10718	90.0
325.17502	90.0
339.16107	70.0
341.12607	190.0
357.17609	60.0
417.18665	1000.0

NAME:  NCGC00381092-01_C15H20O8_2-Acetyl-5-hydroxy-3-methylphenyl beta-D-glucopyranoside
PRECURSORMZ:  373.11402015183
PRECURSORTYPE:  [M+FA-H]-
FORMULA:  C15H20O8
Ontology: Kingdom: Organic compounds;Superclass: Organic oxygen compounds;Class: Organooxygen compounds;Subclass: Carbohydrates and carbohydrate conjugates
INCHIKEY:  GXLXFBBEKMNRQK-UHFFFAOYNA-N
SMILES:  CC(=O)C1=C(OC2OC(CO)C(O)C(O)C2O)C=C(O)C=C1C
RETENTIONTIME:  
CCS:  -1
IONMODE:  Negative
INSTRUMENTTYPE:  
INSTRUMENT:  Maxis II HD Q-TOF Bruker
COLLISIONENERGY:  
Comment:  DB#=CCMSLIB00000849229; origin=GNPS
Num Peaks:  11
123.04364	70.0
149.02211	20.0
164.96597	10.0
165.05577	1000.0
166.0696	40.0
167.03415	30.0
207.06219	10.0
279.14517	10.0
327.1091	30.0
328.11011	10.0
530.76843	20.0

NAME:  NCGC00381328-01_C15H20O6_4-Hydroxy-4-(hydroxymethyl)-6,6-dimethyl-3-oxo-1,3,4,5,6,7,7a,9a-octahydropentaleno[1,6a-c]pyran-9-carboxylic acid
PRECURSORMZ:  341.12419091183
PRECURSORTYPE:  [M+FA-H]-
FORMULA:  C15H20O6
Ontology: Kingdom: Organic compounds;Superclass: Lipids and lipid;Class: Prenol lipids;Subclass: Terpene lactones
INCHIKEY:  JKCIUIFXYRQALX-UHFFFAOYNA-N
SMILES:  CC1(C)CC2C=C(C3COC(=O)C(O)(CO)C23C1)C(O)=O
RETENTIONTIME:  
CCS:  -1
IONMODE:  Negative
INSTRUMENTTYPE:  
INSTRUMENT:  Maxis II HD Q-TOF Bruker
COLLISIONENERGY:  
Comment:  DB#=CCMSLIB00000851160; origin=GNPS
Num Peaks:  17
98.19434	10.0
137.09869	50.0
143.42712	20.0
144.68512	20.0
144.74405	10.0
176.1116	30.0
177.12212	30.0
187.11252	10.0
189.12852	30.0
203.1143	60.0
221.11415	30.0
233.11758	40.0
251.12929	80.0
277.10004	20.0
294.24374	10.0
295.11871	1000.0
296.11801	50.0

NAME:  NCGC00380859-01_C20H26O5_(5xi,6alpha,7beta)-6,11,12-Trihydroxy-7,20-epoxyabieta-8,11,13-trien-20-one
PRECURSORMZ:  345.17074748483
PRECURSORTYPE:  [M-H]-
FORMULA:  C20H26O5
Ontology: Kingdom: Organic compounds;Superclass: Lipids and lipid;Class: Prenol lipids;Subclass: Terpene lactones
INCHIKEY:  UXVPWKDITRJELA-UHFFFAOYNA-N
SMILES:  [H]C12OC(=O)C3(CCCC(C)(C)C3C1O)C1=C2C=C(C(C)C)C(O)=C1O
RETENTIONTIME:  
CCS:  188.0336419
IONMODE:  Negative
INSTRUMENTTYPE:  
INSTRUMENT:  Maxis II HD Q-TOF Bruker
COLLISIONENERGY:  
Comment:  DB#=CCMSLIB00000850634; origin=GNPS
Num Peaks:  13
111.34897	20.0
139.80382	20.0
158.46208	50.0
204.07646	40.0
229.09415	60.0
258.13062	50.0
266.14279	40.0
283.16638	410.0
300.16794	70.0
301.1803	1000.0
302.07779	10.0
302.20627	40.0
345.18237	150.0

NAME:  Pesticide4_Flonicamid_C9H6F3N3O_N-(Cyanomethyl)-4-(trifluoromethyl)nicotinamide
PRECURSORMZ:  228.03901986183
PRECURSORTYPE:  [M-H]-
FORMULA:  C9H6F3N3O
Ontology: Kingdom: Organic compounds;Superclass: Organoheterocyclic compounds;Class: Pyridines and derivatives;Subclass: Pyridinecarboxylic acids and derivatives
INCHIKEY:  RLQJEEJISHYWON-UHFFFAOYSA-N
SMILES:  OC(=NCC#N)C1=CN=CC=C1C(F)(F)F
RETENTIONTIME:  
CCS:  143.6984669
IONMODE:  Negative
INSTRUMENTTYPE:  
INSTRUMENT:  Q-Exactive Plus Orbitrap Res 70k
COLLISIONENERGY:  
Comment:  DB#=CCMSLIB00001058310; origin=GNPS
Num Peaks:  4
81.00906	1000.0
146.02246	210.0
188.02681	50.0
228.03972	710.0

NAME:  NCGC00381141-01_C26H28N4O5_1H-Imidazo[1,2-a]indole-9-propanoic acid, 2,3,9,9a-tetrahydro-9-hydroxy-2-(2-methylpropyl)-3-oxo-alpha-(4-oxo-3(4H)-quinazolinyl)-, methyl ester
PRECURSORMZ:  521.20417256583
PRECURSORTYPE:  [M+FA-H]-
FORMULA:  C26H28N4O5
Ontology: Kingdom: Organic compounds;Superclass: Organic acids and derivatives;Class: Carboxylic acids and derivatives;Subclass: Amino acids
INCHIKEY:  XSMFFOWECZCAFL-UHFFFAOYNA-N
SMILES:  COC(=O)C(CC1(O)C2NC(CC(C)C)C(=O)N2C2=CC=CC=C12)N1C=NC2=CC=CC=C2C1=O
RETENTIONTIME:  
CCS:  -1
IONMODE:  Negative
INSTRUMENTTYPE:  
INSTRUMENT:  Maxis II HD Q-TOF Bruker
COLLISIONENERGY:  
Comment:  DB#=CCMSLIB00000851025; origin=GNPS
Num Peaks:  27
100.36423	20.0
126.30145	10.0
131.03543	10.0
132.04494	110.0
134.05251	10.0
144.04826	10.0
145.04042	1000.0
145.07265	20.0
158.05705	10.0
159.05634	10.0
164.06644	20.0
170.08296	40.0
171.05919	20.0
188.08046	10.0
190.05013	20.0
213.06358	10.0
255.11082	30.0
266.1272	70.0
282.12863	10.0
297.12796	80.0
298.11771	120.0
310.11789	270.0
328.13123	40.0
329.14194	10.0
330.147	10.0
342.14673	740.0
475.20163	30.0

NAME:  NCGC00168973-03_C18H22O11S_Carbonothioic acid, O-[[(2aS,4aS,5S,7bS)-5-(beta-D-glucopyranosyloxy)-2a,4a,5,7b-tetrahydro-1-oxo-1H-2,6-dioxacyclopent[cd]inden-4-yl]methyl] S-methyl ester
PRECURSORMZ:  491.08648524983
PRECURSORTYPE:  [M+FA-H]-
FORMULA:  C18H22O11S
Ontology: ;;;
INCHIKEY:  OJISWUQNQQWEND-UHFFFAOYNA-N
SMILES:  CSC(=O)OCC1=CC2OC(=O)C3=COC(OC4OC(CO)C(O)C(O)C4O)C1C23
RETENTIONTIME:  
CCS:  -1
IONMODE:  Negative
INSTRUMENTTYPE:  
INSTRUMENT:  Maxis II HD Q-TOF Bruker
COLLISIONENERGY:  
Comment:  DB#=CCMSLIB00000849802; origin=GNPS
Num Peaks:  18
119.05373	30.0
129.03412	20.0
138.4064	20.0
147.04491	1000.0
159.0468	10.0
161.04411	30.0
165.05315	30.0
177.03979	10.0
191.03468	240.0
195.05363	40.0
221.04317	20.0
283.02097	10.0
293.0744	20.0
353.08578	30.0
371.09726	20.0
399.09283	10.0
445.08237	210.0
491.09131	40.0

NAME:  NCGC00381099-01_C15H17NO5_Benzoic acid, 4-[[tetrahydro-2-[(2E)-1-hydroxy-2-buten-1-yl]-5-oxo-3-furanyl]amino]-
PRECURSORMZ:  336.10887519883
PRECURSORTYPE:  [M+FA-H]-
FORMULA:  C15H17NO5
Ontology: Kingdom: Organic compounds;Superclass: Benzenoids;Class: Benzene and substituted derivatives;Subclass: Benzoic acids and derivatives
INCHIKEY:  BYCOQXVBFQHWPL-UHFFFAOYNA-N
SMILES:  CC=CC(O)C1OC(=O)CC1NC1=CC=C(C=C1)C(O)=O
RETENTIONTIME:  
CCS:  -1
IONMODE:  Negative
INSTRUMENTTYPE:  
INSTRUMENT:  Maxis II HD Q-TOF Bruker
COLLISIONENERGY:  
Comment:  DB#=CCMSLIB00000849551; origin=GNPS
Num Peaks:  17
83.00842	50.0
92.04953	50.0
97.22144	20.0
107.19163	40.0
135.04541	120.0
136.04143	1000.0
137.04305	30.0
152.09538	20.0
184.11523	30.0
241.46399	30.0
272.0932	30.0
289.01151	20.0
289.32693	20.0
290.10455	460.0
290.25433	20.0
290.79556	20.0
291.10522	50.0

NAME:  NCGC00380654-01_C21H28O13_(2E)-3-[4-({2-O-[(2S,3R,4R)-3,4-Dihydroxy-4-(hydroxymethyl)tetrahydro-2-furanyl]-beta-D-glucopyranosyl}oxy)-3-methoxyphenyl]acrylic acid
PRECURSORMZ:  533.15119350983
PRECURSORTYPE:  [M+FA-H]-
FORMULA:  C21H28O13
Ontology: Kingdom: Organic compounds;Superclass: Organic oxygen compounds;Class: Organooxygen compounds;Subclass: Carbohydrates and carbohydrate conjugates
INCHIKEY:  WJKBOZUMKGXZHT-UHFFFAOYNA-N
SMILES:  COC1=C(OC2OC(CO)C(O)C(O)C2OC2OCC(O)(CO)C2O)C=CC(C=CC(O)=O)=C1
RETENTIONTIME:  
CCS:  -1
IONMODE:  Negative
INSTRUMENTTYPE:  
INSTRUMENT:  Maxis II HD Q-TOF Bruker
COLLISIONENERGY:  
Comment:  DB#=CCMSLIB00000850265; origin=GNPS
Num Peaks:  6
134.03787	80.0
149.0605	40.0
178.02658	160.0
179.03397	10.0
193.05072	1000.0
487.14639	230.0

NAME:  NCGC00347780-02_C38H61NO9_3-[(2-Acetamido-2-deoxyhexopyranosyl)oxy]-16-hydroxyolean-12-en-28-oic acid
PRECURSORMZ:  720.43283509583
PRECURSORTYPE:  [M+FA-H]-
FORMULA:  C38H61NO9
Ontology: Kingdom: Organic compounds;Superclass: Lipids and lipid;Class: Prenol lipids;Subclass: Terpene glycosides
INCHIKEY:  ZZVZUHRMTUSANL-UHFFFAOYNA-N
SMILES:  CC(O)=NC1C(O)C(O)C(CO)OC1OC1CCC2(C)C(CCC3(C)C2CC=C2C4CC(C)(C)CCC4(C(O)CC32C)C(O)=O)C1(C)C
RETENTIONTIME:  
CCS:  -1
IONMODE:  Negative
INSTRUMENTTYPE:  
INSTRUMENT:  Maxis II HD Q-TOF Bruker
COLLISIONENERGY:  
Comment:  DB#=CCMSLIB00000849947; origin=GNPS
Num Peaks:  9
100.03992	50.0
112.04063	30.0
142.05005	20.0
154.05086	20.0
200.05606	10.0
202.07127	100.0
612.42657	60.0
674.42871	1000.0
675.43317	70.0

NAME:  NCGC00385359-01_C30H46O7_(3beta,8xi,9xi)-3-[(2,6-Dideoxy-3-O-methylhexopyranosyl)oxy]-14-hydroxycard-20(22)-enolide
PRECURSORMZ:  499.30651268883
PRECURSORTYPE:  [M-H2O-H]-
FORMULA:  C30H46O7
Ontology: Kingdom: Organic compounds;Superclass: Lipids and lipid;Class: Steroids and steroid derivatives;Subclass: Steroid lactones
INCHIKEY:  YBZZSZQZDODUAA-UHFFFAOYNA-N
SMILES:  COC1CC(OC2CCC3(C)C(CCC4C3CCC3(C)C(CCC43O)C3=CC(=O)OC3)C2)OC(C)C1O
RETENTIONTIME:  
CCS:  -1
IONMODE:  Negative
INSTRUMENTTYPE:  
INSTRUMENT:  Maxis II HD Q-TOF Bruker
COLLISIONENERGY:  
Comment:  DB#=CCMSLIB00000849382; origin=GNPS
Num Peaks:  23
94.37636	30.0
131.04799	70.0
145.02905	60.0
181.04776	90.0
186.0262	100.0
198.03546	90.0
199.05844	120.0
236.83369	140.0
260.02576	50.0
279.10443	40.0
296.1041	40.0
302.99969	80.0
309.11328	150.0
323.00262	70.0
353.01501	80.0
363.15939	50.0
387.1705	170.0
428.52237	70.0
430.20352	40.0
431.21573	50.0
455.29977	40.0
498.99866	100.0
499.2811	1000.0

NAME:  NCGC00169855-03_C20H22N2O10_2,4(1H,3H)-Pyrimidinedione, 1-[2-O-acetyl-3-O-(4-hydroxy-2-methoxy-6-methylbenzoyl)pentofuranosyl]-
PRECURSORMZ:  449.12016846383
PRECURSORTYPE:  [M-H]-
FORMULA:  C20H22N2O10
Ontology: Kingdom: Organic compounds;Superclass: Nucleosides;Class: Pyrimidine nucleosides;
INCHIKEY:  ULPUBSPPYRXUOZ-UHFFFAOYNA-N
SMILES:  COC1=C(C(=O)OC2C(CO)OC(C2OC(C)=O)N2C=CC(O)=NC2=O)C(C)=CC(O)=C1
RETENTIONTIME:  
CCS:  -1
IONMODE:  Negative
INSTRUMENTTYPE:  
INSTRUMENT:  Maxis II HD Q-TOF Bruker
COLLISIONENERGY:  
Comment:  DB#=CCMSLIB00000850727; origin=GNPS
Num Peaks:  8
111.02001	130.0
122.03555	30.0
137.06018	110.0
181.05023	1000.0
295.08792	10.0
346.09357	40.0
389.09866	40.0
407.10837	130.0

NAME:  NCGC00381215-01_C36H48O19_beta-D-Glucopyranoside, 2-(3,4-dimethoxyphenyl)ethyl 3-O-(6-deoxy-alpha-L-mannopyranosyl)-4-O-[(2E)-3-(3,4-dihydroxyphenyl)-1-oxo-2-propen-1-yl]-6-O-[(2S,3R,4R)-tetrahydro-3,4-dihydroxy-4-(hydroxymethyl)-2-furanyl]-
PRECURSORMZ:  829.27718187383
PRECURSORTYPE:  [M+FA-H]-
FORMULA:  C36H48O19
Ontology: Kingdom: Organic compounds;Superclass: Organic oxygen compounds;Class: Organooxygen compounds;Subclass: Carbohydrates and carbohydrate conjugates
INCHIKEY:  NVKSXODNGLJJHQ-UHFFFAOYNA-N
SMILES:  COC1=C(OC)C=C(CCOC2OC(COC3OCC(O)(CO)C3O)C(OC(=O)C=CC3=CC(O)=C(O)C=C3)C(OC3OC(C)C(O)C(O)C3O)C2O)C=C1
RETENTIONTIME:  
CCS:  -1
IONMODE:  Negative
INSTRUMENTTYPE:  
INSTRUMENT:  Maxis II HD Q-TOF Bruker
COLLISIONENERGY:  
Comment:  DB#=CCMSLIB00000849910; origin=GNPS
Num Peaks:  25
72.56232	10.0
89.02729	10.0
119.03809	10.0
124.01511	20.0
125.02329	20.0
131.03577	40.0
132.01955	40.0
134.03622	70.0
149.05069	40.0
159.81055	10.0
160.01645	400.0
161.02652	20.0
163.05618	10.0
174.59276	10.0
175.03955	1000.0
176.04993	20.0
178.02574	30.0
193.05051	90.0
221.08443	10.0
291.69205	20.0
475.39969	10.0
589.23254	20.0
607.22443	240.0
783.2699	390.0
784.29175	50.0

NAME:  NCGC00169485-03_C25H30O13_Cyclopenta[c]pyran-4-carboxylic acid, 1-[[6-O-[(2E)-3-(3,4-dihydroxyphenyl)-1-oxo-2-propen-1-yl]-beta-D-glucopyranosyl]oxy]-1,4a,5,6,7,7a-hexahydro-7-hydroxy-7-methyl-, (1S,4aS,7S,7aS)-
PRECURSORMZ:  537.16136457383
PRECURSORTYPE:  [M-H]-
FORMULA:  C25H30O13
Ontology: Kingdom: Organic compounds;Superclass: Lipids and lipid;Class: Prenol lipids;Subclass: Terpene glycosides
INCHIKEY:  AEBORMNUOJEQOL-UHFFFAOYNA-N
SMILES:  CC1(O)CCC2C1C(OC1OC(COC(=O)C=CC3=CC(O)=C(O)C=C3)C(O)C(O)C1O)OC=C2C(O)=O
RETENTIONTIME:  
CCS:  -1
IONMODE:  Negative
INSTRUMENTTYPE:  
INSTRUMENT:  Maxis II HD Q-TOF Bruker
COLLISIONENERGY:  
Comment:  DB#=CCMSLIB00000849443; origin=GNPS
Num Peaks:  15
125.06062	20.0
133.03096	30.0
135.04819	20.0
151.0761	50.0
161.02397	460.0
169.08781	20.0
179.03587	70.0
213.07881	20.0
221.04796	20.0
251.05534	10.0
281.06519	30.0
323.07562	60.0
423.12518	10.0
493.17154	210.0
537.16162	1000.0

NAME:  NCGC00380296-01_C33H38N6O10_15-(2-Amino-2-oxoethyl)-10,11,23-trihydroxy-18-[(3-methyl-2-oxopentanoyl)amino]-9,14,17-trioxo-N-[(1Z)-1-propen-1-yl]-8,13,16-triazatetracyclo[18.3.1.0~2,7~.0~6,10~]tetracosa-1(24),2,4,6,20,22-hexaene-12-carboxamide
PRECURSORMZ:  677.25766499583
PRECURSORTYPE:  [M-H]-
FORMULA:  C33H38N6O10
Ontology: Kingdom: Organic compounds;Superclass: Organic acids and derivatives;Class: Carboxylic acids and derivatives;Subclass: Amino acids
INCHIKEY:  ZIAXNZCTODBCKW-UHFFFAOYNA-N
SMILES:  CCC(C)C(=O)C(=O)NC1CC2=CC(=C(O)C=C2)C2=C3NC(=O)C(O)(C(O)C(N=C(O)C(CC(O)=N)N=C1O)C(O)=NC=CC)C3=CC=C2
RETENTIONTIME:  
CCS:  280.9994502
IONMODE:  Negative
INSTRUMENTTYPE:  
INSTRUMENT:  Maxis II HD Q-TOF Bruker
COLLISIONENERGY:  
Comment:  DB#=CCMSLIB00000850232; origin=GNPS
Num Peaks:  54
95.3196	10.0
96.19809	20.0
98.02393	30.0
99.02374	20.0
110.02466	20.0
112.03918	40.0
128.07056	10.0
131.03407	20.0
137.03587	20.0
138.01944	30.0
141.10316	20.0
142.0874	30.0
151.04831	20.0
153.03041	20.0
154.75624	10.0
155.04582	220.0
157.09505	10.0
167.0802	120.0
168.06471	40.0
181.0267	40.0
185.09192	290.0
198.05365	20.0
206.06213	20.0
210.09021	10.0
220.07884	10.0
221.05518	10.0
224.06645	30.0
238.08853	40.0
240.06468	30.0
251.06049	20.0
252.07265	30.0
263.0629	10.0
266.08438	70.0
281.08813	30.0
291.08078	10.0
309.08624	30.0
341.14926	110.0
349.15869	20.0
352.08514	10.0
367.15683	10.0
377.15881	20.0
393.15527	10.0
394.18188	20.0
406.10913	10.0
438.16541	1000.0
465.14545	30.0
535.18628	40.0
548.19104	10.0
576.20197	20.0
594.22021	940.0
595.21155	20.0
595.23889	20.0
620.18933	20.0
677.24652	40.0

NAME:  NCGC00380217-01_C20H28O4_4a(2H)-Phenanthrenecarboxylic acid, 7-ethenyl-1,3,4,4b,5,6,7,9,10,10a-decahydro-4b-hydroxy-1,1,7-trimethyl-9-oxo-
PRECURSORMZ:  377.19696192983
PRECURSORTYPE:  [M+FA-H]-
FORMULA:  C20H28O4
Ontology: Kingdom: Organic compounds;Superclass: Benzenoids;Class: Phenanthrenes and derivatives;Subclass: Hydrophenanthrenes
INCHIKEY:  VIDNIVWPSMVGJV-UHFFFAOYNA-N
SMILES:  CC1(C)CCCC2(C1CC(=O)C1=CC(C)(CCC21O)C=C)C(O)=O
RETENTIONTIME:  
CCS:  -1
IONMODE:  Negative
INSTRUMENTTYPE:  
INSTRUMENT:  Maxis II HD Q-TOF Bruker
COLLISIONENERGY:  
Comment:  DB#=CCMSLIB00000850818; origin=GNPS
Num Peaks:  12
80.15412	20.0
199.10577	40.0
227.14282	30.0
257.15024	30.0
269.18912	370.0
270.18967	20.0
331.18988	1000.0
333.21088	20.0
376.64252	20.0
376.8295	30.0
377.1514	20.0
377.20477	140.0

NAME:  NCGC00380730-01_C42H66O16_beta-D-Glucopyranose, 6-O-beta-D-glucopyranosyl-1-O-[(3beta,5xi,9xi)-3,19,24-trihydroxy-24,28-dioxours-12-en-28-yl]-
PRECURSORMZ:  871.43328859283
PRECURSORTYPE:  [M+FA-H]-
FORMULA:  C42H66O16
Ontology: Kingdom: Organic compounds;Superclass: Lipids and lipid;Class: Prenol lipids;Subclass: Terpene glycosides
INCHIKEY:  LCQFYEBJTAIMPC-UHFFFAOYNA-N
SMILES:  CC1CCC2(CCC3(C)C(=CCC4C5(C)CCC(O)C(C)(C5CCC34C)C(O)=O)C2C1(C)O)C(=O)OC1OC(COC2OC(CO)C(O)C(O)C2O)C(O)C(O)C1O
RETENTIONTIME:  
CCS:  -1
IONMODE:  Negative
INSTRUMENTTYPE:  
INSTRUMENT:  Maxis II HD Q-TOF Bruker
COLLISIONENERGY:  
Comment:  DB#=CCMSLIB00000849290; origin=GNPS
Num Peaks:  27
157.96536	40.0
161.04483	30.0
171.91997	30.0
179.05646	20.0
181.0112	10.0
221.07272	20.0
234.22815	10.0
253.2325	10.0
323.09299	50.0
380.15506	30.0
386.45734	20.0
396.15677	30.0
439.31979	10.0
457.33853	10.0
465.45624	30.0
483.3147	110.0
500.69315	20.0
501.32129	1000.0
502.33817	110.0
595.32898	20.0
663.38477	10.0
805.98529	30.0
824.44739	30.0
825.42761	170.0
826.4281	50.0
871.45496	20.0
872.45428	10.0

NAME:  NCGC00380975-01_C24H26O10_
PRECURSORMZ:  473.14532058483
PRECURSORTYPE:  [M-H]-
FORMULA:  C24H26O10
Ontology: Kingdom: Organic compounds;Superclass: Benzenoids;Class: Benzene and substituted derivatives;Subclass: Benzophenones
INCHIKEY:  XKQFWJXMPAGPGP-UHFFFAOYNA-N
SMILES:  COC(=O)C1=C(C(=O)C2=C(O)C3=C(OC4(C)OC3CCC4O)C=C2OC)C(OC)=CC(OC)=C1
RETENTIONTIME:  
CCS:  -1
IONMODE:  Negative
INSTRUMENTTYPE:  
INSTRUMENT:  Maxis II HD Q-TOF Bruker
COLLISIONENERGY:  
Comment:  DB#=CCMSLIB00000849785; origin=GNPS
Num Peaks:  53
131.047	30.0
137.06317	20.0
177.02364	20.0
227.06802	20.0
229.0509	140.0
283.05389	30.0
285.07657	20.0
293.03381	40.0
309.07541	20.0
311.11243	20.0
321.03256	30.0
322.0575	30.0
325.06866	20.0
325.10776	110.0
329.05981	20.0
337.07608	70.0
339.05319	90.0
339.08691	80.0
341.07877	40.0
341.10373	50.0
343.08752	20.0
348.98282	20.0
350.98462	20.0
353.06097	70.0
353.10953	20.0
354.07651	30.0
355.08728	30.0
359.07224	30.0
364.09204	20.0
365.07602	30.0
366.08414	20.0
368.09125	60.0
369.09659	380.0
382.11151	20.0
385.08899	20.0
395.10529	20.0
397.06754	10.0
397.13013	150.0
400.10352	20.0
401.12848	40.0
409.09915	20.0
411.10458	140.0
413.12265	30.0
423.10825	100.0
426.09241	20.0
426.302	30.0
429.12552	60.0
429.17728	30.0
441.11923	1000.0
472.24045	30.0
472.4884	10.0
473.14578	420.0
687.78113	10.0

NAME:  NCGC00380349-01_C25H30O13_Cyclopenta[c]pyran-4-carboxylic acid, 6-(acetyloxy)-5-(benzoyloxy)-1-(hexopyranosyloxy)-1,4a,5,6,7,7a-hexahydro-7-methyl-
PRECURSORMZ:  583.16684357383
PRECURSORTYPE:  [M+FA-H]-
FORMULA:  C25H30O13
Ontology: ;;;
INCHIKEY:  IRSUXHBCTWMHAK-UHFFFAOYNA-N
SMILES:  CC1C(OC(C)=O)C(OC(=O)C2=CC=CC=C2)C2C1C(OC1OC(CO)C(O)C(O)C1O)OC=C2C(O)=O
RETENTIONTIME:  
CCS:  -1
IONMODE:  Negative
INSTRUMENTTYPE:  
INSTRUMENT:  Maxis II HD Q-TOF Bruker
COLLISIONENERGY:  
Comment:  DB#=CCMSLIB00000850361; origin=GNPS
Num Peaks:  29
89.02489	10.0
93.91431	10.0
99.00609	10.0
101.0223	20.0
106.04259	10.0
113.86669	10.0
119.03392	40.0
121.02882	1000.0
121.06683	30.0
123.00539	20.0
131.04948	250.0
147.04373	10.0
149.05959	150.0
161.0475	30.0
163.07541	10.0
165.00903	10.0
175.03886	290.0
175.33147	10.0
179.05573	80.0
187.49924	20.0
193.0533	50.0
201.05504	10.0
253.07326	130.0
295.0773	10.0
311.11243	10.0
355.10284	120.0
371.12784	20.0
375.11127	40.0
537.16309	250.0

NAME:  NCGC00380873-01_C47H74O16_
PRECURSORMZ:  893.49040985083
PRECURSORTYPE:  [M-H]-
FORMULA:  C47H74O16
Ontology: Kingdom: Organic compounds;Superclass: Lipids and lipid;Class: Prenol lipids;Subclass: Terpene glycosides
INCHIKEY:  LXAMCLNOVGHDMD-UHFFFAOYNA-N
SMILES:  CC1OC(OC2C(O)C(OC(OC3CCC4(C)C(CCC5(C)C4C=CC4=C6CC(C)(C)CC(O)C6(C)CCC54C)C3(C)C)C2OC2OCC(O)C(O)C2O)C(O)=O)C(O)C(O)C1O
RETENTIONTIME:  
CCS:  -1
IONMODE:  Negative
INSTRUMENTTYPE:  
INSTRUMENT:  Maxis II HD Q-TOF Bruker
COLLISIONENERGY:  
Comment:  DB#=CCMSLIB00000849455; origin=GNPS
Num Peaks:  16
85.02914	30.0
99.00893	20.0
101.02466	10.0
113.0235	50.0
115.04034	20.0
131.03415	50.0
143.0341	40.0
157.01305	20.0
163.06136	20.0
205.07106	60.0
437.34268	20.0
507.3877	20.0
597.3808	20.0
875.47906	10.0
893.49316	1000.0
894.49561	240.0

NAME:  NCGC00380698-01_C24H30O13_Cyclopenta[c]pyran-4-carboxylic acid, 1-(beta-D-glucopyranosyloxy)-1,4a,5,6,7,7a-hexahydro-4a-hydroxy-7-methyl-5-oxo-, 2-(3,4-dihydroxyphenyl)ethyl ester, (1S,4aR,7aR)-
PRECURSORMZ:  525.16136457383
PRECURSORTYPE:  [M-H]-
FORMULA:  C24H30O13
Ontology: Kingdom: Organic compounds;Superclass: Lipids and lipid;Class: Prenol lipids;Subclass: Terpene glycosides
INCHIKEY:  KQBFNIVRWYGXRN-UHFFFAOYNA-N
SMILES:  CC1CC(=O)C2(O)C1C(OC1OC(CO)C(O)C(O)C1O)OC=C2C(=O)OCCC1=CC(O)=C(O)C=C1
RETENTIONTIME:  
CCS:  -1
IONMODE:  Negative
INSTRUMENTTYPE:  
INSTRUMENT:  Maxis II HD Q-TOF Bruker
COLLISIONENERGY:  
Comment:  DB#=CCMSLIB00000850418; origin=GNPS
Num Peaks:  42
83.29541	40.0
85.78056	20.0
85.8255	20.0
89.02341	40.0
95.04897	50.0
103.05538	30.0
110.89105	20.0
112.8341	20.0
113.02296	260.0
113.21081	20.0
119.03533	120.0
121.02535	30.0
121.04622	30.0
121.06647	340.0
135.04605	90.0
137.0591	30.0
139.00552	300.0
139.0396	230.0
139.07735	70.0
139.3206	30.0
143.02815	40.0
149.0475	50.0
153.79439	20.0
155.07126	30.0
161.0441	150.0
165.05716	480.0
179.05354	50.0
183.0657	620.0
189.77713	30.0
194.2746	20.0
194.34821	20.0
200.7187	20.0
209.04475	390.0
223.05804	280.0
227.05544	260.0
249.07936	410.0
335.10825	30.0
345.11591	30.0
363.10837	370.0
389.1102	1000.0
523.99255	10.0
525.15741	420.0

NAME:  NCGC00169614-02_C24H21N5O4_(1S,3S,12S,14R,27S)-12-Hydroxy-1,3-dimethyl-2,5,15,23,25-pentaazaheptacyclo[12.10.2.1~2,5~.0~6,11~.0~12,27~.0~15,24~.0~17,22~]heptacosa-6,8,10,17,19,21,23-heptaene-4,16,26-trione
PRECURSORMZ:  488.15755672383
PRECURSORTYPE:  [M+FA-H]-
FORMULA:  C24H21N5O4
Ontology: Kingdom: Organic compounds;Superclass: Organoheterocyclic compounds;Class: Diazanaphthalenes;Subclass: Benzodiazines
INCHIKEY:  YYLAARMDRFESOL-UHFFFAOYNA-N
SMILES:  [H]C12CC3(O)C4N(C(C)C(=O)N4C4=CC=CC=C34)C(C)(N=C1O)C1=NC3=CC=CC=C3C(=O)N21
RETENTIONTIME:  
CCS:  -1
IONMODE:  Negative
INSTRUMENTTYPE:  
INSTRUMENT:  Maxis II HD Q-TOF Bruker
COLLISIONENERGY:  
Comment:  DB#=CCMSLIB00000850048; origin=GNPS
Num Peaks:  12
145.04416	170.0
159.05684	30.0
169.01999	20.0
186.06691	50.0
197.05733	40.0
199.05077	330.0
225.05516	320.0
240.00032	60.0
240.07881	1000.0
240.14046	50.0
424.30341	30.0
470.14334	400.0

NAME:  NCGC00380994-01_C21H30O12_4-Acetyl-2-methoxyphenyl 6-O-(6-deoxy-alpha-L-mannopyranosyl)-beta-D-glucopyranoside
PRECURSORMZ:  519.17192895383
PRECURSORTYPE:  [M+FA-H]-
FORMULA:  C21H30O12
Ontology: ;;;
INCHIKEY:  ZUXLIBRTWRBKLQ-UHFFFAOYNA-N
SMILES:  COC1=C(OC2OC(COC3OC(C)C(O)C(O)C3O)C(O)C(O)C2O)C=CC(=C1)C(C)=O
RETENTIONTIME:  
CCS:  -1
IONMODE:  Negative
INSTRUMENTTYPE:  
INSTRUMENT:  Maxis II HD Q-TOF Bruker
COLLISIONENERGY:  
Comment:  DB#=CCMSLIB00000850766; origin=GNPS
Num Peaks:  5
149.81671	10.0
150.03204	470.0
165.05592	1000.0
166.04657	10.0
519.17261	10.0

NAME:  NCGC00380089-01_C22H25NO8_1-Oxa-7-azaspiro[4.4]non-2-ene-4,6-dione, 8-benzoyl-2-[(1S,2S,3Z)-1,2-dihydroxy-3-hexen-1-yl]-9-hydroxy-8-methoxy-3-methyl-, (5S,8S,9R)-
PRECURSORMZ:  430.15074031683
PRECURSORTYPE:  [M-H]-
FORMULA:  C22H25NO8
Ontology: Kingdom: Organic compounds;Superclass: Organic oxygen compounds;Class: Organooxygen compounds;Subclass: Carbonyl compounds
INCHIKEY:  SLYDIPAXCVVRNY-UHFFFAOYNA-N
SMILES:  CCC=CC(O)C(O)C1=C(C)C(=O)C2(O1)C(O)C(OC)(N=C2O)C(=O)C1=CC=CC=C1
RETENTIONTIME:  
CCS:  222.3728907
IONMODE:  Negative
INSTRUMENTTYPE:  
INSTRUMENT:  Maxis II HD Q-TOF Bruker
COLLISIONENERGY:  
Comment:  DB#=CCMSLIB00000850336; origin=GNPS
Num Peaks:  53
124.03482	40.0
125.02681	50.0
139.03825	520.0
140.03508	80.0
142.07437	60.0
144.04773	90.0
145.03024	130.0
148.03888	140.0
153.02136	40.0
156.02104	80.0
156.04294	60.0
157.06526	40.0
158.06018	110.0
160.03854	560.0
162.05461	60.0
164.03159	40.0
168.02202	140.0
170.01802	50.0
170.06236	40.0
171.08337	60.0
173.05322	50.0
180.06902	190.0
184.04233	90.0
186.06598	130.0
187.08124	60.0
188.03236	300.0
192.02876	120.0
193.08383	80.0
198.09137	120.0
199.07118	40.0
200.03387	330.0
200.07033	330.0
202.05034	90.0
212.07249	140.0
215.07353	80.0
224.05313	240.0
226.07784	260.0
227.06256	110.0
228.06085	90.0
237.03761	50.0
240.04974	50.0
242.086	290.0
243.06935	190.0
246.06921	50.0
252.06557	70.0
254.59364	70.0
255.05273	60.0
270.07645	1000.0
270.16129	40.0
271.06378	40.0
288.08096	30.0
296.0545	70.0
308.11288	40.0

NAME:  Pesticide3_Fluometuron_C10H11F3N2O_Urea, N,N-dimethyl-N'-[3-(trifluoromethyl)phenyl]-
PRECURSORMZ:  231.07507101883
PRECURSORTYPE:  [M-H]-
FORMULA:  C10H11F3N2O
Ontology: Kingdom: Organic compounds;Superclass: Benzenoids;Class: Benzene and substituted derivatives;Subclass: N
INCHIKEY:  RZILCCPWPBTYDO-UHFFFAOYSA-N
SMILES:  CN(C)C(O)=NC1=CC=CC(=C1)C(F)(F)F
RETENTIONTIME:  
CCS:  147.6066942
IONMODE:  Negative
INSTRUMENTTYPE:  
INSTRUMENT:  Q-Exactive Plus Orbitrap Res 70k
COLLISIONENERGY:  
Comment:  DB#=CCMSLIB00001058242; origin=GNPS
Num Peaks:  10
149.97546	120.0
159.97282	270.0
160.03809	40.0
166.01126	40.0
185.95193	550.0
186.01747	300.0
190.99309	10.0
210.98248	10.0
231.01041	1000.0
231.07536	460.0

NAME:  NCGC00380519-01_C25H30O13_
PRECURSORMZ:  537.16136457383
PRECURSORTYPE:  [M-H]-
FORMULA:  C25H30O13
Ontology: Kingdom: Organic compounds;Superclass: Lipids and lipid;Class: Prenol lipids;Subclass: Terpene glycosides
INCHIKEY:  USQLNPJSDYEFJF-UHFFFAOYNA-N
SMILES:  CC1(O)CC(O)C2C1C(OC1OC(CO)C(O)C(O)C1OC(=O)C=CC1=CC=C(O)C=C1)OC=C2C(O)=O
RETENTIONTIME:  
CCS:  -1
IONMODE:  Negative
INSTRUMENTTYPE:  
INSTRUMENT:  Maxis II HD Q-TOF Bruker
COLLISIONENERGY:  
Comment:  DB#=CCMSLIB00000849681; origin=GNPS
Num Peaks:  26
97.02821	10.0
117.03444	30.0
119.05249	40.0
123.0425	30.0
139.07368	20.0
141.05849	10.0
145.02921	550.0
149.05914	20.0
161.06013	70.0
163.04015	210.0
167.07202	170.0
177.05257	20.0
185.08296	170.0
187.03947	20.0
205.05095	110.0
211.06487	40.0
229.07108	120.0
264.09885	10.0
265.07416	10.0
325.08569	10.0
329.08612	10.0
355.09775	20.0
373.11319	380.0
391.12488	210.0
536.95831	10.0
537.16101	1000.0

NAME:  NCGC00381128-01_C18H26O10_4-(beta-D-Glucopyranosyloxy)benzyl 2,3-dihydroxy-3-methylbutanoate
PRECURSORMZ:  447.15079958483
PRECURSORTYPE:  [M+FA-H]-
FORMULA:  C18H26O10
Ontology: ;;;
INCHIKEY:  CHRIGVPNNGMWMG-UHFFFAOYNA-N
SMILES:  CC(C)(O)C(O)C(=O)OCC1=CC=C(OC2OC(CO)C(O)C(O)C2O)C=C1
RETENTIONTIME:  
CCS:  -1
IONMODE:  Negative
INSTRUMENTTYPE:  
INSTRUMENT:  Maxis II HD Q-TOF Bruker
COLLISIONENERGY:  
Comment:  DB#=CCMSLIB00000851049; origin=GNPS
Num Peaks:  4
133.05032	1000.0
295.10562	70.0
383.15332	20.0
447.15121	70.0

NAME:  NCGC00380811-02_C23H22N4O6_1H-Imidazo[1,2-a]indole-9-propanoic acid, 2,3,9,9a-tetrahydro-1,9-dihydroxy-2,2-dimethyl-3-oxo-alpha-(4-oxo-3(4H)-quinazolinyl)-
PRECURSORMZ:  449.14665799183
PRECURSORTYPE:  [M-H]-
FORMULA:  C23H22N4O6
Ontology: Kingdom: Organic compounds;Superclass: Organoheterocyclic compounds;Class: Diazanaphthalenes;Subclass: Benzodiazines
INCHIKEY:  GVRDYBOOMKTYKH-UHFFFAOYNA-N
SMILES:  CC1(C)N(O)C2N(C1=O)C1=CC=CC=C1C2(O)CC(N1C=NC2=CC=CC=C2C1=O)C(O)=O
RETENTIONTIME:  
CCS:  -1
IONMODE:  Negative
INSTRUMENTTYPE:  
INSTRUMENT:  Maxis II HD Q-TOF Bruker
COLLISIONENERGY:  
Comment:  DB#=CCMSLIB00000849880; origin=GNPS
Num Peaks:  9
145.03986	1000.0
146.05702	10.0
199.05061	10.0
215.08154	50.0
226.07605	10.0
241.09637	70.0
304.1077	30.0
405.15903	10.0
449.14783	60.0

NAME:  NCGC00169454-03_C20H18O7_2-Furancarboxylic acid, 2,5-dihydro-3-(4-hydroxyphenyl)-2-[(4-hydroxyphenyl)methyl]-4-methoxy-5-oxo-, methyl ester
PRECURSORMZ:  415.10345546783
PRECURSORTYPE:  [M+FA-H]-
FORMULA:  C20H18O7
Ontology: ;;;
INCHIKEY:  DYMYDSWEIIXYNX-UHFFFAOYNA-N
SMILES:  COC(=O)C1(CC2=CC=C(O)C=C2)OC(=O)C(OC)=C1C1=CC=C(O)C=C1
RETENTIONTIME:  
CCS:  -1
IONMODE:  Negative
INSTRUMENTTYPE:  
INSTRUMENT:  Maxis II HD Q-TOF Bruker
COLLISIONENERGY:  
Comment:  DB#=CCMSLIB00000849479; origin=GNPS
Num Peaks:  6
133.02751	30.0
205.0135	500.0
235.06058	10.0
248.03241	510.0
263.05548	1000.0
369.10071	70.0

NAME:  NCGC00380538-01_C21H36O10_(6,6-Dimethylbicyclo[3.1.1]hept-2-yl)methyl 6-O-[(2R,3R,4R)-3,4-dihydroxy-4-(hydroxymethyl)tetrahydro-2-furanyl]-beta-D-glucopyranoside
PRECURSORMZ:  493.22904990683
PRECURSORTYPE:  [M+FA-H]-
FORMULA:  C21H36O10
Ontology: Kingdom: Organic compounds;Superclass: Lipids and lipid;Class: Prenol lipids;Subclass: Terpene glycosides
INCHIKEY:  RSKTWDAINBIMPD-UHFFFAOYNA-N
SMILES:  [H]C12CC([H])(C(COC3OC(COC4OCC(O)(CO)C4O)C(O)C(O)C3O)CC1)C2(C)C
RETENTIONTIME:  
CCS:  -1
IONMODE:  Negative
INSTRUMENTTYPE:  
INSTRUMENT:  Maxis II HD Q-TOF Bruker
COLLISIONENERGY:  
Comment:  DB#=CCMSLIB00000850208; origin=GNPS
Num Peaks:  4
101.02332	10.0
161.04543	50.0
315.18219	140.0
447.22403	1000.0

NAME:  Pesticide4_Metaflumizone_C24H16F6N4O2_(2E)-2-{2-(4-Cyanophenyl)-1-[3-(trifluoromethyl)phenyl]ethylidene}-N-[4-(trifluoromethoxy)phenyl]hydrazinecarboxamide
PRECURSORMZ:  505.11046829683
PRECURSORTYPE:  [M-H]-
FORMULA:  C24H16F6N4O2
Ontology: ;;;
INCHIKEY:  MIFOMMKAVSCNKQ-UHFFFAOYSA-N
SMILES:  OC(NC1=CC=C(OC(F)(F)F)C=C1)=NN=C(CC1=CC=C(C=C1)C#N)C1=CC(=CC=C1)C(F)(F)F
RETENTIONTIME:  
CCS:  179.9413059
IONMODE:  Negative
INSTRUMENTTYPE:  
INSTRUMENT:  Q-Exactive Plus Orbitrap Res 70k
COLLISIONENERGY:  
Comment:  DB#=CCMSLIB00001058393; origin=GNPS
Num Peaks:  15
102.03491	90.0
116.03822	80.0
116.05067	20.0
117.04601	130.0
141.04611	30.0
171.04289	10.0
199.04881	30.0
214.0668	20.0
234.07289	10.0
242.07239	10.0
272.06982	10.0
274.08505	30.0
285.06433	80.0
302.09125	1000.0
328.07138	40.0

NAME:  NCGC00169850-02_C24H30O12_2H-Pyran-4-acetic acid, 5-carboxy-3-ethylidene-2-(beta-D-glucopyranosyloxy)-3,4-dihydro-, alpha-[2-(4-hydroxyphenyl)ethyl] ester, (2S,3Z,4S)-
PRECURSORMZ:  509.16644995383
PRECURSORTYPE:  [M-H]-
FORMULA:  C24H30O12
Ontology: ;;;
INCHIKEY:  BSUNYCAAALCBNU-UHFFFAOYNA-N
SMILES:  CC=C1C(OC2OC(CO)C(O)C(O)C2O)OC=C(C1CC(=O)OCCC1=CC=C(O)C=C1)C(O)=O
RETENTIONTIME:  
CCS:  226.3388928
IONMODE:  Negative
INSTRUMENTTYPE:  
INSTRUMENT:  Maxis II HD Q-TOF Bruker
COLLISIONENERGY:  
Comment:  DB#=CCMSLIB00000850064; origin=GNPS
Num Peaks:  35
71.04913	30.0
111.00935	20.0
119.03269	20.0
121.02654	40.0
121.06789	110.0
123.03989	30.0
137.05676	160.0
139.00246	190.0
139.0766	90.0
147.04288	140.0
149.02463	40.0
159.02892	30.0
165.05397	1000.0
179.06587	110.0
183.0631	290.0
191.03244	170.0
199.05318	20.0
207.07002	20.0
209.04582	70.0
233.07855	230.0
247.70868	30.0
259.09839	50.0
267.09927	20.0
277.07077	220.0
285.11383	60.0
303.13232	10.0
327.10855	20.0
329.10196	60.0
345.12686	50.0
347.11502	130.0
371.10654	40.0
389.1051	170.0
395.13489	40.0
509.16467	140.0
509.20639	40.0

NAME:  NCGC00380506-01_C21H28O10_2-Hydroxycyclohexyl 6-O-[(2E)-3-(3,4-dihydroxyphenyl)-2-propenoyl]-beta-D-glucopyranoside
PRECURSORMZ:  485.16644964983
PRECURSORTYPE:  [M+FA-H]-
FORMULA:  C21H28O10
Ontology: ;;;
INCHIKEY:  CSGSKMJWQQEEQK-UHFFFAOYNA-N
SMILES:  OC1CCCCC1OC1OC(COC(=O)C=CC2=CC(O)=C(O)C=C2)C(O)C(O)C1O
RETENTIONTIME:  
CCS:  -1
IONMODE:  Negative
INSTRUMENTTYPE:  
INSTRUMENT:  Maxis II HD Q-TOF Bruker
COLLISIONENERGY:  
Comment:  DB#=CCMSLIB00000850121; origin=GNPS
Num Peaks:  6
133.03084	30.0
135.04619	20.0
161.02435	290.0
179.03548	20.0
439.16162	1000.0
795.51959	10.0

NAME:  NCGC00385252-01_C57H92O28_alpha-L-Arabinopyranose, O-3-O-[(2R,3R,4R)-tetrahydro-3,4-dihydroxy-4-(hydroxymethyl)-2-furanyl]-beta-D-xylopyranosyl-(1->4)-O-6-deoxy-alpha-L-mannopyranosyl-(1->2)-1-O-[(2beta,3beta,5xi,6beta,9xi,16alpha)-3-(beta-D-glucopyranosyloxy)-2,6,16,23-tetrahydroxy-28-oxoolean-12-en-28-yl]-
PRECURSORMZ:  1223.57023586983
PRECURSORTYPE:  [M-H]-
FORMULA:  C57H92O28
Ontology: ;;;
INCHIKEY:  KGASGDAHIPOLIY-UHFFFAOYNA-N
SMILES:  CC1OC(OC2C(O)C(O)COC2OC(=O)C23CCC(C)(C)CC2C2=CCC4C5(C)CC(O)C(OC6OC(CO)C(O)C(O)C6O)C(C)(CO)C5C(O)CC4(C)C2(C)CC3O)C(O)C(O)C1OC1OCC(O)C(OC2OCC(O)(CO)C2O)C1O
RETENTIONTIME:  
CCS:  -1
IONMODE:  Negative
INSTRUMENTTYPE:  
INSTRUMENT:  Maxis II HD Q-TOF Bruker
COLLISIONENERGY:  
Comment:  DB#=CCMSLIB00000849584; origin=GNPS
Num Peaks:  51
83.01297	10.0
85.02867	20.0
89.02403	40.0
101.02462	90.0
112.98302	10.0
113.02326	170.0
115.04098	10.0
119.03498	20.0
125.02369	10.0
131.03464	210.0
132.03773	10.0
143.0332	100.0
145.0486	40.0
149.04404	60.0
161.04541	20.0
205.07114	100.0
263.0759	120.0
277.08954	10.0
281.08554	40.0
319.10107	20.0
321.08096	20.0
323.09756	50.0
337.11188	210.0
338.11707	10.0
347.09885	20.0
349.11212	20.0
365.11386	40.0
367.1254	50.0
391.30023	50.0
409.13483	160.0
410.13959	10.0
427.14508	30.0
439.32007	10.0
457.33249	40.0
469.15701	950.0
470.15927	100.0
471.3111	10.0
519.33636	20.0
541.17841	150.0
542.17975	20.0
559.19434	20.0
635.38483	20.0
663.38147	20.0
681.38739	610.0
682.39166	120.0
1047.54858	20.0
1133.547	30.0
1134.53711	10.0
1223.57544	1000.0
1224.57751	410.0
1225.5863	60.0

NAME:  NCGC00381039-01_C22H25NO8_8-Benzoyl-2-[(3Z)-1,2-dihydroxy-3-hexen-1-yl]-9-hydroxy-8-methoxy-3-methyl-1-oxa-7-azaspiro[4.4]non-2-ene-4,6-dione
PRECURSORMZ:  430.15074031683
PRECURSORTYPE:  [M-H]-
FORMULA:  C22H25NO8
Ontology: ;;;
INCHIKEY:  SLYDIPAXCVVRNY-UHFFFAOYNA-N
SMILES:  CCC=CC(O)C(O)C1=C(C)C(=O)C2(O1)C(O)C(OC)(N=C2O)C(=O)C1=CC=CC=C1
RETENTIONTIME:  
CCS:  222.3728907
IONMODE:  Negative
INSTRUMENTTYPE:  
INSTRUMENT:  Maxis II HD Q-TOF Bruker
COLLISIONENERGY:  
Comment:  DB#=CCMSLIB00000849992; origin=GNPS
Num Peaks:  30
104.04993	220.0
139.04193	540.0
145.0258	160.0
148.04071	160.0
156.08247	200.0
158.06181	200.0
159.065	460.0
160.04346	250.0
165.03773	130.0
176.04041	310.0
179.0697	210.0
183.0775	130.0
184.0387	100.0
188.11157	170.0
190.04443	250.0
197.04781	240.0
200.03258	250.0
200.06741	580.0
223.10043	160.0
226.06203	180.0
226.10429	200.0
227.05678	160.0
228.05548	140.0
230.08136	160.0
242.08517	450.0
252.06557	160.0
254.08875	420.0
270.07764	260.0
330.20773	140.0
1390.09937	1000.0

NAME:  NCGC00381007-01_C21H23NO8_(5S,8S,9R)-8-Benzoyl-2-[(1S,2S,3Z)-1,2-dihydroxy-3-hexen-1-yl]-8,9-dihydroxy-3-methyl-1-oxa-7-azaspiro[4.4]non-2-ene-4,6-dione
PRECURSORMZ:  416.13509025283
PRECURSORTYPE:  [M-H]-
FORMULA:  C21H23NO8
Ontology: ;;;
INCHIKEY:  BCXXBFMWUYYHIF-UHFFFAOYNA-N
SMILES:  CCC=CC(O)C(O)C1=C(C)C(=O)C2(O1)C(O)C(O)(N=C2O)C(=O)C1=CC=CC=C1
RETENTIONTIME:  
CCS:  214.2747911
IONMODE:  Negative
INSTRUMENTTYPE:  
INSTRUMENT:  Maxis II HD Q-TOF Bruker
COLLISIONENERGY:  
Comment:  DB#=CCMSLIB00000851272; origin=GNPS
Num Peaks:  17
119.05106	80.0
122.03658	70.0
130.04196	50.0
133.02716	80.0
137.02559	100.0
149.01976	60.0
153.01761	210.0
157.03069	60.0
163.04144	1000.0
167.03291	60.0
167.05215	110.0
173.02509	150.0
175.03412	70.0
253.0439	80.0
271.06516	80.0
369.21082	40.0
1499.42017	10.0

NAME:  NCGC00380533-01_C16H18O10_
PRECURSORMZ:  415.08819932783
PRECURSORTYPE:  [M+FA-H]-
FORMULA:  C16H18O10
Ontology: ;;;
INCHIKEY:  YJSHRIGISKAHBT-UHFFFAOYNA-N
SMILES:  OCC1OC(OC2=CC3=C(OCO3)C=C2C=CC(O)=O)C(O)C(O)C1O
RETENTIONTIME:  
CCS:  -1
IONMODE:  Negative
INSTRUMENTTYPE:  
INSTRUMENT:  Maxis II HD Q-TOF Bruker
COLLISIONENERGY:  
Comment:  DB#=CCMSLIB00000850199; origin=GNPS
Num Peaks:  10
76.83674	20.0
101.832	20.0
106.04559	10.0
134.03629	110.0
135.04379	80.0
163.04147	290.0
206.95743	20.0
207.02975	1000.0
369.07922	60.0
371.08926	20.0

NAME:  NCGC00380938-01_C21H34O11_6-O-Pentopyranosyl-1-O-[(2,6,6-trimethyl-1-cyclohexen-1-yl)carbonyl]-beta-D-glucopyranose
PRECURSORMZ:  461.20283546283
PRECURSORTYPE:  [M-H]-
FORMULA:  C21H34O11
Ontology: ;;;
INCHIKEY:  JGMROMZJBQKIDK-UHFFFAOYNA-N
SMILES:  CC1=C(C(=O)OC2OC(COC3OCC(O)C(O)C3O)C(O)C(O)C2O)C(C)(C)CCC1
RETENTIONTIME:  
CCS:  219.6090993
IONMODE:  Negative
INSTRUMENTTYPE:  
INSTRUMENT:  Maxis II HD Q-TOF Bruker
COLLISIONENERGY:  
Comment:  DB#=CCMSLIB00000850463; origin=GNPS
Num Peaks:  7
86.72147	30.0
125.02368	80.0
149.04858	60.0
161.04272	40.0
167.10695	1000.0
293.08405	170.0
461.21078	50.0

NAME:  NCGC00385641-01_C53H84O24_beta-D-Glucopyranose, O-beta-D-glucopyranosyl-(1->3)-O-[beta-D-glucopyranosyl-(1->6)]-1-O-[(3beta,5xi,9xi)-23-hydroxy-23,28-dioxo-3-(beta-D-xylopyranosyloxy)olean-12-en-28-yl]-
PRECURSORMZ:  1103.52797713283
PRECURSORTYPE:  [M-H]-
FORMULA:  C53H84O24
Ontology: ;;;
INCHIKEY:  AQOMLMMSAVDODV-UHFFFAOYNA-N
SMILES:  CC1(C)CCC2(CCC3(C)C(=CCC4C5(C)CCC(OC6OCC(O)C(O)C6O)C(C)(C5CCC34C)C(O)=O)C2C1)C(=O)OC1OC(COC2OC(CO)C(O)C(O)C2O)C(O)C(OC2OC(CO)C(O)C(O)C2O)C1O
RETENTIONTIME:  
CCS:  -1
IONMODE:  Negative
INSTRUMENTTYPE:  
INSTRUMENT:  Maxis II HD Q-TOF Bruker
COLLISIONENERGY:  
Comment:  DB#=CCMSLIB00000849212; origin=GNPS
Num Peaks:  15
161.04797	20.0
179.05782	20.0
221.06714	10.0
305.08749	40.0
323.1004	10.0
423.32935	20.0
485.1535	120.0
617.37238	490.0
618.37775	30.0
701.39368	40.0
923.46887	120.0
924.46252	10.0
1103.52954	1000.0
1104.02307	80.0
1104.53394	130.0

NAME:  NCGC00180624-03_C25H30O13_2-Propenoic acid, 3-(3-hydroxy-4-methoxyphenyl)-, (1aS,1bS,2S,5aR,6S,6aS)-2-(beta-D-glucopyranosyloxy)-1a,1b,2,5a,6,6a-hexahydro-1a-(hydroxymethyl)oxireno[4,5]cyclopenta[1,2-c]pyran-6-yl ester, (2E)-
PRECURSORMZ:  583.16684357383
PRECURSORTYPE:  [M+FA-H]-
FORMULA:  C25H30O13
Ontology: ;;;
INCHIKEY:  LRHHPZILMPIMIY-UHFFFAOYNA-N
SMILES:  COC1=C(O)C=C(C=CC(=O)OC2C3OC3(CO)C3C2C=COC3OC2OC(CO)C(O)C(O)C2O)C=C1
RETENTIONTIME:  
CCS:  -1
IONMODE:  Negative
INSTRUMENTTYPE:  
INSTRUMENT:  Maxis II HD Q-TOF Bruker
COLLISIONENERGY:  
Comment:  DB#=CCMSLIB00000850526; origin=GNPS
Num Peaks:  25
134.03621	60.0
135.04994	20.0
137.02507	20.0
145.02858	20.0
149.06076	20.0
151.04292	30.0
160.01698	40.0
162.03143	10.0
163.04037	40.0
175.04123	30.0
178.02403	20.0
181.05133	30.0
192.04378	10.0
193.04984	270.0
199.07193	10.0
202.06694	20.0
215.07402	10.0
218.05595	30.0
246.05237	20.0
261.07709	1000.0
311.09775	10.0
345.09937	20.0
357.11365	10.0
375.10898	100.0
537.16125	230.0

NAME:  NCGC00381053-01_C31H44O12_beta-D-Glucopyranoside, 5-(4-hydroxyphenyl)-1-[2-(4-hydroxyphenyl)ethyl]pentyl 6-O-(6-deoxy-alpha-L-mannopyranosyl)-
PRECURSORMZ:  607.27600040483
PRECURSORTYPE:  [M-H]-
FORMULA:  C31H44O12
Ontology: ;;;
INCHIKEY:  JYQIWENZJDPRSV-UHFFFAOYNA-N
SMILES:  CC1OC(OCC2OC(OC(CCCCC3=CC=C(O)C=C3)CCC3=CC=C(O)C=C3)C(O)C(O)C2O)C(O)C(O)C1O
RETENTIONTIME:  
CCS:  -1
IONMODE:  Negative
INSTRUMENTTYPE:  
INSTRUMENT:  Maxis II HD Q-TOF Bruker
COLLISIONENERGY:  
Comment:  DB#=CCMSLIB00000849707; origin=GNPS
Num Peaks:  10
101.02432	10.0
113.02048	20.0
143.0396	10.0
145.05243	20.0
205.06529	10.0
287.6828	10.0
299.16614	320.0
443.21301	10.0
461.21603	320.0
607.27673	1000.0

NAME:  NCGC00169814-02_C19H28O10_Benzyl 6-O-(6-deoxy-alpha-L-mannopyranosyl)-beta-D-glucopyranoside
PRECURSORMZ:  461.16644964983
PRECURSORTYPE:  [M+FA-H]-
FORMULA:  C19H28O10
Ontology: ;;;
INCHIKEY:  SMUMBCREXHTKFN-UHFFFAOYNA-N
SMILES:  CC1OC(OCC2OC(OCC3=CC=CC=C3)C(O)C(O)C2O)C(O)C(O)C1O
RETENTIONTIME:  
CCS:  -1
IONMODE:  Negative
INSTRUMENTTYPE:  
INSTRUMENT:  Maxis II HD Q-TOF Bruker
COLLISIONENERGY:  
Comment:  DB#=CCMSLIB00000850176; origin=GNPS
Num Peaks:  15
85.0275	10.0
101.02142	20.0
113.02583	10.0
125.02357	20.0
143.03438	30.0
159.03406	20.0
161.04436	220.0
163.05844	20.0
205.03531	10.0
229.071	30.0
247.08095	40.0
269.10223	830.0
307.10239	10.0
415.16129	1000.0
461.17041	40.0

NAME:  Pesticide3_Novaluron_C17H9ClF8N2O4_N-({3-Chloro-4-[1,1,2-trifluoro-2-(trifluoromethoxy)ethoxy]phenyl}carbamoyl)-2,6-difluorobenzamide
PRECURSORMZ:  526.9817110599
PRECURSORTYPE:  [M+Cl]-
FORMULA:  C17H9ClF8N2O4
Ontology: Kingdom: Organic compounds;Superclass: Benzenoids;Class: Phenol ethers;
INCHIKEY:  NJPPVKZQTLUDBO-UHFFFAOYNA-N
SMILES:  OC(N=C(O)C1=C(F)C=CC=C1F)=NC1=CC(Cl)=C(OC(F)(F)C(F)OC(F)(F)F)C=C1
RETENTIONTIME:  
CCS:  -1
IONMODE:  Negative
INSTRUMENTTYPE:  
INSTRUMENT:  Maxis HD qTOF
COLLISIONENERGY:  
Comment:  DB#=CCMSLIB00001058297; origin=GNPS
Num Peaks:  26
84.99093	30.0
113.01883	60.0
141.00836	30.0
156.02412	160.0
162.97835	50.0
167.99049	30.0
197.47672	10.0
201.9993	20.0
226.48447	10.0
231.19157	20.0
259.16852	20.0
305.01324	360.0
307.00781	20.0
307.99252	150.0
332.98566	90.0
334.99664	20.0
343.00311	20.0
351.98535	30.0
353.98352	20.0
406.99207	30.0
427.9949	50.0
450.99283	10.0
455.02969	20.0
458.97827	10.0
471.00082	1000.0
491.00565	220.0

NAME:  NCGC00347583-02_C20H26O4_15-Hydroxy-7-oxoabieta-8(14),9(11),12-trien-18-oic acid
PRECURSORMZ:  329.17583286483
PRECURSORTYPE:  [M-H]-
FORMULA:  C20H26O4
Ontology: ;;;
INCHIKEY:  MXPXAZNVQUWDFH-UHFFFAOYNA-N
SMILES:  CC(C)(O)C1=CC2=C(C=C1)C1(C)CCCC(C)(C1CC2=O)C(O)=O
RETENTIONTIME:  
CCS:  189.3550893
IONMODE:  Negative
INSTRUMENTTYPE:  
INSTRUMENT:  Maxis II HD Q-TOF Bruker
COLLISIONENERGY:  
Comment:  DB#=CCMSLIB00000851458; origin=GNPS
Num Peaks:  9
131.05211	40.0
170.06912	100.0
188.0826	40.0
213.49948	50.0
227.14545	100.0
267.19864	60.0
329.1767	1000.0
332.14105	40.0
332.45612	50.0

NAME:  NCGC00380739-01_C18H22O11_1H-2,6-Dioxacyclopent[cd]inden-1-one, 4-[(acetyloxy)methyl]-5-(beta-D-glucopyranosyloxy)-2a,4a,5,7b-tetrahydro-, (2aS,4aS,5S,7bS)-
PRECURSORMZ:  459.11441407583
PRECURSORTYPE:  [M+FA-H]-
FORMULA:  C18H22O11
Ontology: ;;;
INCHIKEY:  IBIPGYWNOBGEMH-UHFFFAOYNA-N
SMILES:  CC(=O)OCC1=CC2OC(=O)C3=COC(OC4OC(CO)C(O)C(O)C4O)C1C23
RETENTIONTIME:  
CCS:  -1
IONMODE:  Negative
INSTRUMENTTYPE:  
INSTRUMENT:  Maxis II HD Q-TOF Bruker
COLLISIONENERGY:  
Comment:  DB#=CCMSLIB00000850249; origin=GNPS
Num Peaks:  18
80.36147	20.0
87.92832	20.0
119.04729	30.0
121.02794	30.0
146.77502	20.0
146.85834	20.0
147.04434	1000.0
151.38145	10.0
161.06366	40.0
163.04814	40.0
173.03381	10.0
189.05716	30.0
191.0363	50.0
233.04744	50.0
251.05289	10.0
413.10977	170.0
459.09824	30.0
459.14404	10.0

NAME:  Pesticide3_Novaluron_C17H9ClF8N2O4_N-({3-Chloro-4-[1,1,2-trifluoro-2-(trifluoromethoxy)ethoxy]phenyl}carbamoyl)-2,6-difluorobenzamide
PRECURSORMZ:  472.99446866783
PRECURSORTYPE:  [M-H2O-H]-
FORMULA:  C17H9ClF8N2O4
Ontology: ;;;
INCHIKEY:  NJPPVKZQTLUDBO-UHFFFAOYNA-N
SMILES:  OC(N=C(O)C1=C(F)C=CC=C1F)=NC1=CC(Cl)=C(OC(F)(F)C(F)OC(F)(F)F)C=C1
RETENTIONTIME:  
CCS:  -1
IONMODE:  Negative
INSTRUMENTTYPE:  
INSTRUMENT:  Q-Exactive Plus Orbitrap Res 70k
COLLISIONENERGY:  
Comment:  DB#=CCMSLIB00001058278; origin=GNPS
Num Peaks:  24
132.97968	20.0
138.92842	20.0
146.93892	30.0
146.98807	150.0
205.16011	160.0
211.03209	10.0
239.02647	20.0
267.02176	50.0
268.88654	30.0
275.00302	20.0
276.99045	20.0
278.91568	10.0
284.98773	80.0
302.99847	1000.0
304.99442	20.0
324.99185	10.0
328.98367	30.0
352.98465	10.0
364.9838	20.0
392.97873	20.0
452.9884	220.0
457.25226	40.0
472.99518	70.0
473.28262	800.0

NAME:  NCGC00169648-02_C17H20O9_5-Benzofuranpropanoic acid, 6-(beta-D-glucopyranosyloxy)-
PRECURSORMZ:  413.10893477183
PRECURSORTYPE:  [M+FA-H]-
FORMULA:  C17H20O9
Ontology: ;;;
INCHIKEY:  OHMWGMHIZWOKHV-UHFFFAOYNA-N
SMILES:  OCC1OC(OC2=C(CCC(O)=O)C=C3C=COC3=C2)C(O)C(O)C1O
RETENTIONTIME:  
CCS:  -1
IONMODE:  Negative
INSTRUMENTTYPE:  
INSTRUMENT:  Maxis II HD Q-TOF Bruker
COLLISIONENERGY:  
Comment:  DB#=CCMSLIB00000850025; origin=GNPS
Num Peaks:  4
161.05927	230.0
187.04141	60.0
205.04968	1000.0
367.10229	310.0

NAME:  Pesticide5_Ethiprole_C13H9Cl2F3N4OS_1H-Pyrazole-3-carbonitrile, 5-amino-1-[2,6-dichloro-4-(trifluoromethyl)phenyl]-4-(ethylsulfinyl)-
PRECURSORMZ:  430.9520232599
PRECURSORTYPE:  [M+Cl]-
FORMULA:  C13H9Cl2F3N4OS
Ontology: ;;;
INCHIKEY:  FNELVJVBIYMIMC-UHFFFAOYNA-N
SMILES:  CCS(=O)C1=C(N)N(N=C1C#N)C1=C(Cl)C=C(C=C1Cl)C(F)(F)F
RETENTIONTIME:  
CCS:  -1
IONMODE:  Negative
INSTRUMENTTYPE:  
INSTRUMENT:  Q-Exactive Plus Orbitrap Res 70k
COLLISIONENERGY:  
Comment:  DB#=CCMSLIB00001058444; origin=GNPS
Num Peaks:  48
120.93965	10.0
146.96146	40.0
148.95726	30.0
150.00386	10.0
164.92766	20.0
170.01013	230.0
174.95621	130.0
182.01007	20.0
183.01799	170.0
217.98701	90.0
218.9949	30.0
228.98982	20.0
233.98201	50.0
238.89777	30.0
243.98961	60.0
246.98938	30.0
246.99927	30.0
249.95874	560.0
250.89746	80.0
261.95853	70.0
264.98984	10.0
267.00513	20.0
267.98969	30.0
277.95392	220.0
278.98648	20.0
281.99268	30.0
283.00073	20.0
287.96265	30.0
294.88794	60.0
302.98703	30.0
303.95761	20.0
306.98215	20.0
310.99539	20.0
313.96484	210.0
317.96951	100.0
329.96085	820.0
330.96802	1000.0
330.98373	30.0
331.00229	20.0
340.98431	20.0
350.98755	50.0
358.99893	60.0
370.99289	30.0
390.98047	80.0
391.00027	30.0
394.97586	50.0
410.98767	30.0
430.99512	40.0

NAME:  NCGC00169655-02_C21H30O12_4-Allyl-2-(beta-D-glucopyranosyloxy)phenyl beta-D-glucopyranoside
PRECURSORMZ:  473.16644995383
PRECURSORTYPE:  [M-H]-
FORMULA:  C21H30O12
Ontology: ;;;
INCHIKEY:  SFQLDKSMEHBZRN-UHFFFAOYNA-N
SMILES:  OCC1OC(OC2=C(OC3OC(CO)C(O)C(O)C3O)C=C(CC=C)C=C2)C(O)C(O)C1O
RETENTIONTIME:  
CCS:  210.6531738
IONMODE:  Negative
INSTRUMENTTYPE:  
INSTRUMENT:  Maxis II HD Q-TOF Bruker
COLLISIONENERGY:  
Comment:  DB#=CCMSLIB00000849341; origin=GNPS
Num Peaks:  9
88.39024	20.0
143.04736	20.0
148.05553	20.0
148.38853	10.0
148.50285	20.0
149.06024	1000.0
149.56258	20.0
245.06932	10.0
323.10052	50.0

NAME:  NCGC00025342-07_C27H33NO4_(2R,4bS,6aS,12bS,12cR,14aS)-4b-Hydroxy-2-(2-hydroxy-2-propanyl)-12b,12c-dimethyl-5,6,6a,7,12,12b,12c,13,14,14a-decahydro-2H-chromeno[5',6':6,7]indeno[1,2-b]indol-3(4bH)-one
PRECURSORMZ:  480.23916109483
PRECURSORTYPE:  [M+FA-H]-
FORMULA:  C27H33NO4
Ontology: ;;;
INCHIKEY:  ACNHBCIZLNNLRS-UHFFFAOYNA-N
SMILES:  CC(C)(O)C1OC2CCC3(C)C4(C)C(CC5=C4NC4=CC=CC=C54)CCC3(O)C2=CC1=O
RETENTIONTIME:  
CCS:  -1
IONMODE:  Negative
INSTRUMENTTYPE:  
INSTRUMENT:  Maxis II HD Q-TOF Bruker
COLLISIONENERGY:  
Comment:  DB#=CCMSLIB00000850160; origin=GNPS
Num Peaks:  3
358.18149	50.0
376.19266	310.0
434.23447	1000.0

NAME:  NCGC00380820-01_C19H24O7_1H-2-Benzoxacyclotetradecin-1,7(8H)-dione, 3,4,5,6,9,10-hexahydro-8,9,16-trihydroxy-14-methoxy-3-methyl-, (3S,8S,9R,11E)-
PRECURSORMZ:  363.14492666083
PRECURSORTYPE:  [M-H]-
FORMULA:  C19H24O7
Ontology: ;;;
INCHIKEY:  WFIUAGOQGGAREU-UHFFFAOYNA-N
SMILES:  COC1=CC(O)=C2C(=C1)C=CCC(O)C(O)C(=O)CCCC(C)OC2=O
RETENTIONTIME:  
CCS:  199.2975102
IONMODE:  Negative
INSTRUMENTTYPE:  
INSTRUMENT:  Maxis II HD Q-TOF Bruker
COLLISIONENERGY:  
Comment:  DB#=CCMSLIB00000849896; origin=GNPS
Num Peaks:  13
147.04619	140.0
163.07516	140.0
174.03201	550.0
177.09261	70.0
189.05518	1000.0
231.09776	170.0
235.0612	170.0
247.05412	190.0
282.98297	110.0
325.00174	70.0
345.12799	90.0
363.14755	700.0
376.56625	70.0

NAME:  NCGC00347719-02_C32H46O10_1H-Benz[e]indene-6,7-diacetic acid, 3-[(3E)-5-(acetyloxy)-1-hydroxy-1,5-dimethyl-2-oxo-3-hexen-1-yl]-2,3,3a,4,5,5a,6,9,9a,9b-decahydro-2-hydroxy-alpha~7~,alpha~7~,3a,5a,9b-pentamethyl-5-oxo-
PRECURSORMZ:  589.30182122883
PRECURSORTYPE:  [M-H]-
FORMULA:  C32H46O10
Ontology: ;;;
INCHIKEY:  AEGZYCGXUREGSM-UHFFFAOYNA-N
SMILES:  CC(=O)OC(C)(C)C=CC(=O)C(C)(O)C1C(O)CC2(C)C3CC=C(C(CC(O)=O)C3(C)C(=O)CC12C)C(C)(C)C(O)=O
RETENTIONTIME:  
CCS:  -1
IONMODE:  Negative
INSTRUMENTTYPE:  
INSTRUMENT:  Maxis II HD Q-TOF Bruker
COLLISIONENERGY:  
Comment:  DB#=CCMSLIB00000849746; origin=GNPS
Num Peaks:  29
120.05836	60.0
135.08154	1000.0
138.06825	10.0
149.09496	10.0
153.09142	30.0
169.08572	10.0
177.09048	20.0
213.11205	50.0
245.11446	20.0
287.20303	20.0
313.18002	20.0
331.19342	240.0
355.23224	10.0
373.20032	20.0
391.21295	30.0
398.2085	10.0
423.29166	20.0
425.2753	10.0
441.29529	20.0
443.28839	10.0
467.28024	80.0
485.2915	130.0
509.29382	90.0
527.30304	60.0
544.30151	30.0
545.30994	40.0
588.29193	30.0
589.30231	680.0
590.31787	10.0

NAME:  NCGC00380772-01_C60H96O28_
PRECURSORMZ:  1263.60153599883
PRECURSORTYPE:  [M-H]-
FORMULA:  C60H96O28
Ontology: ;;;
INCHIKEY:  FXTXPMZATQSMSG-UHFFFAOYNA-N
SMILES:  CC1OC(OC2C(O)C(O)C(OCC3OC(OC(=O)C45CCC(C)(C)CC4C4=CCC6C7(C)CCC(OC8OC(C(O)C(OC9OC(CO)C(O)C(O)C9O)C8O)C(O)=O)C(C)(C)C7CCC6(C)C4(C)CC5)C(O)C(O)C3O)OC2CO)C(O)C(O)C1O
RETENTIONTIME:  
CCS:  -1
IONMODE:  Negative
INSTRUMENTTYPE:  
INSTRUMENT:  Maxis II HD Q-TOF Bruker
COLLISIONENERGY:  
Comment:  DB#=CCMSLIB00000851376; origin=GNPS
Num Peaks:  3
1263.60437	1000.0
1264.60693	270.0
1265.61755	30.0

NAME:  NCGC00381043-01_C21H28O13_Hexopyranose, 2-O-hexopyranosyl-6-O-[(2E)-3-(4-hydroxyphenyl)-1-oxo-2-propen-1-yl]-
PRECURSORMZ:  487.14571450983
PRECURSORTYPE:  [M-H]-
FORMULA:  C21H28O13
Ontology: ;;;
INCHIKEY:  ZPHQZULZLQMWGY-UHFFFAOYNA-N
SMILES:  OCC1OC(OC2C(O)OC(COC(=O)C=CC3=CC=C(O)C=C3)C(O)C2O)C(O)C(O)C1O
RETENTIONTIME:  
CCS:  -1
IONMODE:  Negative
INSTRUMENTTYPE:  
INSTRUMENT:  Maxis II HD Q-TOF Bruker
COLLISIONENERGY:  
Comment:  DB#=CCMSLIB00000850843; origin=GNPS
Num Peaks:  21
82.43915	20.0
85.02926	30.0
95.01511	30.0
113.02444	360.0
119.04948	30.0
123.60364	20.0
124.71284	20.0
143.2769	10.0
145.03029	240.0
161.0527	190.0
163.04091	400.0
169.01062	10.0
177.05566	10.0
179.04974	10.0
205.04965	370.0
217.05038	40.0
235.06055	370.0
263.62866	20.0
265.07214	1000.0
325.0939	410.0
970.03955	20.0

NAME:  NCGC00381009-01_C24H30O12_Cyclopenta[c]pyran-4-carboxylic acid, 1-(beta-D-glucopyranosyloxy)-1,4a,5,6,7,7a-hexahydro-4a-hydroxy-7-methyl-5-oxo-, 2-(4-hydroxyphenyl)ethyl ester, (1S,4aR,7aR)-
PRECURSORMZ:  509.16644995383
PRECURSORTYPE:  [M-H]-
FORMULA:  C24H30O12
Ontology: ;;;
INCHIKEY:  KBDOXLBZVFQTMH-UHFFFAOYNA-N
SMILES:  CC1CC(=O)C2(O)C1C(OC1OC(CO)C(O)C(O)C1O)OC=C2C(=O)OCCC1=CC=C(O)C=C1
RETENTIONTIME:  
CCS:  -1
IONMODE:  Negative
INSTRUMENTTYPE:  
INSTRUMENT:  Maxis II HD Q-TOF Bruker
COLLISIONENERGY:  
Comment:  DB#=CCMSLIB00000849731; origin=GNPS
Num Peaks:  25
95.05039	50.0
101.02136	10.0
111.00621	30.0
111.08234	10.0
113.02375	150.0
121.03077	30.0
137.0623	20.0
139.00366	400.0
139.03906	70.0
147.04655	10.0
149.02823	10.0
157.01598	10.0
165.05449	150.0
166.05952	10.0
183.06313	20.0
207.06676	190.0
209.04602	190.0
227.0527	30.0
233.08163	310.0
329.10568	20.0
347.11441	1000.0
349.71005	10.0
389.10666	40.0
389.13992	10.0
509.16467	100.0

NAME:  NCGC00380182-01_C19H24O5_(1R,2R,5R,8R,9S,10R,12S)-12-Hydroxy-11-methyl-6-methylene-16-oxo-15-oxapentacyclo[9.3.2.1~5,8~.0~1,10~.0~2,8~]heptadecane-9-carboxylic acid
PRECURSORMZ:  377.16057642083
PRECURSORTYPE:  [M+FA-H]-
FORMULA:  C19H24O5
Ontology: ;;;
INCHIKEY:  RSQSQJNRHICNNH-UHFFFAOYNA-N
SMILES:  [H]C12CC3(CC1=C)C(CC2)C12CCC(O)C(C)(C1C3C(O)=O)C(=O)O2
RETENTIONTIME:  
CCS:  -1
IONMODE:  Negative
INSTRUMENTTYPE:  
INSTRUMENT:  Maxis II HD Q-TOF Bruker
COLLISIONENERGY:  
Comment:  DB#=CCMSLIB00000850510; origin=GNPS
Num Peaks:  11
171.92937	30.0
182.74161	20.0
213.12044	10.0
225.17293	10.0
239.14786	10.0
244.17682	10.0
257.12024	60.0
269.15451	10.0
287.15717	10.0
313.14655	20.0
331.15454	1000.0

NAME:  NCGC00381091-01_C20H24O4_1,7-Bis(4-hydroxyphenyl)-5-methoxy-3-heptanone
PRECURSORMZ:  327.16018280083
PRECURSORTYPE:  [M-H]-
FORMULA:  C20H24O4
Ontology: ;;;
INCHIKEY:  PASZRDILCDRSOZ-UHFFFAOYNA-N
SMILES:  COC(CCC1=CC=C(O)C=C1)CC(=O)CCC1=CC=C(O)C=C1
RETENTIONTIME:  
CCS:  194.8492424
IONMODE:  Negative
INSTRUMENTTYPE:  
INSTRUMENT:  Maxis II HD Q-TOF Bruker
COLLISIONENERGY:  
Comment:  DB#=CCMSLIB00000849224; origin=GNPS
Num Peaks:  9
83.05101	80.0
93.03288	410.0
114.63992	190.0
119.04791	130.0
189.09174	860.0
221.11749	1000.0
221.15393	130.0
261.00214	100.0
327.15668	660.0

NAME:  NCGC00180812-03_C26H28O9_1H,3H-Oxireno[c]pyrano[4'',3'':2',3']furo[3',4':5,6]naphtho[1,2-d]pyran-3,8,10(6H,9aH)-trione, 12-(3-furanyl)-4,4a,8a,12,12a,13,14,14a-octahydro-7-hydroxy-6,6,8a,12a-tetramethyl-, (4aS,8aR,8bR,9aS,12S,12aS,14bR)-
PRECURSORMZ:  529.17153502983
PRECURSORTYPE:  [M+FA-H]-
FORMULA:  C26H28O9
Ontology: ;;;
INCHIKEY:  SNGHLUWTFLYPMT-UHFFFAOYNA-N
SMILES:  CC1(C)OC2CC(=O)OCC22C3CCC4(C)C(OC(=O)C5OC45C3(C)C(=O)C(O)=C12)C1=COC=C1
RETENTIONTIME:  
CCS:  -1
IONMODE:  Negative
INSTRUMENTTYPE:  
INSTRUMENT:  Maxis II HD Q-TOF Bruker
COLLISIONENERGY:  
Comment:  DB#=CCMSLIB00000849674; origin=GNPS
Num Peaks:  37
133.06879	20.0
135.04881	10.0
147.07709	10.0
149.062	10.0
155.06943	10.0
161.06157	140.0
163.03806	30.0
187.15956	10.0
199.07823	10.0
221.13678	10.0
231.10751	10.0
237.16307	10.0
241.09055	10.0
248.71631	20.0
259.09824	70.0
263.13956	10.0
295.13397	20.0
297.14258	10.0
315.16434	10.0
333.15411	10.0
359.16956	10.0
377.12271	10.0
377.17657	30.0
393.16132	10.0
395.14648	170.0
397.1608	30.0
403.15756	10.0
417.65076	20.0
421.16678	1000.0
422.17438	10.0
423.14474	130.0
424.15863	20.0
426.36481	10.0
439.21323	10.0
465.15231	20.0
469.00302	10.0
483.1709	160.0

NAME:  NCGC00381183-01_C26H31N3O4_
PRECURSORMZ:  448.22418003783
PRECURSORTYPE:  [M-H]-
FORMULA:  C26H31N3O4
Ontology: ;;;
INCHIKEY:  MTVNXTIKSNTFEN-UHFFFAOYNA-N
SMILES:  CC(C)(C=C)C1(CC2N=C(O)C3CCCN3C2=O)C(O)=NC2=CC3=C(C=CC(C)(C)O3)C=C12
RETENTIONTIME:  
CCS:  -1
IONMODE:  Negative
INSTRUMENTTYPE:  
INSTRUMENT:  Maxis II HD Q-TOF Bruker
COLLISIONENERGY:  
Comment:  DB#=CCMSLIB00000851244; origin=GNPS
Num Peaks:  24
85.18282	20.0
138.04453	50.0
150.04944	60.0
151.0479	60.0
152.05959	500.0
153.06624	30.0
165.06744	320.0
167.04686	490.0
171.09821	20.0
192.10603	20.0
210.05394	20.0
211.05957	20.0
213.08012	320.0
215.38611	40.0
215.9812	30.0
226.08682	1000.0
227.10559	150.0
282.15512	240.0
294.14764	40.0
333.14542	40.0
379.15182	540.0
448.22653	680.0
448.28244	30.0
1814.6001	20.0

NAME:  NCGC00381152-01_C26H34O7_8,12-Methanocycloocta[3,4]benz[1,2-c]oxepin-8(5H)-carboxylic acid, 3,5a,6,7,7a,9,10,11,12,13,13a,13b-dodecahydro-10-hydroxy-5,5,7a,10,12,13b-hexamethyl-14-methylene-3,9,11-trioxo-, methyl ester
PRECURSORMZ:  503.22865598283
PRECURSORTYPE:  [M+FA-H]-
FORMULA:  C26H34O7
Ontology: ;;;
INCHIKEY:  SGTJQTPUMKGFFZ-UHFFFAOYNA-N
SMILES:  COC(=O)C12C(=C)C(C)(CC3C4(C)C=CC(=O)OC(C)(C)C4CCC13C)C(=O)C(C)(O)C2=O
RETENTIONTIME:  
CCS:  -1
IONMODE:  Negative
INSTRUMENTTYPE:  
INSTRUMENT:  Maxis II HD Q-TOF Bruker
COLLISIONENERGY:  
Comment:  DB#=CCMSLIB00000851028; origin=GNPS
Num Peaks:  30
167.03023	30.0
174.06619	20.0
175.07425	30.0
180.03909	50.0
251.52542	20.0
267.00494	20.0
270.12207	20.0
311.20483	20.0
327.19812	50.0
339.19766	60.0
355.19577	90.0
356.99127	30.0
357.21353	30.0
359.2106	20.0
380.16983	40.0
381.20786	150.0
383.1929	90.0
384.47186	10.0
397.20193	80.0
399.18997	20.0
411.20483	20.0
413.233	20.0
415.21454	1000.0
416.19308	30.0
429.22473	20.0
435.77802	10.0
439.23392	40.0
456.6611	20.0
457.23276	210.0
503.11227	20.0

NAME:  NCGC00381210-01_C18H32O11_(2E)-4-Hydroxy-3,4-dimethyl-2-penten-1-yl 6-O-[(2S,3R,4R)-3,4-dihydroxy-4-(hydroxymethyl)tetrahydro-2-furanyl]-beta-D-glucopyranoside
PRECURSORMZ:  461.14306704576
PRECURSORTYPE:  [M+K-2H]-
FORMULA:  C18H32O11
Ontology: ;;;
INCHIKEY:  FEGXTMHRTZJSIG-UHFFFAOYNA-N
SMILES:  CC(=CCOC1OC(COC2OCC(O)(CO)C2O)C(O)C(O)C1O)C(C)(C)O
RETENTIONTIME:  
CCS:  -1
IONMODE:  Negative
INSTRUMENTTYPE:  
INSTRUMENT:  Maxis II HD Q-TOF Bruker
COLLISIONENERGY:  
Comment:  DB#=CCMSLIB00000850793; origin=GNPS
Num Peaks:  16
111.14403	60.0
153.01746	80.0
169.06619	30.0
180.05457	60.0
209.04497	60.0
223.01627	60.0
241.04877	70.0
269.04776	430.0
283.06174	240.0
284.07028	610.0
299.0928	1000.0
308.03198	110.0
341.08868	30.0
461.10699	20.0
461.13748	110.0
461.2338	50.0

NAME:  NCGC00169689-02_C48H78O19_beta-D-Glucopyranose, O-6-deoxy-alpha-L-mannopyranosyl-(1->4)-O-beta-D-glucopyranosyl-(1->6)-1-O-[(2alpha,3beta,5xi,9xi,18xi)-2,3,23-trihydroxy-28-oxours-12-en-28-yl]-
PRECURSORMZ:  1003.51193283983
PRECURSORTYPE:  [M+FA-H]-
FORMULA:  C48H78O19
Ontology: ;;;
INCHIKEY:  WYQVAPGDARQUBT-UHFFFAOYNA-N
SMILES:  CC1CCC2(CCC3(C)C(=CCC4C5(C)CC(O)C(O)C(C)(CO)C5CCC34C)C2C1C)C(=O)OC1OC(COC2OC(CO)C(OC3OC(C)C(O)C(O)C3O)C(O)C2O)C(O)C(O)C1O
RETENTIONTIME:  
CCS:  -1
IONMODE:  Negative
INSTRUMENTTYPE:  
INSTRUMENT:  Maxis II HD Q-TOF Bruker
COLLISIONENERGY:  
Comment:  DB#=CCMSLIB00000850547; origin=GNPS
Num Peaks:  18
101.02376	30.0
125.02341	20.0
143.03363	30.0
161.04457	80.0
163.06021	30.0
205.07121	40.0
221.06619	20.0
247.08147	80.0
265.09134	20.0
323.09802	30.0
367.12408	60.0
409.13501	30.0
469.15607	420.0
470.1593	40.0
487.3429	1000.0
488.34583	110.0
957.50763	150.0
958.5108	50.0

NAME:  Pesticide5_Clothianidin_C6H8ClN5O2S_[C(E)]-N-[(2-Chloro-5-thiazolyl)methyl]-N?-methyl-N?-nitroguanidine
PRECURSORMZ:  248.00144694783
PRECURSORTYPE:  [M-H]-
FORMULA:  C6H8ClN5O2S
Ontology: ;;;
INCHIKEY:  PGOOBECODWQEAB-UHFFFAOYSA-N
SMILES:  CN=C(NCC1=CN=C(Cl)S1)NN(=O)=O
RETENTIONTIME:  
CCS:  148.3460381
IONMODE:  Negative
INSTRUMENTTYPE:  
INSTRUMENT:  Q-Exactive Plus Orbitrap Res 70k
COLLISIONENERGY:  
Comment:  DB#=CCMSLIB00001058433; origin=GNPS
Num Peaks:  21
85.99924	30.0
92.02495	20.0
95.0248	140.0
111.00227	520.0
117.95242	140.0
119.03633	10.0
122.03606	90.0
132.0443	20.0
133.05211	20.0
135.99731	20.0
138.01309	30.0
139.0264	110.0
148.99303	30.0
150.00079	430.0
151.00824	140.0
165.02412	1000.0
166.03212	150.0
168.02383	110.0
195.02222	90.0
212.02518	70.0
248.00226	260.0

NAME:  NCGC00380210-01_C18H30O8_Cyclopentaneacetic acid, 3-(hexopyranosyloxy)-2-[(2Z)-2-penten-1-yl]-
PRECURSORMZ:  419.19227047383
PRECURSORTYPE:  [M+FA-H]-
FORMULA:  C18H30O8
Ontology: ;;;
INCHIKEY:  GJZJZRWFRZFTEE-UHFFFAOYNA-N
SMILES:  CCC=CCC1C(CC(O)=O)CCC1OC1OC(CO)C(O)C(O)C1O
RETENTIONTIME:  
CCS:  -1
IONMODE:  Negative
INSTRUMENTTYPE:  
INSTRUMENT:  Maxis II HD Q-TOF Bruker
COLLISIONENERGY:  
Comment:  DB#=CCMSLIB00000850814; origin=GNPS
Num Peaks:  4
180.06407	20.0
193.11719	50.0
211.13741	20.0
373.18637	1000.0

NAME:  NCGC00380700-01_C27H32O10_Methyl (2S)-[(5S,6S,10S,12S,13R,15S,19S)-6-(3-furyl)-15,18-dihydroxy-1,5,16-trimethyl-8,14-dioxo-7,11-dioxahexacyclo[14.2.1.0~2,12~.0~5,10~.0~10,12~.0~13,18~]nonadec-19-yl](hydroxy)acetate
PRECURSORMZ:  515.19227077783
PRECURSORTYPE:  [M-H]-
FORMULA:  C27H32O10
Ontology: ;;;
INCHIKEY:  SZIDPCXTWHHMAY-UHFFFAOYNA-N
SMILES:  COC(=O)C(O)C1C2(C)CC3(O)C(C(=O)C2O)C24OC22CC(=O)OC(C5=COC=C5)C2(C)CCC4C13C
RETENTIONTIME:  
CCS:  230.691772
IONMODE:  Negative
INSTRUMENTTYPE:  
INSTRUMENT:  Maxis II HD Q-TOF Bruker
COLLISIONENERGY:  
Comment:  DB#=CCMSLIB00000849623; origin=GNPS
Num Peaks:  69
109.02702	90.0
117.071	110.0
124.84576	70.0
134.15721	40.0
135.04613	100.0
135.80974	60.0
137.05847	1000.0
139.05499	90.0
139.2123	30.0
139.66177	50.0
151.03285	50.0
161.06064	80.0
163.03633	100.0
177.05273	110.0
179.07039	230.0
185.09274	90.0
189.05708	110.0
195.0638	100.0
205.05455	70.0
207.08205	130.0
209.08325	370.0
214.06595	70.0
237.0865	70.0
238.99124	80.0
245.0829	980.0
257.07672	80.0
268.09863	50.0
271.0925	80.0
287.12759	120.0
297.1192	130.0
299.09332	300.0
303.14084	70.0
309.10889	30.0
310.12204	70.0
315.11664	70.0
316.10046	80.0
320.02417	80.0
324.17245	60.0
334.13257	120.0
341.17151	80.0
347.11829	160.0
349.11096	60.0
353.14771	70.0
359.11432	130.0
364.17725	30.0
365.1395	40.0
367.16415	110.0
373.13177	50.0
376.15732	70.0
377.12537	30.0
395.15036	60.0
401.15286	50.0
404.12405	90.0
405.1767	60.0
419.15543	110.0
419.18842	80.0
423.15247	90.0
427.17801	90.0
437.15701	300.0
439.19452	60.0
455.17444	230.0
455.90231	60.0
465.16269	180.0
482.41055	40.0
483.16922	750.0
497.1778	50.0
512.30365	30.0
514.09045	30.0
515.19141	190.0

NAME:  NCGC00169662-02_C36H58O12_beta-D-Glucopyranose, 1-O-[(2alpha,3beta,5xi,6beta,9xi,18xi,19alpha)-2,3,6,19,23-pentahydroxy-28-oxoolean-12-en-28-yl]-
PRECURSORMZ:  727.39102985583
PRECURSORTYPE:  [M+FA-H]-
FORMULA:  C36H58O12
Ontology: ;;;
INCHIKEY:  BBPOLSMDPRNEHZ-UHFFFAOYNA-N
SMILES:  CC1(C)CCC2(CCC3(C)C(=CCC4C5(C)CC(O)C(O)C(C)(CO)C5C(O)CC34C)C2C1O)C(=O)OC1OC(CO)C(O)C(O)C1O
RETENTIONTIME:  
CCS:  -1
IONMODE:  Negative
INSTRUMENTTYPE:  
INSTRUMENT:  Maxis II HD Q-TOF Bruker
COLLISIONENERGY:  
Comment:  DB#=CCMSLIB00000850052; origin=GNPS
Num Peaks:  10
207.0466	10.0
391.29709	20.0
407.2962	20.0
423.29294	30.0
489.32675	10.0
519.3327	1000.0
520.33777	20.0
681.38812	20.0
727.39233	250.0
728.38843	20.0

NAME:  NCGC00169180-03_C17H24O11_Cyclopenta[c]pyran-4,7-dicarboxylic acid, 1-(beta-D-glucopyranosyloxy)-1,4a,5,6,7,7a-hexahydro-, 4-methyl ester, (1S,4aS,7S,7aS)-
PRECURSORMZ:  449.13006414083
PRECURSORTYPE:  [M+FA-H]-
FORMULA:  C17H24O11
Ontology: ;;;
INCHIKEY:  RLCWEUBIDIWNEA-UHFFFAOYNA-N
SMILES:  COC(=O)C1=COC(OC2OC(CO)C(O)C(O)C2O)C2C(CCC12)C(O)=O
RETENTIONTIME:  
CCS:  -1
IONMODE:  Negative
INSTRUMENTTYPE:  
INSTRUMENT:  Maxis II HD Q-TOF Bruker
COLLISIONENERGY:  
Comment:  DB#=CCMSLIB00000849859; origin=GNPS
Num Peaks:  12
95.7985	30.0
101.01776	70.0
127.03975	50.0
139.03629	150.0
147.04324	90.0
165.05301	90.0
179.06606	110.0
223.05096	80.0
241.07359	140.0
371.09641	120.0
403.12405	1000.0
410.68384	30.0

NAME:  NCGC00380761-01_C11H14N4O5_6H-Purin-6-one, 1,9-dihydro-9-(3-O-methylpentofuranosyl)-
PRECURSORMZ:  281.08914311483
PRECURSORTYPE:  [M-H]-
FORMULA:  C11H14N4O5
Ontology: ;;;
INCHIKEY:  ABXDBVMGRKZFRC-UHFFFAOYNA-N
SMILES:  COC1C(CO)OC(C1O)N1C=NC2=C1N=CN=C2O
RETENTIONTIME:  
CCS:  -1
IONMODE:  Negative
INSTRUMENTTYPE:  
INSTRUMENT:  Maxis II HD Q-TOF Bruker
COLLISIONENERGY:  
Comment:  DB#=CCMSLIB00000850394; origin=GNPS
Num Peaks:  5
71.87353	70.0
72.52159	40.0
135.03023	1000.0
279.08496	80.0
281.08768	580.0

NAME:  NCGC00381214-01_C21H30O12_beta-D-Glucopyranoside, 2-hydroxy-4-(2-propen-1-yl)phenyl 6-O-beta-D-glucopyranosyl-
PRECURSORMZ:  473.16644995383
PRECURSORTYPE:  [M-H]-
FORMULA:  C21H30O12
Ontology: ;;;
INCHIKEY:  JSQKCXPOJUGOCX-UHFFFAOYNA-N
SMILES:  OCC1OC(OCC2OC(OC3=C(O)C=C(CC=C)C=C3)C(O)C(O)C2O)C(O)C(O)C1O
RETENTIONTIME:  
CCS:  -1
IONMODE:  Negative
INSTRUMENTTYPE:  
INSTRUMENT:  Maxis II HD Q-TOF Bruker
COLLISIONENERGY:  
Comment:  DB#=CCMSLIB00000850802; origin=GNPS
Num Peaks:  9
129.32344	10.0
141.01726	10.0
148.05447	30.0
149.06049	1000.0
161.04491	20.0
179.05531	30.0
263.07733	20.0
323.09848	60.0
473.16788	60.0

NAME:  NCGC00163645-02_C20H28O4_3-{(E)-2-[(1R,4aS,5R,6R,8aR)-6-Hydroxy-5-(hydroxymethyl)-5,8a-dimethyl-2-methylenedecahydro-1-naphthalenyl]vinyl}-2(5H)-furanone
PRECURSORMZ:  377.19696192983
PRECURSORTYPE:  [M+FA-H]-
FORMULA:  C20H28O4
Ontology: ;;;
INCHIKEY:  XMJAJFVLHDIEHF-UHFFFAOYNA-N
SMILES:  CC1(CO)C(O)CCC2(C)C1CCC(=C)C2C=CC1=CCOC1=O
RETENTIONTIME:  
CCS:  -1
IONMODE:  Negative
INSTRUMENTTYPE:  
INSTRUMENT:  Maxis II HD Q-TOF Bruker
COLLISIONENERGY:  
Comment:  DB#=CCMSLIB00000851340; origin=GNPS
Num Peaks:  8
252.9881	20.0
292.98495	10.0
321.68741	10.0
331.09332	20.0
331.19171	1000.0
331.26959	10.0
332.19037	10.0
1450.79968	10.0

NAME:  NCGC00381333-01_C44H66O25_6-O-[(2E)-2-Methyl-2-butenoyl]-beta-D-glucopyranosyl-(1->2)-6-O-[(2E)-2-methyl-2-butenoyl]-alpha-D-glucopyranosyl 3-O-[(2E)-2-methyl-2-butenoyl]-beta-D-glucopyranosyl-(1->2)-6-O-[(2E)-2-methyl-2-butenoyl]-alpha-D-glucopyranoside
PRECURSORMZ:  1039.38752017283
PRECURSORTYPE:  [M+FA-H]-
FORMULA:  C44H66O25
Ontology: ;;;
INCHIKEY:  VAHODRXOSXNBRG-UHFFFAOYNA-N
SMILES:  CC=C(C)C(=O)OCC1OC(OC2C(O)C(O)C(COC(=O)C(C)=CC)OC2OC2OC(COC(=O)C(C)=CC)C(O)C(O)C2OC2OC(CO)C(O)C(OC(=O)C(C)=CC)C2O)C(O)C(O)C1O
RETENTIONTIME:  
CCS:  -1
IONMODE:  Negative
INSTRUMENTTYPE:  
INSTRUMENT:  Maxis II HD Q-TOF Bruker
COLLISIONENERGY:  
Comment:  DB#=CCMSLIB00000849770; origin=GNPS
Num Peaks:  139
85.03067	130.0
87.00849	40.0
89.02409	90.0
89.22044	30.0
95.01405	170.0
97.03706	70.0
97.22574	20.0
99.04556	1000.0
99.07286	60.0
101.02357	130.0
101.04549	40.0
102.95319	40.0
111.00622	100.0
112.98464	30.0
113.02441	530.0
113.05861	50.0
116.93607	30.0
119.03282	90.0
125.0227	160.0
131.0325	90.0
141.05534	170.0
143.03241	270.0
144.04343	50.0
149.04843	40.0
161.04729	400.0
162.00446	20.0
174.95923	30.0
179.05646	280.0
185.04771	30.0
192.04123	40.0
195.02933	30.0
201.07904	70.0
203.05621	110.0
212.94702	60.0
221.06789	270.0
222.06369	30.0
227.05548	90.0
227.99881	40.0
231.04639	30.0
243.09267	30.0
245.06085	70.0
247.06393	30.0
247.08737	30.0
263.08017	110.0
265.11346	70.0
269.06232	70.0
285.09113	20.0
287.57361	30.0
305.08798	240.0
307.09381	40.0
323.10107	120.0
324.10944	30.0
327.1088	20.0
341.13208	30.0
345.11859	60.0
347.09888	10.0
359.85498	30.0
371.37204	20.0
379.45901	30.0
383.10172	20.0
386.07254	40.0
387.13086	40.0
387.92679	30.0
391.0784	20.0
402.93524	20.0
405.14517	70.0
415.11774	50.0
418.15027	40.0
427.17706	20.0
435.10263	30.0
444.37418	20.0
447.14908	20.0
456.06488	50.0
463.24713	20.0
467.14145	180.0
485.10678	20.0
485.15765	140.0
488.07608	30.0
503.16852	20.0
505.17703	30.0
531.16028	30.0
531.22052	40.0
532.17871	30.0
538.82568	60.0
549.17889	230.0
550.19263	30.0
567.19763	210.0
568.19849	60.0
581.17853	20.0
585.21185	20.0
591.17236	20.0
592.11194	20.0
592.36542	20.0
593.18103	130.0
598.27252	20.0
611.16394	60.0
611.56439	30.0
612.1839	70.0
629.1955	140.0
630.17377	30.0
631.21606	30.0
640.34918	20.0
643.12207	20.0
644.46185	20.0
647.23163	20.0
649.24109	90.0
650.27954	20.0
664.21472	50.0
667.23151	30.0
676.2229	20.0
681.23279	40.0
693.23151	150.0
711.23193	290.0
712.25214	120.0
713.224	20.0
727.63739	10.0
728.78412	20.0
729.23541	150.0
731.27618	20.0
749.29681	20.0
750.29254	20.0
788.85468	10.0
793.27527	420.0
794.27728	30.0
805.9881	30.0
811.23633	90.0
811.2876	390.0
830.3092	40.0
852.73126	20.0
874.71484	30.0
893.33356	380.0
894.3299	50.0
911.32599	30.0
911.37103	30.0
912.34827	50.0
991.98517	20.0
993.37018	40.0
994.42798	20.0
1340.83484	20.0

NAME:  NCGC00380614-01_C24H23N5O4_2H-Pyrazino[2,1-b]quinazoline-3,6(1H,4H)-dione, 1-methyl-4-[[(2S,9S,9aS)-2,3,9,9a-tetrahydro-9-hydroxy-2-methyl-3-oxo-1H-imidazo[1,2-a]indol-9-yl]methyl]-, (1S,4R)-
PRECURSORMZ:  490.17320678883
PRECURSORTYPE:  [M+FA-H]-
FORMULA:  C24H23N5O4
Ontology: ;;;
INCHIKEY:  DQQCCKFZJNINST-UHFFFAOYNA-N
SMILES:  CC1NC2N(C1=O)C1=CC=CC=C1C2(O)CC1N2C(=O)C3=CC=CC=C3N=C2C(C)N=C1O
RETENTIONTIME:  
CCS:  -1
IONMODE:  Negative
INSTRUMENTTYPE:  
INSTRUMENT:  Maxis II HD Q-TOF Bruker
COLLISIONENERGY:  
Comment:  DB#=CCMSLIB00000849265; origin=GNPS
Num Peaks:  23
145.04105	40.0
160.03566	20.0
170.03415	10.0
171.05913	20.0
172.05577	20.0
183.06085	20.0
184.04137	10.0
186.06699	10.0
188.08792	70.0
189.05937	20.0
198.06895	10.0
213.05632	40.0
214.05341	20.0
215.08214	30.0
240.07526	20.0
242.09145	470.0
259.00525	20.0
373.14026	20.0
443.45578	10.0
444.1676	1000.0
444.24261	10.0
445.17398	20.0
447.87088	10.0

NAME:  NCGC00380403-01_C19H23N3O4_2H-Pyrazino[1',2':1,5]pyrrolo[2,3-b]indole-1,4(3H,5aH)-dione, 6-acetyl-6,10b,11,11a-tetrahydro-10b-hydroxy-3-(2-methylpropyl)-
PRECURSORMZ:  356.16157978083
PRECURSORTYPE:  [M-H]-
FORMULA:  C19H23N3O4
Ontology: ;;;
INCHIKEY:  IQSAULADRNRYOT-UHFFFAOYNA-N
SMILES:  CC(C)CC1N=C(O)C2CC3(O)C(N2C1=O)N(C(C)=O)C1=CC=CC=C31
RETENTIONTIME:  
CCS:  -1
IONMODE:  Negative
INSTRUMENTTYPE:  
INSTRUMENT:  Maxis II HD Q-TOF Bruker
COLLISIONENERGY:  
Comment:  DB#=CCMSLIB00000850697; origin=GNPS
Num Peaks:  16
131.03889	40.0
138.09331	70.0
155.0826	50.0
157.07774	70.0
167.0797	80.0
181.09802	1000.0
183.11694	710.0
199.09102	60.0
225.12401	50.0
269.11487	60.0
286.14581	50.0
287.13583	60.0
296.13501	30.0
314.15726	200.0
338.1496	150.0
356.16342	870.0

NAME:  NCGC00380932-01_C29H42O9_9-Hydroxy-9-[({(2E)-2-(hydroxymethyl)-3-[3-(hydroxymethyl)-6-isopropyl-2-cyclohexen-1-yl]-2-propenoyl}oxy)methyl]-6-isopropyl-1-oxo-1,3,5a,6,7,8,9,9a-octahydro-2-benzoxepine-4-carboxylic acid
PRECURSORMZ:  533.27560647983
PRECURSORTYPE:  [M-H]-
FORMULA:  C29H42O9
Ontology: ;;;
INCHIKEY:  RCOCBDNPQGVEDL-UHFFFAOYNA-N
SMILES:  CC(C)C1CCC(CO)=CC1C=C(CO)C(=O)OCC1(O)CCC(C(C)C)C2C=C(COC(=O)C12)C(O)=O
RETENTIONTIME:  
CCS:  -1
IONMODE:  Negative
INSTRUMENTTYPE:  
INSTRUMENT:  Maxis II HD Q-TOF Bruker
COLLISIONENERGY:  
Comment:  DB#=CCMSLIB00000851439; origin=GNPS
Num Peaks:  11
149.10339	10.0
151.11072	30.0
173.13383	470.0
189.12682	10.0
191.14485	20.0
205.12502	30.0
223.13228	20.0
235.13326	50.0
253.145	1000.0
391.25684	10.0
533.26947	20.0

NAME:  NCGC00380985-01_C18H20N2O4_
PRECURSORMZ:  327.13503067983
PRECURSORTYPE:  [M-H]-
FORMULA:  C18H20N2O4
Ontology: Kingdom: Organic compounds;Superclass: Organoheterocyclic compounds;Class: Pyridines and derivatives;Subclass: Pyridinecarboxylic acids and derivatives
INCHIKEY:  CCDXRMSTRMQFCG-UHFFFAOYNA-N
SMILES:  CC(C)CC(=O)N1C=C(C(O)=N)C(=O)C=C1C(O)C1=CC=CC=C1
RETENTIONTIME:  
CCS:  -1
IONMODE:  Negative
INSTRUMENTTYPE:  
INSTRUMENT:  Maxis II HD Q-TOF Bruker
COLLISIONENERGY:  
Comment:  DB#=CCMSLIB00000850382; origin=GNPS
Num Peaks:  22
85.06187	50.0
94.02749	100.0
100.07941	60.0
101.06172	100.0
106.01709	70.0
115.049	30.0
119.02301	90.0
137.03712	300.0
161.20084	40.0
163.01683	80.0
173.90298	30.0
200.06427	60.0
221.09686	60.0
225.06805	730.0
226.07648	20.0
243.0764	590.0
244.07344	30.0
244.09917	40.0
281.14069	20.0
319.94623	60.0
326.74994	20.0
327.1376	1000.0

NAME:  NCGC00381293-01_C55H92O24_Hexopyranoside, (3beta,9xi,11alpha,12beta,14beta,20S)-8,11,12,14,20-pentahydroxypregn-5-en-3-yl O-hexopyranosyl-(1->4)-O--6-deoxy-3-O-methylhexopyranosyl-(1->4)-O--2,6-dideoxy-3-O-methylhexopyranosyl-(1->4)-O--2,6-dideoxy-3-O-methylhexopyranosyl-(1->4)-2,6-dideoxy-3-O-methyl-
PRECURSORMZ:  1181.59605638983
PRECURSORTYPE:  [M+FA-H]-
FORMULA:  C55H92O24
Ontology: ;;;
INCHIKEY:  FZAVQTYIBVEBHF-UHFFFAOYNA-N
SMILES:  COC1CC(OC2CCC3(C)C4C(O)C(O)C5(C)C(CCC5(O)C4(O)CC=C3C2)C(C)O)OC(C)C1OC1CC(OC)C(OC2CC(OC)C(OC3OC(C)C(OC4OC(CO)C(O)C(O)C4O)C(OC)C3O)C(C)O2)C(C)O1
RETENTIONTIME:  
CCS:  -1
IONMODE:  Negative
INSTRUMENTTYPE:  
INSTRUMENT:  Maxis II HD Q-TOF Bruker
COLLISIONENERGY:  
Comment:  DB#=CCMSLIB00000849377; origin=GNPS
Num Peaks:  29
83.05096	30.0
84.02208	10.0
85.0304	20.0
101.02322	30.0
109.03041	10.0
109.06525	10.0
111.04499	120.0
113.02438	60.0
126.03076	10.0
127.03929	30.0
161.04604	30.0
177.09177	10.0
203.10771	10.0
229.10852	40.0
265.15942	10.0
309.18628	30.0
327.19867	20.0
373.18918	30.0
533.25836	40.0
615.35486	10.0
669.383	20.0
695.3158	10.0
759.43713	10.0
813.46686	30.0
973.54034	170.0
974.53998	50.0
1135.5918	1000.0
1136.59521	380.0
1137.59692	60.0

NAME:  NCGC00169028-02_C25H34O8_1H-Furo[3,4-b]xanthene-9-propanoic acid, 3,5a,6,7,8,9,9a,10-octahydro-7-hydroxy-8-(1-hydroxy-1-methylethyl)-11-methoxy-4,5a,9-trimethyl-1-oxo-
PRECURSORMZ:  461.21809160283
PRECURSORTYPE:  [M-H]-
FORMULA:  C25H34O8
Ontology: ;;;
INCHIKEY:  NNOMPFCNQCRAIO-UHFFFAOYNA-N
SMILES:  COC1=C2C(=O)OCC2=C(C)C2=C1CC1C(C)(CC(O)C(C(C)(C)O)C1(C)CCC(O)=O)O2
RETENTIONTIME:  
CCS:  -1
IONMODE:  Negative
INSTRUMENTTYPE:  
INSTRUMENT:  Maxis II HD Q-TOF Bruker
COLLISIONENERGY:  
Comment:  DB#=CCMSLIB00000850855; origin=GNPS
Num Peaks:  8
191.03339	60.0
238.04523	10.0
329.14001	30.0
331.15472	10.0
385.16629	20.0
389.19717	20.0
443.20538	20.0
461.21881	1000.0

NAME:  NCGC00380367-01_C21H24O5_7-Benzofurancarboxylic acid, 2,3-dihydro-2-(1-hydroxy-1-methylethyl)-4-methoxy-6-(2-phenylethyl)-
PRECURSORMZ:  355.15509742083
PRECURSORTYPE:  [M-H]-
FORMULA:  C21H24O5
Ontology: ;;;
INCHIKEY:  XJKIBJFVLHQLKC-UHFFFAOYNA-N
SMILES:  COC1=C2CC(OC2=C(C(O)=O)C(CCC2=CC=CC=C2)=C1)C(C)(C)O
RETENTIONTIME:  
CCS:  -1
IONMODE:  Negative
INSTRUMENTTYPE:  
INSTRUMENT:  Maxis II HD Q-TOF Bruker
COLLISIONENERGY:  
Comment:  DB#=CCMSLIB00000849662; origin=GNPS
Num Peaks:  16
83.34353	10.0
134.03552	20.0
135.04529	110.0
175.36113	10.0
189.06772	20.0
226.09937	510.0
237.09006	20.0
241.12442	640.0
269.08325	20.0
283.09811	20.0
293.15594	40.0
311.17493	100.0
355.15601	1000.0
355.21487	40.0
356.1554	20.0
588.19757	30.0

NAME:  NCGC00385739-01_C48H76O20_(3beta,5xi,9xi,22beta)-22,24,29-Trihydroxy-29-oxoolean-12-en-3-yl 6-deoxy-alpha-L-mannopyranosyl-(1->2)-beta-D-galactopyranosyl-(1->2)-beta-D-glucopyranosiduronic acid
PRECURSORMZ:  1017.49119739483
PRECURSORTYPE:  [M+FA-H]-
FORMULA:  C48H76O20
Ontology: Kingdom: Organic compounds;Superclass: Lipids and lipid;Class: Prenol lipids;Subclass: Terpene glycosides
INCHIKEY:  JCHUCLMYSKXMOY-UHFFFAOYNA-N
SMILES:  CC1OC(OC2C(O)C(O)C(CO)OC2OC2C(O)C(O)C(OC2OC2CCC3(C)C(CCC4(C)C3CC=C3C5CC(C)(CC(O)C5(C)CCC43C)C(O)=O)C2(C)CO)C(O)=O)C(O)C(O)C1O
RETENTIONTIME:  
CCS:  -1
IONMODE:  Negative
INSTRUMENTTYPE:  
INSTRUMENT:  Maxis II HD Q-TOF Bruker
COLLISIONENERGY:  
Comment:  DB#=CCMSLIB00000849398; origin=GNPS
Num Peaks:  27
99.01012	20.0
101.0251	10.0
113.02611	30.0
131.0358	20.0
139.00389	10.0
143.03514	30.0
157.01547	20.0
163.06226	20.0
205.07138	40.0
439.3252	20.0
469.33551	10.0
485.33118	10.0
487.3447	40.0
569.35425	10.0
601.37762	50.0
619.39368	10.0
643.35095	10.0
645.36755	80.0
646.37146	10.0
763.4295	30.0
909.4881	40.0
953.47516	10.0
969.47717	70.0
970.47491	50.0
971.4873	1000.0
972.48956	260.0
973.49677	20.0

NAME:  NCGC00385222-01_C19H26O13_beta-D-Fructofuranosyl 6-O-(4-hydroxybenzoyl)-alpha-D-glucopyranoside
PRECURSORMZ:  507.13554344483
PRECURSORTYPE:  [M+FA-H]-
FORMULA:  C19H26O13
Ontology: Kingdom: Organic compounds;Superclass: Organic oxygen compounds;Class: Organooxygen compounds;Subclass: Carbohydrates and carbohydrate conjugates
INCHIKEY:  CDTIMEVVBBGLIF-UHFFFAOYNA-N
SMILES:  OCC1OC(CO)(OC2OC(COC(=O)C3=CC=C(O)C=C3)C(O)C(O)C2O)C(O)C1O
RETENTIONTIME:  
CCS:  -1
IONMODE:  Negative
INSTRUMENTTYPE:  
INSTRUMENT:  Maxis II HD Q-TOF Bruker
COLLISIONENERGY:  
Comment:  DB#=CCMSLIB00000850013; origin=GNPS
Num Peaks:  8
93.03371	10.0
137.02295	460.0
179.03398	70.0
209.04242	20.0
239.0545	130.0
281.06769	90.0
299.07712	40.0
461.12903	1000.0

NAME:  NCGC00385679-01_C24H28O13_Cyclopenta[c]pyran-4-carboxylic acid, 1-(beta-D-glucopyranosyloxy)-1,4a,5,7a-tetrahydro-7-[[(4-hydroxy-3-methoxybenzoyl)oxy]methyl]-
PRECURSORMZ:  523.14571450983
PRECURSORTYPE:  [M-H]-
FORMULA:  C24H28O13
Ontology: Kingdom: Organic compounds;Superclass: Phenylpropanoids and polyketides;Class: Tannins;Subclass: Hydrolyzable tannins
INCHIKEY:  RYWDJUUPROVLNV-UHFFFAOYNA-N
SMILES:  COC1=C(O)C=CC(=C1)C(=O)OCC1=CCC2C1C(OC1OC(CO)C(O)C(O)C1O)OC=C2C(O)=O
RETENTIONTIME:  
CCS:  -1
IONMODE:  Negative
INSTRUMENTTYPE:  
INSTRUMENT:  Maxis II HD Q-TOF Bruker
COLLISIONENERGY:  
Comment:  DB#=CCMSLIB00000849818; origin=GNPS
Num Peaks:  27
95.05537	10.0
108.02013	40.0
113.02339	30.0
121.06615	50.0
123.04648	80.0
125.03007	10.0
131.05098	220.0
142.52629	10.0
146.82062	10.0
149.05995	330.0
151.00107	10.0
152.01273	70.0
166.02864	30.0
166.5265	10.0
167.03593	1000.0
174.55693	10.0
175.04016	170.0
193.05177	180.0
267.05981	10.0
299.09293	170.0
316.92279	10.0
317.0994	100.0
343.08765	20.0
355.10181	50.0
361.09827	90.0
479.16351	10.0
523.14807	460.0

NAME:  NCGC00169074-02_C25H32O13_Methyl (2S,3E,4S)-4-{2-[2-(3,4-dihydroxyphenyl)ethoxy]-2-oxoethyl}-3-ethylidene-2-(beta-D-glucopyranosyloxy)-3,4-dihydro-2H-pyran-5-carboxylate
PRECURSORMZ:  575.1536923499
PRECURSORTYPE:  [M+Cl]-
FORMULA:  C25H32O13
Ontology: Kingdom: Organic compounds;Superclass: Lipids and lipid;Class: Prenol lipids;Subclass: Terpene glycosides
INCHIKEY:  RFWGABANNQMHMZ-UHFFFAOYNA-N
SMILES:  COC(=O)C1=COC(OC2OC(CO)C(O)C(O)C2O)C(=CC)C1CC(=O)OCCC1=CC(O)=C(O)C=C1
RETENTIONTIME:  
CCS:  -1
IONMODE:  Negative
INSTRUMENTTYPE:  
INSTRUMENT:  Maxis II HD Q-TOF Bruker
COLLISIONENERGY:  
Comment:  DB#=CCMSLIB00000850592; origin=GNPS
Num Peaks:  23
94.16862	50.0
101.02334	150.0
139.01366	200.0
139.04501	120.0
147.98151	120.0
149.01715	120.0
153.05386	90.0
161.04558	110.0
171.02869	60.0
179.05247	140.0
197.07803	70.0
223.05867	380.0
263.74628	190.0
274.67715	150.0
275.0386	150.0
275.09399	530.0
307.08533	550.0
345.10507	120.0
371.09433	90.0
377.11896	80.0
403.12372	100.0
539.18469	1000.0
552.63879	110.0

NAME:  NCGC00347878-02_C24H28O13_beta-D-Glucopyranoside, 4-hydroxyphenyl 2-O-[(2S,3R,4S)-tetrahydro-3,4-dihydroxy-4-[[(4-hydroxybenzoyl)oxy]methyl]-2-furanyl]-
PRECURSORMZ:  569.15119350983
PRECURSORTYPE:  [M+FA-H]-
FORMULA:  C24H28O13
Ontology: Kingdom: Organic compounds;Superclass: Organic oxygen compounds;Class: Organooxygen compounds;Subclass: Carbohydrates and carbohydrate conjugates
INCHIKEY:  GDCHGVOUTCXBSI-UHFFFAOYNA-N
SMILES:  OCC1OC(OC2=CC=C(O)C=C2)C(OC2OCC(O)(COC(=O)C3=CC=C(O)C=C3)C2O)C(O)C1O
RETENTIONTIME:  
CCS:  -1
IONMODE:  Negative
INSTRUMENTTYPE:  
INSTRUMENT:  Maxis II HD Q-TOF Bruker
COLLISIONENERGY:  
Comment:  DB#=CCMSLIB00000851415; origin=GNPS
Num Peaks:  4
93.03775	20.0
137.02414	1000.0
385.10867	10.0
523.14624	250.0

NAME:  NCGC00381229-01_C54H90O30_Hexopyranoside, (2E,6E)-3,7,11-trimethyl-2,6,10-dodecatrien-1-yl O--6-deoxyhexopyranosyl-(1->4)-O-pentopyranosyl-(1->4)-O--6-deoxyhexopyranosyl-(1->4)-O--6-deoxyhexopyranosyl-(1->3)-O-[O-pentopyranosyl-(1->4)pentopyranosyl-(1->6)]-
PRECURSORMZ:  1217.54441504583
PRECURSORTYPE:  [M-H]-
FORMULA:  C54H90O30
Ontology: ;;;
INCHIKEY:  BDQVTRRVULQEPY-UHFFFAOYNA-N
SMILES:  CC1OC(OC2COC(OC3C(C)OC(OC4C(C)OC(OC5C(O)C(COC6OCC(OC7OCC(O)C(O)C7O)C(O)C6O)OC(OCC=C(C)CCC=C(C)CCC=C(C)C)C5O)C(O)C4O)C(O)C3O)C(O)C2O)C(O)C(O)C1O
RETENTIONTIME:  
CCS:  -1
IONMODE:  Negative
INSTRUMENTTYPE:  
INSTRUMENT:  Maxis II HD Q-TOF Bruker
COLLISIONENERGY:  
Comment:  DB#=CCMSLIB00000849926; origin=GNPS
Num Peaks:  113
71.01259	30.0
73.02955	60.0
83.01691	60.0
85.02782	90.0
89.02422	180.0
90.99806	40.0
101.02439	180.0
103.04057	60.0
111.00961	30.0
113.02346	340.0
119.03571	230.0
125.02385	290.0
126.02257	10.0
127.03972	90.0
129.97261	50.0
131.03358	260.0
132.21008	20.0
134.47968	10.0
140.99585	30.0
143.03513	400.0
145.02179	30.0
145.04987	420.0
147.71265	10.0
149.04619	20.0
152.99101	20.0
161.04703	40.0
163.01625	30.0
163.06082	1000.0
164.06592	60.0
179.40611	20.0
193.01668	50.0
205.07051	790.0
206.06633	40.0
215.05568	40.0
219.08723	30.0
221.07628	40.0
230.98759	60.0
237.03114	40.0
242.84	30.0
246.16501	20.0
247.08641	50.0
249.70348	20.0
251.07915	30.0
255.01691	20.0
259.08142	90.0
265.0947	80.0
277.09436	80.0
293.03564	20.0
293.16278	20.0
295.00046	30.0
296.02243	30.0
297.02048	20.0
298.13406	30.0
337.11102	40.0
357.92017	20.0
361.12051	20.0
368.92133	50.0
409.13177	70.0
423.16089	50.0
438.12381	30.0
483.16547	30.0
496.81485	20.0
515.29102	10.0
536.35364	10.0
555.19843	50.0
586.18927	40.0
661.34076	160.0
675.35663	170.0
676.34277	20.0
789.39746	40.0
807.40503	360.0
808.41351	170.0
809.39331	40.0
817.44971	10.0
839.78925	20.0
877.39819	10.0
903.41913	80.0
922.40967	30.0
933.64832	40.0
939.44464	140.0
939.50598	70.0
940.43225	30.0
940.48114	40.0
941.25867	10.0
950.29333	130.0
953.45862	160.0
957.50342	10.0
985.57385	20.0
997.50146	20.0
1009.53412	20.0
1071.4696	340.0
1071.58252	60.0
1071.65991	20.0
1072.45422	90.0
1072.55139	20.0
1085.50647	280.0
1086.50989	60.0
1086.58618	30.0
1089.65967	30.0
1102.53516	20.0
1120.63416	30.0
1147.64856	20.0
1215.18457	10.0
1217.41333	20.0
1217.55078	940.0
1218.53467	520.0
1219.28333	20.0
1219.51147	50.0
1219.56067	70.0
1283.62732	20.0
1303.57251	10.0
1427.57373	30.0
1792.79785	10.0

NAME:  NCGC00381127-01_C67H108O25_
PRECURSORMZ:  1357.71617152583
PRECURSORTYPE:  [M+FA-H]-
FORMULA:  C67H108O25
Ontology: ;;;
INCHIKEY:  QQUBNLGWFMCUMI-UHFFFAOYNA-N
SMILES:  COC1CC(OC2CCC3(C)C4CC(OC(=O)C(C)=CC)C5(C)C(CCC5(O)C4CC=C3C2)C(C)=O)OC(C)C1OC1CC(OC)C(OC2CC(OC)C(OC3CC(OC)C(OC4CC(OC)C(OC5OC(CO)C(O)C(O)C5O)C(C)O4)C(C)O3)C(C)O2)C(C)O1
RETENTIONTIME:  
CCS:  -1
IONMODE:  Negative
INSTRUMENTTYPE:  
INSTRUMENT:  Maxis II HD Q-TOF Bruker
COLLISIONENERGY:  
Comment:  DB#=CCMSLIB00000851045; origin=GNPS
Num Peaks:  48
71.01382	50.0
85.0317	150.0
95.01401	40.0
99.01044	40.0
99.04539	1000.0
100.05285	30.0
100.5536	10.0
101.02457	160.0
111.04319	10.0
113.02446	190.0
143.03767	10.0
153.05548	20.0
159.03201	50.0
160.88155	20.0
161.0443	360.0
162.05008	20.0
163.05182	20.0
196.00813	20.0
205.03993	20.0
225.08099	10.0
247.07924	20.0
252.9776	10.0
255.09453	20.0
273.10178	10.0
341.00537	20.0
359.02319	20.0
661.33527	30.0
806.37463	10.0
823.38062	20.0
849.41699	30.0
923.5564	10.0
923.85217	10.0
1036.60486	10.0
1144.05933	10.0
1193.67261	30.0
1194.646	30.0
1211.66187	90.0
1212.67322	40.0
1213.65442	10.0
1229.67627	30.0
1311.71729	210.0
1312.71814	180.0
1313.72217	50.0
1313.8689	20.0
1357.72449	70.0
1358.72412	80.0
1361.73901	10.0
1367.97974	10.0

NAME:  Pesticide6_Fuberidazole_C11H8N2O_2-(2-Furyl)-1H-benzimidazole
PRECURSORMZ:  183.05638643383
PRECURSORTYPE:  [M-H]-
FORMULA:  C11H8N2O
Ontology: ;;;
INCHIKEY:  UYJUZNLFJAWNEZ-UHFFFAOYSA-N
SMILES:  N1C2=CC=CC=C2N=C1C1=CC=CO1
RETENTIONTIME:  
CCS:  140.7152332
IONMODE:  Negative
INSTRUMENTTYPE:  
INSTRUMENT:  Q-Exactive Plus Orbitrap Res 70k
COLLISIONENERGY:  
Comment:  DB#=CCMSLIB00001058235; origin=GNPS
Num Peaks:  7
94.91704	40.0
116.99595	20.0
138.90712	20.0
154.0538	10.0
155.06168	510.0
183.008	20.0
183.0567	1000.0

NAME:  NCGC00385743-01_C67H108O33_beta-D-Xylopyranose, O-beta-D-xylopyranosyl-(1->3)-O-alpha-L-arabinopyranosyl-(1->4)-O-6-deoxy-3-O-[(2S,3R,4R)-tetrahydro-3,4-dihydroxy-4-(hydroxymethyl)-2-furanyl]-alpha-L-mannopyranosyl-(1->2)-1-O-[(3beta,5xi,9xi,16alpha)-3-[(6-O-alpha-L-arabinopyranosyl-beta-D-glucopyranosyl)oxy]-16-hydroxy-28-oxoolean-12-en-28-yl]-
PRECURSORMZ:  1439.67000948583
PRECURSORTYPE:  [M-H]-
FORMULA:  C67H108O33
Ontology: ;;;
INCHIKEY:  USYFGIHTVDRWHW-UHFFFAOYNA-N
SMILES:  CC1OC(OC2C(O)C(O)COC2OC(=O)C23CCC(C)(C)CC2C2=CCC4C5(C)CCC(OC6OC(COC7OCC(O)C(O)C7O)C(O)C(O)C6O)C(C)(C)C5CCC4(C)C2(C)CC3O)C(O)C(OC2OCC(O)(CO)C2O)C1OC1OCC(O)C(OC2OCC(O)C(O)C2O)C1O
RETENTIONTIME:  
CCS:  -1
IONMODE:  Negative
INSTRUMENTTYPE:  
INSTRUMENT:  Maxis II HD Q-TOF Bruker
COLLISIONENERGY:  
Comment:  DB#=CCMSLIB00000850341; origin=GNPS
Num Peaks:  164
71.04134	10.0
83.01369	20.0
85.03123	190.0
86.03055	10.0
89.02486	60.0
99.01025	30.0
101.02436	100.0
103.04373	20.0
112.98729	20.0
113.02546	390.0
113.53786	20.0
114.03074	20.0
114.94695	20.0
115.04022	90.0
125.02479	20.0
127.04252	100.0
127.0778	30.0
128.04404	20.0
129.01985	40.0
131.03468	330.0
139.07703	10.0
143.03569	130.0
145.02849	20.0
145.05139	50.0
149.04648	210.0
150.05161	20.0
151.04254	20.0
159.03117	20.0
159.26042	10.0
159.75279	10.0
161.0172	10.0
161.0486	50.0
168.9826	20.0
173.04623	70.0
173.1218	30.0
174.95636	20.0
179.51945	10.0
187.05667	50.0
191.05077	70.0
195.02629	10.0
205.07237	140.0
206.07385	20.0
212.08131	20.0
215.05586	30.0
220.38641	30.0
223.06682	20.0
233.06728	70.0
241.0961	20.0
248.08723	30.0
249.39236	10.0
251.03099	10.0
259.12674	10.0
262.02002	10.0
263.07758	190.0
264.07941	30.0
265.09479	30.0
271.08264	40.0
277.09256	250.0
278.09332	20.0
279.0965	20.0
281.0965	20.0
293.08319	20.0
299.26523	20.0
301.0997	40.0
301.42206	10.0
303.06705	30.0
309.59186	20.0
310.08206	20.0
319.10397	10.0
321.0834	20.0
335.09402	20.0
337.1167	610.0
338.10925	40.0
351.23935	20.0
365.05545	20.0
365.10794	180.0
373.13672	10.0
379.73062	20.0
380.25098	20.0
387.11618	10.0
391.11243	20.0
392.12759	20.0
401.6152	10.0
401.71951	20.0
409.13681	240.0
410.15021	60.0
413.08856	30.0
425.15234	20.0
429.0722	20.0
430.05933	20.0
437.30383	10.0
439.14786	20.0
451.14124	20.0
462.31503	10.0
469.16006	660.0
470.15689	80.0
470.21835	10.0
470.25552	20.0
471.35056	20.0
499.17438	20.0
515.1615	20.0
515.30298	10.0
541.17853	450.0
542.17688	40.0
559.17957	10.0
571.40308	10.0
587.41321	20.0
600.46515	10.0
601.06799	20.0
601.19904	770.0
602.20917	120.0
603.3905	30.0
633.39886	20.0
633.46527	20.0
634.43585	10.0
638.0072	10.0
649.41174	10.0
660.04883	20.0
673.22217	370.0
674.22986	90.0
675.29401	20.0
677.25555	10.0
685.42474	10.0
688.43036	20.0
689.05688	10.0
703.43982	40.0
745.72089	10.0
747.44025	10.0
755.20544	10.0
765.43671	470.0
766.45374	150.0
767.39709	10.0
769.4068	60.0
781.45325	10.0
784.354	20.0
816.41016	20.0
839.46136	20.0
840.39648	10.0
906.45538	30.0
1034.38989	10.0
1175.61584	10.0
1186.84558	10.0
1189.54309	10.0
1192.4082	10.0
1213.89856	20.0
1253.3551	30.0
1307.59424	20.0
1307.6554	30.0
1308.28455	10.0
1308.58105	10.0
1308.63904	30.0
1325.63354	10.0
1349.63586	10.0
1411.78821	10.0
1439.67346	1000.0
1440.36169	10.0
1440.49231	10.0
1440.67407	350.0
1441.2655	20.0
1441.68945	110.0
1444.22522	20.0
1444.42224	10.0
1452.60681	10.0
1500.14124	20.0

NAME:  NCGC00179711-03_C20H30O6_2(5H)-Furanone, 5-hydroxy-4-[2-(octahydro-2,3-dihydroxy-5,6,8a-trimethylspiro[naphthalene-1(2H),2'-oxiran]-5-yl)ethyl]-
PRECURSORMZ:  365.19696223383
PRECURSORTYPE:  [M-H]-
FORMULA:  C20H30O6
Ontology: ;;;
INCHIKEY:  QMWJARHMJRTJMQ-UHFFFAOYNA-N
SMILES:  CC1CCC2(C)C(CC(O)C(O)C22CO2)C1(C)CCC1=CC(=O)OC1O
RETENTIONTIME:  
CCS:  -1
IONMODE:  Negative
INSTRUMENTTYPE:  
INSTRUMENT:  Maxis II HD Q-TOF Bruker
COLLISIONENERGY:  
Comment:  DB#=CCMSLIB00000849530; origin=GNPS
Num Peaks:  32
95.01587	10.0
153.1235	10.0
169.86336	20.0
173.09154	20.0
179.14746	10.0
191.10999	10.0
203.12158	20.0
205.12488	20.0
207.18234	10.0
217.16571	10.0
219.15169	30.0
227.15376	10.0
245.16164	30.0
245.18484	40.0
247.20107	40.0
257.18445	30.0
259.20941	20.0
261.18237	30.0
263.19992	30.0
273.18057	60.0
275.19727	60.0
277.18854	30.0
288.16553	40.0
291.19626	310.0
293.21567	30.0
303.19727	90.0
307.55728	20.0
320.16443	20.0
321.19785	10.0
365.19821	1000.0
366.19522	10.0
578.44434	10.0

NAME:  NCGC00381305-01_C24H32O12_Cyclopenta[c]pyran-4-carboxylic acid, 1-(beta-D-glucopyranosyloxy)-1,4a,5,6,7,7a-hexahydro-5,6-dihydroxy-7-methyl-, 2-(4-hydroxyphenyl)ethyl ester
PRECURSORMZ:  557.18757901783
PRECURSORTYPE:  [M+FA-H]-
FORMULA:  C24H32O12
Ontology: ;;;
INCHIKEY:  JUGKCFLQZJYLHO-UHFFFAOYNA-N
SMILES:  CC1C(O)C(O)C2C1C(OC1OC(CO)C(O)C(O)C1O)OC=C2C(=O)OCCC1=CC=C(O)C=C1
RETENTIONTIME:  
CCS:  -1
IONMODE:  Negative
INSTRUMENTTYPE:  
INSTRUMENT:  Maxis II HD Q-TOF Bruker
COLLISIONENERGY:  
Comment:  DB#=CCMSLIB00000851291; origin=GNPS
Num Peaks:  18
101.02664	20.0
111.0071	10.0
111.04725	10.0
137.0593	10.0
143.03577	20.0
147.04353	10.0
179.05226	20.0
185.07866	40.0
189.89217	10.0
211.06071	110.0
213.02296	10.0
229.07251	70.0
249.08064	10.0
282.06036	10.0
349.13083	570.0
391.12497	1000.0
476.13129	10.0
511.18161	380.0

NAME:  NCGC00380481-01_C23H28O13S_
PRECURSORMZ:  589.12326468383
PRECURSORTYPE:  [M+FA-H]-
FORMULA:  C23H28O13S
Ontology: ;;;
INCHIKEY:  MZHPYFUVDWYNQP-UHFFFAOYNA-N
SMILES:  [H]C12OC3(C)CC(O1)(C1CC3(OC3OC(CO)C(O)C(O)C3O)C21COC(=O)C1=CC=CC=C1)[S+](O)([O-])=O
RETENTIONTIME:  
CCS:  -1
IONMODE:  Negative
INSTRUMENTTYPE:  
INSTRUMENT:  Maxis II HD Q-TOF Bruker
COLLISIONENERGY:  
Comment:  DB#=CCMSLIB00000849971; origin=GNPS
Num Peaks:  13
167.02921	60.0
195.05377	20.0
213.02249	20.0
215.04074	10.0
259.03476	20.0
278.3367	10.0
279.93134	10.0
440.98206	30.0
441.04904	10.0
507.16299	10.0
588.07092	10.0
589.12408	1000.0
691.09174	20.0

NAME:  NCGC00381239-01_C17H29NO10_2-{[6-O-(6-Deoxy-alpha-L-mannopyranosyl)-beta-D-glucopyranosyl]oxy}-3-methylbutanenitrile
PRECURSORMZ:  452.17734868583
PRECURSORTYPE:  [M+FA-H]-
FORMULA:  C17H29NO10
Ontology: ;;;
INCHIKEY:  QCHGZRADLYPSQB-UHFFFAOYNA-N
SMILES:  CC(C)C(OC1OC(COC2OC(C)C(O)C(O)C2O)C(O)C(O)C1O)C#N
RETENTIONTIME:  
CCS:  -1
IONMODE:  Negative
INSTRUMENTTYPE:  
INSTRUMENT:  Maxis II HD Q-TOF Bruker
COLLISIONENERGY:  
Comment:  DB#=CCMSLIB00000851442; origin=GNPS
Num Peaks:  23
81.80969	10.0
101.02509	20.0
113.02672	30.0
119.03332	40.0
125.02269	80.0
131.03484	20.0
143.03473	50.0
145.05338	30.0
159.03207	10.0
161.04439	200.0
163.06062	340.0
175.05655	10.0
188.05534	40.0
205.07161	40.0
212.81226	10.0
229.06052	10.0
247.08345	60.0
260.11407	20.0
289.0882	20.0
307.10522	1000.0
334.10876	10.0
406.17175	550.0
452.17755	20.0

NAME:  NCGC00380849-01_C28H34O8_(2E,4E)-1-{(1R,3S,7S,8R,10S)-12-[(4E)-4-Hexenoyl]-1,6,8,13-tetrahydroxy-3,7,10,14-tetramethyl-2,9-dioxapentacyclo[8.4.0.0~3,8~.0~4,14~.0~7,11~]tetradeca-5,12-dien-5-yl}-2,4-hexadien-1-one
PRECURSORMZ:  533.1947693149
PRECURSORTYPE:  [M+Cl]-
FORMULA:  C28H34O8
Ontology: ;;;
INCHIKEY:  AWAWQVBWAWCQSJ-UHFFFAOYNA-N
SMILES:  CC=CCCC(=O)C1=C(O)C2(C)C3C(C(=O)C=CC=CC)=C(O)C4(C)C1C1(C)OC4(O)C3(C)OC21O
RETENTIONTIME:  
CCS:  -1
IONMODE:  Negative
INSTRUMENTTYPE:  
INSTRUMENT:  Maxis II HD Q-TOF Bruker
COLLISIONENERGY:  
Comment:  DB#=CCMSLIB00000849422; origin=GNPS
Num Peaks:  26
177.05223	70.0
202.06357	110.0
202.29208	130.0
215.0789	120.0
279.17831	160.0
299.00928	90.0
305.14301	70.0
313.14038	140.0
323.20035	90.0
324.37039	40.0
339.16727	210.0
340.96649	40.0
341.17059	130.0
361.06982	120.0
365.17264	50.0
367.15695	190.0
383.17715	90.0
389.03064	100.0
411.14301	80.0
425.19705	100.0
443.2388	140.0
455.16159	60.0
485.04608	150.0
487.19693	1000.0
514.27399	80.0
600.75208	170.0

NAME:  NCGC00380652-01_C25H34O7_7-Formyl-4,6'-dihydroxy-6-(hydroxymethyl)-2',5',5',8a'-tetramethyl-3',4',4a',5',6',7',8',8a'-octahydro-2'H,3H-spiro[1-benzofuran-2,1'-naphthalen]-7'-yl acetate
PRECURSORMZ:  445.22317698283
PRECURSORTYPE:  [M-H]-
FORMULA:  C25H34O7
Ontology: ;;;
INCHIKEY:  GWNPFKVCTQYFQY-UHFFFAOYNA-N
SMILES:  CC1CCC2C(C)(C)C(O)C(CC2(C)C11CC2=C(O)C=C(CO)C(C=O)=C2O1)OC(C)=O
RETENTIONTIME:  
CCS:  -1
IONMODE:  Negative
INSTRUMENTTYPE:  
INSTRUMENT:  Maxis II HD Q-TOF Bruker
COLLISIONENERGY:  
Comment:  DB#=CCMSLIB00000850253; origin=GNPS
Num Peaks:  2
385.20062	80.0
445.2233	1000.0

NAME:  NCGC00385538-01_C35H44O13_(1R,2R,3R,4S,5S,7R,8R,9R,10S,14R)-1,8,16-Triacetoxy-2-(glycoloyloxy)-7-hydroxy-5,9,12,12-tetramethyl-13-oxotetracyclo[7.6.1.0~3,7~.0~10,14~]hexadec-4-yl benzoate
PRECURSORMZ:  653.26035034483
PRECURSORTYPE:  [M-H2O-H]-
FORMULA:  C35H44O13
Ontology: Kingdom: Organic compounds;Superclass: Lipids and lipid;Class: Prenol lipids;Subclass: Diterpenoids
INCHIKEY:  XIZUZZXWYLTRAC-UHFFFAOYNA-N
SMILES:  CC1CC2(O)C(C1OC(=O)C1=CC=CC=C1)C(OC(=O)CO)C1(CC3C(CC(C)(C)C3=O)C(C)(C1OC(C)=O)C2OC(C)=O)OC(C)=O
RETENTIONTIME:  
CCS:  -1
IONMODE:  Negative
INSTRUMENTTYPE:  
INSTRUMENT:  Maxis II HD Q-TOF Bruker
COLLISIONENERGY:  
Comment:  DB#=CCMSLIB00000850316; origin=GNPS
Num Peaks:  35
134.03743	90.0
137.01958	150.0
139.04057	150.0
174.96112	80.0
193.41286	90.0
264.05728	90.0
313.0947	100.0
328.21747	90.0
328.77704	70.0
341.97571	60.0
415.10635	140.0
417.1207	70.0
428.11493	100.0
428.14493	100.0
432.14505	270.0
446.16321	300.0
447.17075	830.0
448.18762	90.0
460.17386	90.0
461.17999	70.0
462.19592	1000.0
463.211	70.0
472.17267	60.0
485.14258	140.0
486.16281	160.0
490.18073	270.0
501.16846	210.0
506.34201	150.0
515.21844	80.0
607.31952	100.0
616.27167	80.0
621.22821	150.0
622.25568	140.0
653.2533	290.0
653.44153	70.0

NAME:  NCGC00381326-01_C21H22O7_Benzoic acid, 2,4-dihydroxy-6-methyl-, 6,7,8,8a-tetrahydro-7-hydroxy-7-methyl-6-oxo-3-[(1E)-1-propen-1-yl]-1H-2-benzopyran-8-yl ester
PRECURSORMZ:  385.12927659583
PRECURSORTYPE:  [M-H]-
FORMULA:  C21H22O7
Ontology: ;;;
INCHIKEY:  HNVJWWBKFFDQAA-UHFFFAOYNA-N
SMILES:  CC=CC1=CC2=CC(=O)C(C)(O)C(OC(=O)C3=C(O)C=C(O)C=C3C)C2CO1
RETENTIONTIME:  
CCS:  198.0504804
IONMODE:  Negative
INSTRUMENTTYPE:  
INSTRUMENT:  Maxis II HD Q-TOF Bruker
COLLISIONENERGY:  
Comment:  DB#=CCMSLIB00000851157; origin=GNPS
Num Peaks:  4
105.03423	120.0
149.02464	1000.0
167.03458	80.0
330.52954	30.0

NAME:  NCGC00380161-01_C20H28O12_6-O-(Phenylacetyl)-alpha-D-glucopyranosyl alpha-D-glucopyranoside
PRECURSORMZ:  505.15627888983
PRECURSORTYPE:  [M+FA-H]-
FORMULA:  C20H28O12
Ontology: ;;;
INCHIKEY:  STSLPRRNSYCFTQ-UHFFFAOYNA-N
SMILES:  OCC1OC(OC2OC(COC(=O)CC3=CC=CC=C3)C(O)C(O)C2O)C(O)C(O)C1O
RETENTIONTIME:  
CCS:  -1
IONMODE:  Negative
INSTRUMENTTYPE:  
INSTRUMENT:  Maxis II HD Q-TOF Bruker
COLLISIONENERGY:  
Comment:  DB#=CCMSLIB00000850880; origin=GNPS
Num Peaks:  22
89.02294	60.0
101.0225	30.0
112.8327	60.0
113.03116	40.0
119.03169	110.0
134.86003	40.0
134.89906	60.0
135.04503	550.0
136.04233	10.0
143.03574	50.0
149.04649	50.0
159.04379	30.0
161.04001	30.0
161.05409	20.0
178.18233	20.0
179.05844	230.0
180.89363	10.0
279.513	30.0
323.10007	390.0
341.10828	1000.0
428.1087	30.0
459.15182	380.0

NAME:  NCGC00381005-01_C17H25NO5_
PRECURSORMZ:  368.17147545683
PRECURSORTYPE:  [M+FA-H]-
FORMULA:  C17H25NO5
Ontology: ;;;
INCHIKEY:  QBSZVMLDNVHDKB-UHFFFAOYNA-N
SMILES:  CC(O)C=C(C)C=C(C)C(=O)CC1CC(CC(O)=N)CC(=O)O1
RETENTIONTIME:  
CCS:  -1
IONMODE:  Negative
INSTRUMENTTYPE:  
INSTRUMENT:  Maxis II HD Q-TOF Bruker
COLLISIONENERGY:  
Comment:  DB#=CCMSLIB00000851268; origin=GNPS
Num Peaks:  9
105.06895	30.0
131.91367	30.0
132.15366	10.0
154.05176	1000.0
304.14307	40.0
322.18268	20.0
368.01981	10.0
377.42148	20.0
1161.08679	160.0

NAME:  NCGC00385639-01_C16H24O7_
PRECURSORMZ:  373.15040566083
PRECURSORTYPE:  [M+FA-H]-
FORMULA:  C16H24O7
Ontology: ;;;
INCHIKEY:  IBNYGHYDOSWFHJ-UHFFFAOYNA-N
SMILES:  COC(=O)C(=C)C1C(O)CC2(C)C(C1O)C(O)(CO)CCC2=O
RETENTIONTIME:  
CCS:  -1
IONMODE:  Negative
INSTRUMENTTYPE:  
INSTRUMENT:  Maxis II HD Q-TOF Bruker
COLLISIONENERGY:  
Comment:  DB#=CCMSLIB00000849208; origin=GNPS
Num Peaks:  19
120.92579	20.0
131.03802	80.0
145.06172	60.0
146.16075	40.0
147.07993	60.0
163.07639	540.0
169.62431	40.0
191.10638	50.0
203.10799	30.0
205.08496	190.0
205.12245	50.0
207.10185	40.0
223.09926	320.0
246.0564	50.0
277.10938	240.0
295.11639	1000.0
327.13812	40.0
327.16577	40.0
341.13721	30.0

NAME:  NCGC00380919-01_C34H44O18_
PRECURSORMZ:  739.24548812483
PRECURSORTYPE:  [M-H]-
FORMULA:  C34H44O18
Ontology: ;;;
INCHIKEY:  KCXTUKOIUXREOJ-UHFFFAOYNA-N
SMILES:  COC1=C(O)C=CC(C=CC(=O)OC(C)(C)C(OC2OC(CO)C(O)C(O)C2O)C(=O)OCC2=CC=C(OC3OC(CO)C(O)C(O)C3O)C=C2)=C1
RETENTIONTIME:  
CCS:  -1
IONMODE:  Negative
INSTRUMENTTYPE:  
INSTRUMENT:  Maxis II HD Q-TOF Bruker
COLLISIONENERGY:  
Comment:  DB#=CCMSLIB00000850496; origin=GNPS
Num Peaks:  31
85.02872	10.0
89.02197	20.0
101.0253	20.0
113.02466	20.0
115.04153	10.0
119.03429	40.0
123.04594	20.0
132.02112	60.0
133.05351	10.0
134.03702	60.0
149.05876	20.0
155.07158	10.0
160.0159	420.0
161.02847	20.0
175.03983	1000.0
176.04495	20.0
179.05592	50.0
193.05157	110.0
219.10408	100.0
235.06129	20.0
247.09897	450.0
258.05029	10.0
273.078	20.0
277.0925	40.0
291.08765	60.0
295.10364	270.0
453.1369	60.0
471.15158	340.0
559.18457	120.0
739.24628	270.0
740.25269	20.0

NAME:  NCGC00380741-01_C20H24O10_6-O-(3,4-Dihydroxy-2-methylenebutanoyl)-1-O-[(2E)-3-phenyl-2-propenoyl]-beta-D-glucopyranose
PRECURSORMZ:  469.13514952083
PRECURSORTYPE:  [M+FA-H]-
FORMULA:  C20H24O10
Ontology: ;;;
INCHIKEY:  MYWZGSROPRXVPM-UHFFFAOYNA-N
SMILES:  OCC(O)C(=C)C(=O)OCC1OC(OC(=O)C=CC2=CC=CC=C2)C(O)C(O)C1O
RETENTIONTIME:  
CCS:  -1
IONMODE:  Negative
INSTRUMENTTYPE:  
INSTRUMENT:  Maxis II HD Q-TOF Bruker
COLLISIONENERGY:  
Comment:  DB#=CCMSLIB00000849434; origin=GNPS
Num Peaks:  9
95.26755	20.0
103.05401	40.0
127.03829	10.0
131.03099	10.0
133.0659	20.0
146.74092	20.0
147.04453	1000.0
155.03363	10.0
161.04604	20.0

NAME:  NCGC00381253-01_C22H29NO7_2H-Isoindole-2-acetic acid, 7-carboxy-1,3-dihydro-6-methoxy-5-methyl-4-[(3-methyl-2-buten-1-yl)oxy]-alpha-(1-methylpropyl)-1-oxo-
PRECURSORMZ:  418.18712582583
PRECURSORTYPE:  [M-H]-
FORMULA:  C22H29NO7
Ontology: ;;;
INCHIKEY:  NFHFUYXLQKSNLH-UHFFFAOYNA-N
SMILES:  CCC(C)C(N1CC2=C(C1=O)C(C(O)=O)=C(OC)C(C)=C2OCC=C(C)C)C(O)=O
RETENTIONTIME:  
CCS:  -1
IONMODE:  Negative
INSTRUMENTTYPE:  
INSTRUMENT:  Maxis II HD Q-TOF Bruker
COLLISIONENERGY:  
Comment:  DB#=CCMSLIB00000851454; origin=GNPS
Num Peaks:  26
80.86902	130.0
114.57583	380.0
116.39531	80.0
157.01341	150.0
176.02693	150.0
188.08669	210.0
189.04272	260.0
190.05946	90.0
204.06555	330.0
217.07149	260.0
218.07991	310.0
230.05414	160.0
232.09747	590.0
244.12373	90.0
246.11909	220.0
249.07864	140.0
260.12955	150.0
262.06812	180.0
262.14307	190.0
263.0817	60.0
276.08859	1000.0
290.09909	380.0
305.12509	460.0
306.13776	170.0
374.18811	70.0
374.21609	100.0

NAME:  NCGC00385717-01_C26H40O12_7-Hydroxy-1-({3-O-[(2E)-8-hydroxy-2,6-dimethyl-2-octenoyl]-beta-D-glucopyranosyl}oxy)-7-methyl-1,4a,5,6,7,7a-hexahydrocyclopenta[c]pyran-4-carboxylic acid
PRECURSORMZ:  543.24470027583
PRECURSORTYPE:  [M-H]-
FORMULA:  C26H40O12
Ontology: ;;;
INCHIKEY:  CBJQFIAJZLMMPW-UHFFFAOYNA-N
SMILES:  CC(CCO)CCC=C(C)C(=O)OC1C(O)C(CO)OC(OC2OC=C(C3CCC(C)(O)C23)C(O)=O)C1O
RETENTIONTIME:  
CCS:  -1
IONMODE:  Negative
INSTRUMENTTYPE:  
INSTRUMENT:  Maxis II HD Q-TOF Bruker
COLLISIONENERGY:  
Comment:  DB#=CCMSLIB00000851004; origin=GNPS
Num Peaks:  28
71.62873	20.0
99.01717	20.0
101.02474	60.0
107.04649	30.0
113.02664	150.0
119.03607	20.0
125.06055	150.0
133.06903	40.0
136.05115	20.0
143.10553	20.0
150.87029	20.0
151.07513	280.0
168.46555	30.0
169.08578	150.0
173.05389	20.0
179.67346	10.0
185.12166	280.0
187.05522	30.0
195.06679	40.0
205.02736	30.0
209.12636	20.0
213.07666	290.0
227.13237	30.0
357.11984	1000.0
375.12836	100.0
542.23022	10.0
543.24365	400.0
547.20166	10.0

NAME:  NCGC00169908-02_C37H41NO17_Benzoic acid, 2-[(2-O-acetyl-beta-D-glucopyranosyl)oxy]-4-[(2,4-dimethoxy-6-methylbenzoyl)oxy]-6-methyl-, 4-[[(1-carboxyethyl)amino]carbonyl]-3-hydroxy-5-methylphenyl ester
PRECURSORMZ:  770.23017241183
PRECURSORTYPE:  [M-H]-
FORMULA:  C37H41NO17
Ontology: ;;;
INCHIKEY:  JBSTZXRMJYWRCO-UHFFFAOYNA-N
SMILES:  COC1=CC(OC)=C(C(=O)OC2=CC(OC3OC(CO)C(O)C(O)C3OC(C)=O)=C(C(=O)OC3=CC(O)=C(C(O)=NC(C)C(O)=O)C(C)=C3)C(C)=C2)C(C)=C1
RETENTIONTIME:  
CCS:  -1
IONMODE:  Negative
INSTRUMENTTYPE:  
INSTRUMENT:  Maxis II HD Q-TOF Bruker
COLLISIONENERGY:  
Comment:  DB#=CCMSLIB00000850838; origin=GNPS
Num Peaks:  44
71.02331	10.0
88.04034	150.0
100.04763	10.0
105.03341	110.0
113.02287	10.0
114.01948	950.0
119.03975	20.0
122.0339	20.0
123.04452	910.0
130.04903	20.0
132.04366	20.0
135.04619	50.0
136.04167	10.0
143.70335	10.0
145.02968	20.0
147.03207	110.0
148.03935	40.0
149.02312	1000.0
150.02184	10.0
150.09616	10.0
151.03911	50.0
159.04192	10.0
164.04063	10.0
165.04335	10.0
166.04921	50.0
167.03291	120.0
176.07111	270.0
178.0518	20.0
194.08273	370.0
220.06059	90.0
238.07182	550.0
239.06844	10.0
243.1032	30.0
252.09019	40.0
340.84998	20.0
345.10788	10.0
353.09879	10.0
445.14789	10.0
566.17474	40.0
710.21741	80.0
728.21863	40.0
770.23413	190.0
770.30981	10.0
771.22864	20.0

NAME:  NCGC00347420-02_C39H65NO12_15-Hydroxyspirosolan-3-yl 2-O-(6-deoxy-alpha-L-mannopyranosyl)-beta-D-glucopyranoside
PRECURSORMZ:  784.44887908483
PRECURSORTYPE:  [M+FA-H]-
FORMULA:  C39H65NO12
Ontology: ;;;
INCHIKEY:  RNUHPRWYDXEBOM-UHFFFAOYNA-N
SMILES:  CC1C2C(OC11CCC(C)CN1)C(O)C1C3CCC4CC(CCC4(C)C3CCC21C)OC1OC(CO)C(O)C(O)C1OC1OC(C)C(O)C(O)C1O
RETENTIONTIME:  
CCS:  -1
IONMODE:  Negative
INSTRUMENTTYPE:  
INSTRUMENT:  Maxis II HD Q-TOF Bruker
COLLISIONENERGY:  
Comment:  DB#=CCMSLIB00000850091; origin=GNPS
Num Peaks:  12
101.02489	20.0
113.02535	30.0
143.0349	30.0
159.0285	20.0
161.04546	110.0
163.0625	10.0
205.07216	20.0
592.38678	220.0
593.39404	30.0
737.43402	20.0
738.44513	1000.0
739.45123	140.0

NAME:  Pesticide4_Metaflumizone_C24H16F6N4O2_(2E)-2-{2-(4-Cyanophenyl)-1-[3-(trifluoromethyl)phenyl]ethylidene}-N-[4-(trifluoromethoxy)phenyl]hydrazinecarboxamide
PRECURSORMZ:  541.0871460089
PRECURSORTYPE:  [M+Cl]-
FORMULA:  C24H16F6N4O2
Ontology: ;;;
INCHIKEY:  MIFOMMKAVSCNKQ-UHFFFAOYSA-N
SMILES:  OC(NC1=CC=C(OC(F)(F)F)C=C1)=NN=C(CC1=CC=C(C=C1)C#N)C1=CC(=CC=C1)C(F)(F)F
RETENTIONTIME:  
CCS:  -1
IONMODE:  Negative
INSTRUMENTTYPE:  
INSTRUMENT:  Maxis HD qTOF
COLLISIONENERGY:  
Comment:  DB#=CCMSLIB00001058366; origin=GNPS
Num Peaks:  7
102.03712	10.0
117.04427	10.0
141.04588	10.0
285.06586	30.0
302.09201	1000.0
328.07544	30.0
505.11539	30.0

NAME:  NCGC00380247-01_C26H30O7_Oxireno[4',5']pyrano[4',3':5,6]naphth[2,1-c]oxepin-3,10,12(1H,5aH,10aH)-trione, 8-(3-furanyl)-5b,6,7,7a,8,11b,13,13a-octahydro-1,1,5a,7a,11b-pentamethyl-, (5aR,7aS,8S,10aS,11aR,11bR)-
PRECURSORMZ:  499.19735585383
PRECURSORTYPE:  [M+FA-H]-
FORMULA:  C26H30O7
Ontology: ;;;
INCHIKEY:  MAYJEFRPIKEYBL-UHFFFAOYNA-N
SMILES:  CC12CCC3C4(C)C=CC(=O)OC(C)(C)C4CC(=O)C3(C)C11OC1C(=O)OC2C1=COC=C1
RETENTIONTIME:  
CCS:  -1
IONMODE:  Negative
INSTRUMENTTYPE:  
INSTRUMENT:  Maxis II HD Q-TOF Bruker
COLLISIONENERGY:  
Comment:  DB#=CCMSLIB00000849254; origin=GNPS
Num Peaks:  40
71.57827	40.0
83.01115	50.0
135.08032	20.0
147.04543	40.0
147.08342	40.0
152.0862	40.0
165.08893	50.0
167.5011	20.0
199.11427	20.0
199.14433	30.0
224.76553	10.0
229.1711	30.0
247.40141	20.0
249.02617	40.0
255.1824	30.0
265.11218	30.0
267.84207	30.0
274.99197	20.0
295.16397	30.0
297.02194	20.0
315.19507	20.0
331.18051	30.0
335.05258	20.0
347.20078	20.0
357.17661	20.0
380.17413	30.0
381.16302	10.0
383.18805	30.0
391.19077	120.0
398.98633	20.0
402.16647	20.0
407.17572	90.0
407.21118	30.0
409.19888	20.0
415.0043	30.0
435.18417	50.0
438.05994	20.0
448.38635	30.0
453.19211	1000.0
455.21057	20.0

NAME:  NCGC00380842-01_C42H54O25_3-{5-(3,4-Dihydroxy-4-methyl-5-oxotetrahydro-2-furanyl)-2-[(6-O-{3-[5-(3,4-dihydroxy-4-methyl-5-oxotetrahydro-2-furanyl)-2-(beta-D-glucopyranosyloxy)-4-methoxyphenyl]propanoyl}-beta-D-glucopyranosyl)oxy]-4-methoxyphenyl}propanoic acid
PRECURSORMZ:  939.27757610683
PRECURSORTYPE:  [M-H2O-H]-
FORMULA:  C42H54O25
Ontology: Kingdom: Organic compounds;Superclass: Organic oxygen compounds;Class: Organooxygen compounds;Subclass: Carbohydrates and carbohydrate conjugates
INCHIKEY:  HPDJFHJDZYIBCP-UHFFFAOYNA-N
SMILES:  COC1=C(C=C(CCC(O)=O)C(OC2OC(COC(=O)CCC3=CC(C4OC(=O)C(C)(O)C4O)=C(OC)C=C3OC3OC(CO)C(O)C(O)C3O)C(O)C(O)C2O)=C1)C1OC(=O)C(C)(O)C1O
RETENTIONTIME:  
CCS:  -1
IONMODE:  Negative
INSTRUMENTTYPE:  
INSTRUMENT:  Maxis II HD Q-TOF Bruker
COLLISIONENERGY:  
Comment:  DB#=CCMSLIB00000851234; origin=GNPS
Num Peaks:  30
99.00606	20.0
135.04105	20.0
148.05667	20.0
150.06837	20.0
159.03848	20.0
178.06461	70.0
191.34723	20.0
193.08466	250.0
195.06633	20.0
201.05565	10.0
204.03871	20.0
217.04701	10.0
219.06511	130.0
222.0601	10.0
237.07724	1000.0
238.07878	40.0
278.08374	10.0
281.09641	10.0
307.07358	20.0
409.09741	10.0
421.13724	10.0
469.13489	20.0
487.14658	130.0
529.15588	10.0
689.1886	10.0
777.21246	50.0
778.21582	20.0
939.27472	160.0
940.07092	10.0
940.29614	50.0

NAME:  Pesticide2_Thidiazuron_C9H8N4OS_1-Phenyl-3-(1,2,3-thiadiazol-5-yl)urea
PRECURSORMZ:  219.03460561583
PRECURSORTYPE:  [M-H]-
FORMULA:  C9H8N4OS
Ontology: ;;;
INCHIKEY:  HFCYZXMHUIHAQI-UHFFFAOYSA-N
SMILES:  OC(NC1=CN=NS1)=NC1=CC=CC=C1
RETENTIONTIME:  
CCS:  146.9348485
IONMODE:  Negative
INSTRUMENTTYPE:  
INSTRUMENT:  Q-Exactive Plus Orbitrap Res 70k
COLLISIONENERGY:  
Comment:  DB#=CCMSLIB00001058414; origin=GNPS
Num Peaks:  3
70.98286	210.0
71.99072	50.0
99.99747	1000.0

NAME:  NCGC00179819-03_C25H30O9_(4R,6aR,9S,9aR,9bR)-9-Methyl-3,6-bis(methylene)-2,8-dioxododecahydroazuleno[4,5-b]furan-4-yl (2E)-4-hydroxy-2-({[(2E)-4-hydroxy-2-methyl-2-butenoyl]oxy}methyl)-2-butenoate
PRECURSORMZ:  519.18718509383
PRECURSORTYPE:  [M+FA-H]-
FORMULA:  C25H30O9
Ontology: ;;;
INCHIKEY:  VUJFFBGJRUFEKJ-UHFFFAOYNA-N
SMILES:  CC1C2C(CC1=O)C(=C)CC(OC(=O)C(COC(=O)C(C)=CCO)=CCO)C1C2OC(=O)C1=C
RETENTIONTIME:  
CCS:  -1
IONMODE:  Negative
INSTRUMENTTYPE:  
INSTRUMENT:  Maxis II HD Q-TOF Bruker
COLLISIONENERGY:  
Comment:  DB#=CCMSLIB00000850130; origin=GNPS
Num Peaks:  29
97.02857	70.0
113.02626	160.0
114.4107	30.0
114.84299	40.0
114.91623	30.0
115.04021	1000.0
115.12375	20.0
116.98652	20.0
123.04159	60.0
130.63809	10.0
131.03285	80.0
137.05891	40.0
147.07762	30.0
149.09471	40.0
154.81665	30.0
155.92432	70.0
161.06192	30.0
187.07135	60.0
189.05821	40.0
199.11499	40.0
215.10686	40.0
229.0721	120.0
234.11331	20.0
261.11911	30.0
269.11911	30.0
295.13004	30.0
357.1011	30.0
357.13715	40.0
1926.47791	30.0

NAME:  NCGC00169928-02_C25H24O13_(6aR,12aR)-6a,12a-Dihydro-6H-[1,3]dioxolo[5,6][1]benzofuro[3,2-c]chromen-3-yl 6-O-(carboxyacetyl)-beta-D-glucopyranoside
PRECURSORMZ:  531.11441438083
PRECURSORTYPE:  [M-H]-
FORMULA:  C25H24O13
Ontology: ;;;
INCHIKEY:  ZHXRWFOBROFZAC-UHFFFAOYNA-N
SMILES:  OC1C(COC(=O)CC(O)=O)OC(OC2=CC3=C(C=C2)C2OC4=CC5=C(OCO5)C=C4C2CO3)C(O)C1O
RETENTIONTIME:  
CCS:  211.9750268
IONMODE:  Negative
INSTRUMENTTYPE:  
INSTRUMENT:  Maxis II HD Q-TOF Bruker
COLLISIONENERGY:  
Comment:  DB#=CCMSLIB00000851408; origin=GNPS
Num Peaks:  14
136.87624	10.0
137.02719	10.0
145.03156	30.0
209.05733	20.0
213.05768	10.0
225.06218	10.0
225.3824	20.0
240.04755	20.0
254.05801	110.0
255.06622	90.0
268.0401	10.0
281.03311	10.0
283.06119	1000.0
1694.28857	10.0

NAME:  NCGC00169372-02_C27H34O16_2-(beta-D-Glucopyranosyloxy)benzyl 3-(hexopyranosyloxy)-6-hydroxy-2-methoxybenzoate
PRECURSORMZ:  659.18288756283
PRECURSORTYPE:  [M+FA-H]-
FORMULA:  C27H34O16
Ontology: ;;;
INCHIKEY:  WQQJTVODGXZMHF-UHFFFAOYNA-N
SMILES:  COC1=C(OC2OC(CO)C(O)C(O)C2O)C=CC(O)=C1C(=O)OCC1=CC=CC=C1OC1OC(CO)C(O)C(O)C1O
RETENTIONTIME:  
CCS:  -1
IONMODE:  Negative
INSTRUMENTTYPE:  
INSTRUMENT:  Maxis II HD Q-TOF Bruker
COLLISIONENERGY:  
Comment:  DB#=CCMSLIB00000851058; origin=GNPS
Num Peaks:  15
123.00782	30.0
124.01681	60.0
138.03307	160.0
139.03934	160.0
161.04663	50.0
181.05185	40.0
183.03065	470.0
193.05023	20.0
301.09253	130.0
313.0567	10.0
345.0831	1000.0
435.09183	10.0
450.10724	10.0
451.12607	150.0
613.17767	60.0

NAME:  NCGC00169365-03_C25H32O8_5H-Furo[3,4-i]oxepino[4,3-a]xanthene-3,12-dione, 1,2,5a,6,7,7a,10,14,14a,14b-decahydro-5a,6-dihydroxy-13-methoxy-5,5,7a,9,14b-pentamethyl-
PRECURSORMZ:  505.20792053783
PRECURSORTYPE:  [M+FA-H]-
FORMULA:  C25H32O8
Ontology: ;;;
INCHIKEY:  ZVTVYIVILDSYIK-UHFFFAOYNA-N
SMILES:  COC1=C2C(=O)OCC2=C(C)C2=C1CC1C(C)(CC(O)C3(O)C1(C)CCC(=O)OC3(C)C)O2
RETENTIONTIME:  
CCS:  -1
IONMODE:  Negative
INSTRUMENTTYPE:  
INSTRUMENT:  Maxis II HD Q-TOF Bruker
COLLISIONENERGY:  
Comment:  DB#=CCMSLIB00000850649; origin=GNPS
Num Peaks:  26
97.34834	80.0
133.07863	130.0
136.05521	80.0
140.59354	20.0
149.96681	20.0
171.07016	90.0
191.02486	70.0
192.04225	120.0
209.00662	50.0
209.09097	80.0
238.04439	50.0
277.00467	70.0
283.09198	70.0
289.1124	90.0
301.0119	70.0
339.17163	70.0
368.12125	120.0
383.14813	490.0
400.12296	40.0
400.59592	30.0
400.70078	70.0
401.15714	1000.0
401.20435	130.0
459.19983	260.0
459.24561	110.0
493.3714	20.0

NAME:  Pesticide4_Doramectin_C50H74O14_Dectomax
PRECURSORMZ:  943.50605961083
PRECURSORTYPE:  [M+FA-H]-
FORMULA:  C50H74O14
Ontology: Kingdom: Organic compounds;Superclass: Phenylpropanoids and polyketides;Class: Macrolides and analogues;
INCHIKEY:  QLFZZSKTJWDQOS-UHFFFAOYNA-N
SMILES:  COC1CC(OC2C(C)OC(CC2OC)OC2C(C)C=CC=C3COC4C(O)C(C)=CC(C(=O)OC5CC(CC=C2C)OC2(C5)OC(C5CCCCC5)C(C)C=C2)C34O)OC(C)C1O
RETENTIONTIME:  
CCS:  -1
IONMODE:  Negative
INSTRUMENTTYPE:  
INSTRUMENT:  Maxis HD qTOF
COLLISIONENERGY:  
Comment:  DB#=CCMSLIB00001058382; origin=GNPS
Num Peaks:  132
83.0484	10.0
84.02259	100.0
85.02971	70.0
97.06585	30.0
100.93327	20.0
107.05237	30.0
109.02982	80.0
110.03872	20.0
111.04521	60.0
113.02251	20.0
115.91817	20.0
116.92897	90.0
123.08	40.0
125.06662	20.0
131.08374	10.0
133.33197	30.0
134.03545	10.0
135.03952	50.0
137.05818	40.0
146.06981	20.0
147.11121	10.0
149.06607	10.0
149.09796	40.0
151.03943	10.0
153.05283	40.0
159.07973	20.0
161.05853	30.0
165.98183	20.0
169.10457	20.0
171.11676	10.0
183.1179	20.0
185.05719	10.0
185.10681	10.0
197.09749	40.0
199.12341	10.0
201.05196	10.0
211.11501	30.0
214.06126	20.0
214.09892	10.0
216.12018	30.0
217.12233	10.0
223.07585	40.0
225.09297	30.0
229.10818	1000.0
229.36127	10.0
230.11223	50.0
234.98264	10.0
237.14815	20.0
237.9949	10.0
241.09041	50.0
241.15909	10.0
249.02211	20.0
254.12383	10.0
254.98434	20.0
258.87814	20.0
260.10345	30.0
260.98044	10.0
261.1091	20.0
263.25562	10.0
281.01245	20.0
309.18533	20.0
317.15875	10.0
320.9975	10.0
329.20825	30.0
337.13821	10.0
342.98856	10.0
345.14575	60.0
348.98795	20.0
354.99438	10.0
361.17746	30.0
381.23077	20.0
392.99829	20.0
399.23111	20.0
400.98676	20.0
402.98181	20.0
410.96741	10.0
420.02838	10.0
421.58795	10.0
431.22839	10.0
432.15994	10.0
432.27014	10.0
443.21991	180.0
454.9718	20.0
481.19315	10.0
503.26367	10.0
517.01715	10.0
518.0033	20.0
529.32733	20.0
543.96979	10.0
544.97644	10.0
548.9566	10.0
554.85559	20.0
555.32318	90.0
556.30872	30.0
556.42023	20.0
560.96545	20.0
562.97516	20.0
573.31671	50.0
575.26874	90.0
577.98743	10.0
591.33704	40.0
592.3288	20.0
600.98767	10.0
635.51331	10.0
653.96405	10.0
655.36707	20.0
661.89728	20.0
667.35327	20.0
679.0014	10.0
735.39667	10.0
749.39331	10.0
766.98053	20.0
767.44324	20.0
770.98389	10.0
785.42151	30.0
788.45416	10.0
796.95068	20.0
805.99799	30.0
826.95129	10.0
836.42792	20.0
843.45496	10.0
853.5191	50.0
854.52332	30.0
861.48157	220.0
862.47754	100.0
879.49207	390.0
879.57562	30.0
880.50549	70.0
897.50519	130.0
898.51447	50.0
900.20587	20.0
942.96307	10.0

NAME:  NCGC00180563-02_C48H76O18_beta-D-Glucopyranose, 4-O-(6-deoxy-alpha-L-mannopyranosyl)-1-O-[(3beta,5xi,9xi)-3-(beta-D-glucopyranuronosyloxy)-28-oxoolean-12-en-28-yl]-
PRECURSORMZ:  939.49588915483
PRECURSORTYPE:  [M-H]-
FORMULA:  C48H76O18
Ontology: Kingdom: Organic compounds;Superclass: Lipids and lipid;Class: Prenol lipids;Subclass: Terpene glycosides
INCHIKEY:  KEBWMOINOKSPFY-UHFFFAOYNA-N
SMILES:  CC1OC(OC2C(O)C(O)C(OC(=O)C34CCC(C)(C)CC3C3=CCC5C6(C)CCC(OC7OC(C(O)C(O)C7O)C(O)=O)C(C)(C)C6CCC5(C)C3(C)CC4)OC2CO)C(O)C(O)C1O
RETENTIONTIME:  
CCS:  -1
IONMODE:  Negative
INSTRUMENTTYPE:  
INSTRUMENT:  Maxis II HD Q-TOF Bruker
COLLISIONENERGY:  
Comment:  DB#=CCMSLIB00000849203; origin=GNPS
Num Peaks:  16
99.00835	20.0
111.00888	20.0
113.02509	20.0
139.00223	20.0
157.01385	10.0
455.35419	40.0
497.36517	20.0
551.37476	40.0
569.38574	50.0
715.44421	100.0
716.44708	10.0
777.44647	130.0
778.44861	30.0
939.49774	1000.0
940.50043	270.0
941.50568	30.0

NAME:  NCGC00169648-02_C17H20O9_5-Benzofuranpropanoic acid, 6-(beta-D-glucopyranosyloxy)-
PRECURSORMZ:  367.10345577183
PRECURSORTYPE:  [M-H]-
FORMULA:  C17H20O9
Ontology: ;;;
INCHIKEY:  OHMWGMHIZWOKHV-UHFFFAOYNA-N
SMILES:  OCC1OC(OC2=C(CCC(O)=O)C=C3C=COC3=C2)C(O)C(O)C1O
RETENTIONTIME:  
CCS:  189.5150133
IONMODE:  Negative
INSTRUMENTTYPE:  
INSTRUMENT:  Maxis II HD Q-TOF Bruker
COLLISIONENERGY:  
Comment:  DB#=CCMSLIB00000850022; origin=GNPS
Num Peaks:  13
86.0017	10.0
93.2374	10.0
104.44724	10.0
159.04385	20.0
161.05925	510.0
165.25101	10.0
187.02527	30.0
187.05086	20.0
196.24733	20.0
205.05098	1000.0
206.05492	30.0
367.08969	20.0
413.31693	40.0

NAME:  NCGC00380940-01_C36H60O10_
PRECURSORMZ:  651.41137167983
PRECURSORTYPE:  [M-H]-
FORMULA:  C36H60O10
Ontology: Kingdom: Organic compounds;Superclass: Lipids and lipid;Class: Prenol lipids;Subclass: Terpene glycosides
INCHIKEY:  BSLRSZZCUIZWND-UHFFFAOYNA-N
SMILES:  CC(O)(C1CCC2(C)C1CCC1(C)C2CCC2C3(C)CCC(O)C(C)(COC4OC(CO)C(O)C(O)C4O)C3CCC12C)C(O)=O
RETENTIONTIME:  
CCS:  -1
IONMODE:  Negative
INSTRUMENTTYPE:  
INSTRUMENT:  Maxis II HD Q-TOF Bruker
COLLISIONENERGY:  
Comment:  DB#=CCMSLIB00000850472; origin=GNPS
Num Peaks:  3
605.40601	30.0
651.41278	1000.0
652.41327	20.0

NAME:  NCGC00381057-01_C20H24O7_
PRECURSORMZ:  421.15040566083
PRECURSORTYPE:  [M+FA-H]-
FORMULA:  C20H24O7
Ontology: ;;;
INCHIKEY:  YSXFDQZXVFAMSB-UHFFFAOYNA-N
SMILES:  CC=C(C)C(=O)OC1C(O)C2C(CC3(C)OC3C(=O)CC1=C)OC(=O)C2=C
RETENTIONTIME:  
CCS:  -1
IONMODE:  Negative
INSTRUMENTTYPE:  
INSTRUMENT:  Maxis II HD Q-TOF Bruker
COLLISIONENERGY:  
Comment:  DB#=CCMSLIB00000849716; origin=GNPS
Num Peaks:  42
78.52429	60.0
90.15617	110.0
99.04637	780.0
105.06992	140.0
109.02791	140.0
111.00661	150.0
114.69987	130.0
133.06335	400.0
143.08795	240.0
149.05667	70.0
151.07271	280.0
160.04823	80.0
161.05354	130.0
163.0372	120.0
163.07651	520.0
163.12906	140.0
168.04662	70.0
169.0639	100.0
170.07114	120.0
171.08257	490.0
173.05943	170.0
174.06364	190.0
175.03784	90.0
179.06989	170.0
183.0806	100.0
185.05681	80.0
185.08792	120.0
188.08156	240.0
194.07561	90.0
195.07895	1000.0
198.07138	190.0
201.09232	80.0
202.06499	70.0
203.10719	80.0
211.08057	330.0
213.08968	600.0
220.08827	160.0
231.1006	380.0
233.1232	110.0
257.07761	60.0
275.08447	70.0
375.1489	780.0

NAME:  NCGC00347846-02_C30H38N2O5_(1E)-6-Hydroxy-12-(1H-indol-3-ylmethyl)-7-methoxy-4,13,13a-trimethyl-5,6,7,8,12,12a,13,13a,14a,14b-decahydro-3H-cycloundeca[d]oxireno[f]isoindole-9,10(4H,11H)-dione
PRECURSORMZ:  551.27627487983
PRECURSORTYPE:  [M+FA-H]-
FORMULA:  C30H38N2O5
Ontology: ;;;
INCHIKEY:  QTAIHYVDCKOYHV-UHFFFAOYNA-N
SMILES:  COC1CC(=O)C23C(C(CC4=CNC5=CC=CC=C45)N=C2O)C(C)C2(C)OC2C3C=CCC(C)CC1O
RETENTIONTIME:  
CCS:  -1
IONMODE:  Negative
INSTRUMENTTYPE:  
INSTRUMENT:  Maxis II HD Q-TOF Bruker
COLLISIONENERGY:  
Comment:  DB#=CCMSLIB00000849983; origin=GNPS
Num Peaks:  3
430.24164	20.0
455.24329	10.0
473.24573	1000.0

NAME:  NCGC00380754-01_C59H92O30_6-Deoxy-2-O-{6-deoxy-3-O-[(2S,3R,4R)-3-(beta-D-glucopyranosyloxy)-4-hydroxy-4-(hydroxymethyl)tetrahydro-2-furanyl]-alpha-L-altropyranosyl}-1-O-[3-(beta-D-glucopyranuronosyloxy)-2,22,23-trihydroxy-23,28-dioxoolean-12-en-28-yl]-beta-D-glucopyranose
PRECURSORMZ:  1279.56006510983
PRECURSORTYPE:  [M-H]-
FORMULA:  C59H92O30
Ontology: ;;;
INCHIKEY:  GYDFFKXZDJBBTA-UHFFFAOYNA-N
SMILES:  CC1OC(OC(=O)C23CCC4(C)C(=CCC5C6(C)CC(O)C(OC7OC(C(O)C(O)C7O)C(O)=O)C(C)(C6CCC45C)C(O)=O)C2CC(C)(C)CC3O)C(OC2OC(C)C(O)C(OC3OCC(O)(CO)C3OC3OC(CO)C(O)C(O)C3O)C2O)C(O)C1O
RETENTIONTIME:  
CCS:  -1
IONMODE:  Negative
INSTRUMENTTYPE:  
INSTRUMENT:  Maxis II HD Q-TOF Bruker
COLLISIONENERGY:  
Comment:  DB#=CCMSLIB00000850034; origin=GNPS
Num Peaks:  25
72.99384	30.0
85.02919	50.0
89.02386	50.0
95.01379	20.0
101.02393	60.0
103.00275	90.0
113.02351	420.0
131.03438	100.0
133.01385	90.0
149.04355	10.0
157.01317	60.0
163.02412	30.0
175.02399	60.0
193.03467	750.0
194.03804	20.0
337.11331	10.0
455.31497	10.0
517.31586	20.0
693.35406	20.0
1103.53271	20.0
1277.54285	20.0
1278.55884	10.0
1279.56299	1000.0
1280.56665	440.0
1281.57056	70.0

NAME:  NCGC00381007-01_C21H23NO8_(5S,8S,9R)-8-Benzoyl-2-[(1S,2S,3Z)-1,2-dihydroxy-3-hexen-1-yl]-8,9-dihydroxy-3-methyl-1-oxa-7-azaspiro[4.4]non-2-ene-4,6-dione
PRECURSORMZ:  462.14056925283
PRECURSORTYPE:  [M+FA-H]-
FORMULA:  C21H23NO8
Ontology: ;;;
INCHIKEY:  BCXXBFMWUYYHIF-UHFFFAOYNA-N
SMILES:  CCC=CC(O)C(O)C1=C(C)C(=O)C2(O1)C(O)C(O)(N=C2O)C(=O)C1=CC=CC=C1
RETENTIONTIME:  
CCS:  -1
IONMODE:  Negative
INSTRUMENTTYPE:  
INSTRUMENT:  Maxis II HD Q-TOF Bruker
COLLISIONENERGY:  
Comment:  DB#=CCMSLIB00000851275; origin=GNPS
Num Peaks:  47
83.29261	10.0
97.0315	20.0
113.01993	20.0
121.03012	20.0
121.14354	10.0
125.03307	20.0
137.0238	30.0
138.02924	30.0
139.04347	20.0
139.07375	10.0
141.01877	10.0
143.08449	10.0
145.06354	30.0
147.04773	30.0
149.02002	80.0
153.02031	70.0
155.08623	20.0
157.06769	20.0
159.06609	50.0
163.03981	250.0
166.02885	90.0
167.03195	30.0
168.02959	120.0
173.02501	120.0
175.04024	20.0
183.0844	60.0
187.07812	10.0
197.06047	10.0
197.08455	20.0
199.07574	60.0
213.05606	10.0
215.0735	10.0
225.0686	10.0
227.06989	80.0
228.03757	30.0
239.09082	20.0
243.06898	70.0
245.07559	30.0
252.09021	30.0
253.04953	10.0
254.10097	60.0
261.0806	30.0
270.71051	10.0
271.06097	1000.0
289.07657	60.0
332.08969	10.0
345.14108	10.0

NAME:  NCGC00347832-02_C19H22N2O9_Uridine, 2'-(2,4-dimethoxy-6-methylbenzoate)
PRECURSORMZ:  467.13073284383
PRECURSORTYPE:  [M+FA-H]-
FORMULA:  C19H22N2O9
Ontology: ;;;
INCHIKEY:  DOVSRUBRIYLZCI-UHFFFAOYNA-N
SMILES:  COC1=CC(OC)=C(C(=O)OC2C(O)C(CO)OC2N2C=CC(O)=NC2=O)C(C)=C1
RETENTIONTIME:  
CCS:  -1
IONMODE:  Negative
INSTRUMENTTYPE:  
INSTRUMENT:  Maxis II HD Q-TOF Bruker
COLLISIONENERGY:  
Comment:  DB#=CCMSLIB00000850937; origin=GNPS
Num Peaks:  7
121.06598	70.0
136.05176	30.0
149.061	50.0
151.07608	450.0
182.04384	10.0
195.06689	1000.0
421.11395	30.0

NAME:  NCGC00381048-01_C25H26O7_
PRECURSORMZ:  483.16605572483
PRECURSORTYPE:  [M+FA-H]-
FORMULA:  C25H26O7
Ontology: Kingdom: Organic compounds;Superclass: Lipids and lipid;Class: Prenol lipids;Subclass: Terpene lactones
INCHIKEY:  YEOVVCBEYCCOOP-UHFFFAOYNA-N
SMILES:  CC(C)=CCCC(C)=CCC1=C(O)C(C2OC(=O)C3=C2C(O)=CC(=C3)C(O)=O)=C(O)C=C1
RETENTIONTIME:  
CCS:  -1
IONMODE:  Negative
INSTRUMENTTYPE:  
INSTRUMENT:  Maxis II HD Q-TOF Bruker
COLLISIONENERGY:  
Comment:  DB#=CCMSLIB00000849700; origin=GNPS
Num Peaks:  36
123.04404	10.0
124.01612	10.0
145.03403	10.0
158.03775	10.0
169.06557	10.0
173.06656	10.0
183.04256	10.0
183.07957	10.0
185.05983	10.0
201.05429	60.0
213.05862	50.0
217.12361	10.0
226.06816	10.0
227.0685	30.0
239.09978	10.0
240.08003	40.0
243.08211	10.0
252.11479	10.0
256.02994	10.0
262.10016	30.0
265.09015	30.0
279.11234	30.0
280.11194	40.0
281.12451	30.0
305.18344	20.0
306.08884	40.0
312.14224	10.0
321.18649	10.0
321.20798	10.0
324.10275	30.0
349.18222	300.0
375.16486	30.0
393.17175	1000.0
394.40225	10.0
419.15146	40.0
437.16003	700.0

NAME:  NCGC00347753-02_C19H18N4O7_9H-Purin-6-ol, 9-[1-(3-carboxyphenyl)-2,3-dideoxyheptodialdo-7,4-furanosyl]-
PRECURSORMZ:  413.11027248383
PRECURSORTYPE:  [M-H]-
FORMULA:  C19H18N4O7
Ontology: Kingdom: Organic compounds;Superclass: Nucleosides;;
INCHIKEY:  VEDWXCWBMDQNCV-UHFFFAOYNA-N
SMILES:  OC1C(CCC(=O)C2=CC(=CC=C2)C(O)=O)OC(C1O)N1C=NC2=C1N=CN=C2O
RETENTIONTIME:  
CCS:  194.329594
IONMODE:  Negative
INSTRUMENTTYPE:  
INSTRUMENT:  Maxis II HD Q-TOF Bruker
COLLISIONENERGY:  
Comment:  DB#=CCMSLIB00000851449; origin=GNPS
Num Peaks:  8
119.05082	30.0
133.63635	30.0
135.03107	1000.0
136.03154	40.0
163.03792	50.0
189.05823	20.0
277.07272	320.0
413.11035	230.0

NAME:  NCGC00381133-01_C17H28O12_
PRECURSORMZ:  469.15627888983
PRECURSORTYPE:  [M+FA-H]-
FORMULA:  C17H28O12
Ontology: ;;;
INCHIKEY:  ZMIQCOSRPMWYLS-UHFFFAOYNA-N
SMILES:  CC=C(C)C(=O)OCC1OC(OC2OC(CO)C(O)C(O)C2O)C(O)C(O)C1O
RETENTIONTIME:  
CCS:  -1
IONMODE:  Negative
INSTRUMENTTYPE:  
INSTRUMENT:  Maxis II HD Q-TOF Bruker
COLLISIONENERGY:  
Comment:  DB#=CCMSLIB00000851019; origin=GNPS
Num Peaks:  16
87.00915	100.0
99.04399	120.0
101.0252	140.0
113.06526	70.0
117.02158	20.0
129.01793	40.0
131.04114	40.0
143.03503	50.0
161.04813	120.0
167.04517	30.0
179.06798	20.0
305.08936	10.0
322.86411	20.0
323.09836	1000.0
341.10428	40.0
423.1543	120.0

NAME:  NCGC00385663-01_C33H40O18_6-O-beta-D-Glucopyranosyl-1-O-[(2E)-3-(4-hydroxy-3,5-dimethoxyphenyl)-2-propenoyl]-2-O-[(2E)-3-(4-hydroxy-3-methoxyphenyl)-2-propenoyl]-beta-D-glucopyranose
PRECURSORMZ:  769.21966699583
PRECURSORTYPE:  [M+FA-H]-
FORMULA:  C33H40O18
Ontology: ;;;
INCHIKEY:  QYKVHEQRAXPEEL-UHFFFAOYNA-N
SMILES:  COC1=CC(C=CC(=O)OC2OC(COC3OC(CO)C(O)C(O)C3O)C(O)C(O)C2OC(=O)C=CC2=CC(OC)=C(O)C=C2)=CC(OC)=C1O
RETENTIONTIME:  
CCS:  -1
IONMODE:  Negative
INSTRUMENTTYPE:  
INSTRUMENT:  Maxis II HD Q-TOF Bruker
COLLISIONENERGY:  
Comment:  DB#=CCMSLIB00000850608; origin=GNPS
Num Peaks:  23
132.0218	40.0
134.03888	20.0
149.0244	20.0
160.01636	310.0
164.04802	30.0
175.00223	20.0
175.04071	1000.0
176.04378	20.0
179.07016	20.0
190.02766	80.0
193.05112	60.0
205.05057	290.0
223.06123	110.0
265.07034	40.0
295.08627	20.0
337.09357	30.0
367.10556	20.0
499.15088	10.0
517.15485	40.0
529.15961	40.0
547.16937	120.0
723.21631	260.0
724.21875	40.0

NAME:  Pesticide3_Triflumuron_C15H10ClF3N2O3_Benzamide, 2-chloro-N-[[[4-(trifluoromethoxy)phenyl]amino]carbonyl]-
PRECURSORMZ:  357.02592794783
PRECURSORTYPE:  [M-H]-
FORMULA:  C15H10ClF3N2O3
Ontology: ;;;
INCHIKEY:  XAIPTRIXGHTTNT-UHFFFAOYSA-N
SMILES:  OC(=NC(=O)NC1=CC=C(OC(F)(F)F)C=C1)C1=CC=CC=C1Cl
RETENTIONTIME:  
CCS:  166.1883737
IONMODE:  Negative
INSTRUMENTTYPE:  
INSTRUMENT:  Q-Exactive Plus Orbitrap Res 70k
COLLISIONENERGY:  
Comment:  DB#=CCMSLIB00001058269; origin=GNPS
Num Peaks:  6
84.9903	330.0
110.0412	30.0
154.00661	1000.0
176.03281	310.0
314.02023	20.0
357.02606	20.0

NAME:  NCGC00381039-01_C22H25NO8_8-Benzoyl-2-[(3Z)-1,2-dihydroxy-3-hexen-1-yl]-9-hydroxy-8-methoxy-3-methyl-1-oxa-7-azaspiro[4.4]non-2-ene-4,6-dione
PRECURSORMZ:  476.15621931683
PRECURSORTYPE:  [M+FA-H]-
FORMULA:  C22H25NO8
Ontology: ;;;
INCHIKEY:  SLYDIPAXCVVRNY-UHFFFAOYNA-N
SMILES:  CCC=CC(O)C(O)C1=C(C)C(=O)C2(O1)C(O)C(OC)(N=C2O)C(=O)C1=CC=CC=C1
RETENTIONTIME:  
CCS:  -1
IONMODE:  Negative
INSTRUMENTTYPE:  
INSTRUMENT:  Maxis II HD Q-TOF Bruker
COLLISIONENERGY:  
Comment:  DB#=CCMSLIB00000849995; origin=GNPS
Num Peaks:  87
70.57439	10.0
91.72243	10.0
109.02995	20.0
110.02571	20.0
111.04817	30.0
115.9407	10.0
118.19968	10.0
121.03004	10.0
124.01283	30.0
124.04021	20.0
125.02465	100.0
132.04568	20.0
135.00558	10.0
137.02516	20.0
139.03741	170.0
144.04581	10.0
144.24124	10.0
145.02931	50.0
146.0527	20.0
147.03127	20.0
151.02185	20.0
153.0199	180.0
155.03502	20.0
156.04666	80.0
158.03889	10.0
158.05992	80.0
159.06607	40.0
160.04068	460.0
162.05487	20.0
163.02869	10.0
168.04301	30.0
171.08597	10.0
174.0188	10.0
175.02557	10.0
180.33626	10.0
183.08247	20.0
184.07661	10.0
186.052	50.0
188.03523	460.0
189.0309	10.0
190.05542	20.0
192.0291	60.0
195.07007	10.0
196.07967	20.0
197.08418	40.0
199.07497	30.0
200.03552	1000.0
201.04774	30.0
202.04936	90.0
207.07262	20.0
211.99739	10.0
212.07129	110.0
213.05214	10.0
214.04861	70.0
215.0773	20.0
216.02661	20.0
217.0397	30.0
217.22983	20.0
218.04347	60.0
224.06837	200.0
225.05585	20.0
226.08603	180.0
227.03807	20.0
227.07306	40.0
228.0347	20.0
228.06924	20.0
230.04385	20.0
240.06229	20.0
242.0806	140.0
243.06645	120.0
246.07681	20.0
252.06635	70.0
253.05313	50.0
255.06216	10.0
256.06207	40.0
268.06207	130.0
270.07907	800.0
271.02835	10.0
271.05997	80.0
286.0719	420.0
296.05844	240.0
308.12967	10.0
314.06763	760.0
315.06918	20.0
352.98172	10.0
381.0733	10.0
399.18234	10.0

NAME:  NCGC00385494-01_C37H60O10_
PRECURSORMZ:  709.41685067983
PRECURSORTYPE:  [M+FA-H]-
FORMULA:  C37H60O10
Ontology: ;;;
INCHIKEY:  BGABBPGRYJSRGX-UHFFFAOYNA-N
SMILES:  CC(=O)OC1CC2C3(CC33CCC(OC4OCC(O)C(O)C4O)C(C)(C)C13)CCC1(C)C(C(O)CC21C)C1(C)CCC(O1)C(C)(C)O
RETENTIONTIME:  
CCS:  -1
IONMODE:  Negative
INSTRUMENTTYPE:  
INSTRUMENT:  Maxis II HD Q-TOF Bruker
COLLISIONENERGY:  
Comment:  DB#=CCMSLIB00000851388; origin=GNPS
Num Peaks:  24
88.83521	20.0
105.84132	10.0
107.05225	10.0
125.02374	10.0
125.05982	10.0
144.9231	10.0
165.07678	20.0
177.1286	10.0
181.08463	90.0
195.06604	50.0
209.08124	1000.0
210.08223	30.0
225.14752	10.0
249.11295	90.0
261.13266	10.0
263.12842	880.0
277.14426	220.0
317.17609	30.0
345.20554	20.0
445.2254	20.0
459.2413	380.0
473.21725	80.0
527.26196	20.0
709.36151	110.0

NAME:  NCGC00380493-01_C17H24O12_4H-Pyran-4-one, 2-methyl-3-[[6-O-[(2R,3R,4R)-tetrahydro-3,4-dihydroxy-4-(hydroxymethyl)-2-furanyl]-beta-D-glucopyranosyl]oxy]-
PRECURSORMZ:  465.12497876083
PRECURSORTYPE:  [M+FA-H]-
FORMULA:  C17H24O12
Ontology: ;;;
INCHIKEY:  OXNYNKGAOAFFBD-UHFFFAOYNA-N
SMILES:  CC1=C(OC2OC(COC3OCC(O)(CO)C3O)C(O)C(O)C2O)C(=O)C=CO1
RETENTIONTIME:  
CCS:  -1
IONMODE:  Negative
INSTRUMENTTYPE:  
INSTRUMENT:  Maxis II HD Q-TOF Bruker
COLLISIONENERGY:  
Comment:  DB#=CCMSLIB00000849307; origin=GNPS
Num Peaks:  9
119.0315	70.0
125.02364	530.0
131.6217	20.0
143.03246	220.0
149.04712	170.0
175.05827	40.0
191.05643	130.0
233.06676	610.0
293.08606	1000.0

NAME:  NCGC00168838-03_C30H46O5_(1R,2S,5aR,5bR,7aS,10R,12bR)-2-Hydroxy-10-isopropenyl-3,3,5a,5b,12b-pentamethyloctadecahydrodicyclopenta[a,i]phenanthrene-1,7a(1H)-dicarboxylic acid
PRECURSORMZ:  531.33272712883
PRECURSORTYPE:  [M+FA-H]-
FORMULA:  C30H46O5
Ontology: ;;;
INCHIKEY:  WLCHQSHZHFLMJH-UHFFFAOYNA-N
SMILES:  CC(=C)C1CCC2(CCC3(C)C(CCC4C5(C)C(C(O)C(C)(C)C5CCC34C)C(O)=O)C12)C(O)=O
RETENTIONTIME:  
CCS:  -1
IONMODE:  Negative
INSTRUMENTTYPE:  
INSTRUMENT:  Maxis II HD Q-TOF Bruker
COLLISIONENERGY:  
Comment:  DB#=CCMSLIB00000851367; origin=GNPS
Num Peaks:  2
423.32791	30.0
485.3269	1000.0

NAME:  Pesticide4_Eprinomectin_C50H75NO14_(1'R,2S,4'S,5S,6R,8'R,10'E,12'S,13'S,14'E,16'E,20'R,21'R,24'S)-6-[(2R)-2-Butanyl]-21',24'-dihydroxy-5,11',13',22'-tetramethyl-2'-oxo-5,6-dihydrospiro[pyran-2,6'-[3,7,19]trioxatetracyclo[15.6.1.1~4,8~.0~20,24~]pentacosa[10,14,16,22]tetraen]-12'-yl 4-O-(4-acetamido-2,4,6-trideoxy-3-O-methyl-alpha-L-arabino-hexopyranosyl)-2,6-dideoxy-3-O-methyl-alpha-L-arabino-hexopyranoside
PRECURSORMZ:  912.51147964683
PRECURSORTYPE:  [M-H]-
FORMULA:  C50H75NO14
Ontology: ;;;
INCHIKEY:  ZKWQQXZUCOBISE-UHFFFAOYNA-N
SMILES:  [H]C12CC([H])(CC=C(C)C(OC3CC(OC)C(OC4CC(OC)C(N=C(C)O)C(C)O4)C(C)O3)C(C)C=CC=C3COC4C(O)C(C)=CC(C(=O)O1)C34O)OC1(C2)OC(C(C)CC)C(C)C=C1
RETENTIONTIME:  
CCS:  333.6162543
IONMODE:  Negative
INSTRUMENTTYPE:  
INSTRUMENT:  Q-Exactive Plus Orbitrap Res 70k
COLLISIONENERGY:  
Comment:  DB#=CCMSLIB00001058402; origin=GNPS
Num Peaks:  34
81.03436	70.0
83.05011	50.0
84.02161	380.0
85.02939	970.0
85.03084	10.0
95.05028	10.0
97.0296	30.0
97.0659	190.0
107.05039	40.0
108.0459	60.0
109.02972	250.0
110.06149	280.0
111.04552	40.0
121.02989	30.0
123.04548	30.0
124.07719	20.0
126.05653	10.0
134.06154	30.0
135.04564	140.0
137.06105	50.0
152.07214	320.0
161.06084	10.0
173.06088	10.0
176.0721	110.0
179.07179	20.0
179.08713	10.0
184.09824	50.0
194.08269	50.0
197.0974	50.0
223.07649	30.0
270.13501	1000.0
455.2814	10.0
565.31775	50.0
894.49988	10.0

NAME:  NCGC00380815-01_C31H42O7_5-Heptenoic acid, 2-[(4alpha,5alpha,6beta,8alpha,9beta,13alpha,14beta,16beta,17E)-16-(acetyloxy)-6-hydroxy-4,8,10,14-tetramethyl-3,7-dioxogon-1-en-17-ylidene]-6-methyl-, (2E)-
PRECURSORMZ:  571.29125623983
PRECURSORTYPE:  [M+FA-H]-
FORMULA:  C31H42O7
Ontology: ;;;
INCHIKEY:  ZGQQEJUGWPCCHA-UHFFFAOYNA-N
SMILES:  CC1C2C(O)C(=O)C3(C)C(CCC4C(C(CC34C)OC(C)=O)=C(CCC=C(C)C)C(O)=O)C2(C)C=CC1=O
RETENTIONTIME:  
CCS:  -1
IONMODE:  Negative
INSTRUMENTTYPE:  
INSTRUMENT:  Maxis II HD Q-TOF Bruker
COLLISIONENERGY:  
Comment:  DB#=CCMSLIB00000849887; origin=GNPS
Num Peaks:  65
87.04704	20.0
119.08516	10.0
121.06388	120.0
134.07475	10.0
135.05318	20.0
137.0614	20.0
138.06531	10.0
147.07666	10.0
151.07271	50.0
161.09442	30.0
167.10638	10.0
177.05408	30.0
179.10873	10.0
197.09822	10.0
201.16592	30.0
203.06914	120.0
207.09804	10.0
217.12219	20.0
219.10081	40.0
221.11353	70.0
223.90326	10.0
229.1246	10.0
233.11789	30.0
234.09451	10.0
247.15692	20.0
253.16333	10.0
299.19571	20.0
309.19003	20.0
311.19958	60.0
312.17026	30.0
312.19479	30.0
323.16284	20.0
327.18912	10.0
333.22659	20.0
337.25314	10.0
338.18732	10.0
341.1781	60.0
346.98846	10.0
353.2048	20.0
359.22964	10.0
365.21155	10.0
369.21738	10.0
383.23471	10.0
391.22714	180.0
393.27576	40.0
399.21799	30.0
403.26062	40.0
406.24957	170.0
409.24185	80.0
421.27383	720.0
424.26709	30.0
435.21573	40.0
435.26407	20.0
450.23975	60.0
451.24844	30.0
453.26425	60.0
463.28635	60.0
464.6279	20.0
465.2641	990.0
466.27682	80.0
479.2916	10.0
481.29471	380.0
483.27713	190.0
525.28595	1000.0
526.28809	10.0

NAME:  Pesticide8_Hydramethylnon_C25H24F6N4_2(1H)-Pyrimidinone, tetrahydro-5,5-dimethyl-, 2-[(2E)-3-[4-(trifluoromethyl)phenyl]-1-[(E)-2-[4-(trifluoromethyl)phenyl]ethenyl]-2-propen-1-ylidene]hydrazone
PRECURSORMZ:  493.18323931483
PRECURSORTYPE:  [M-H]-
FORMULA:  C25H24F6N4
Ontology: Kingdom: Organic compounds;Superclass: Benzenoids;Class: Benzene and substituted derivatives;Subclass: Trifluoromethylbenzenes
INCHIKEY:  IQVNEKKDSLOHHK-UHFFFAOYSA-N
SMILES:  CC1(C)CNC(NN=C(C=CC2=CC=C(C=C2)C(F)(F)F)C=CC2=CC=C(C=C2)C(F)(F)F)=NC1
RETENTIONTIME:  
CCS:  205.5318664
IONMODE:  Negative
INSTRUMENTTYPE:  
INSTRUMENT:  Maxis HD qTOF
COLLISIONENERGY:  
Comment:  DB#=CCMSLIB00001058394; origin=GNPS
Num Peaks:  28
145.02577	240.0
159.04707	30.0
164.04568	10.0
177.09921	10.0
186.0542	10.0
189.01567	30.0
198.056	20.0
213.31888	10.0
237.06566	560.0
238.05992	60.0
242.12398	20.0
255.11086	30.0
276.13318	340.0
294.12137	50.0
296.1387	520.0
298.05606	10.0
315.07385	10.0
334.14444	10.0
335.0838	10.0
347.14777	260.0
353.07559	20.0
355.09048	140.0
363.09323	20.0
381.08444	70.0
383.09909	210.0
417.10944	10.0
437.11841	60.0
493.18579	1000.0

NAME:  NCGC00380321-01_C15H22O4_11-(Hydroxymethyl)-2,11-dimethyl-3-oxotricyclo[4.3.2.0~1,5~]undecane-9-carboxylic acid
PRECURSORMZ:  311.15001173583
PRECURSORTYPE:  [M+FA-H]-
FORMULA:  C15H22O4
Ontology: ;;;
INCHIKEY:  QIYQVTNAEPQSBX-UHFFFAOYNA-N
SMILES:  CC1C(=O)CC2C3CCC(C(O)=O)C12CC3(C)CO
RETENTIONTIME:  
CCS:  -1
IONMODE:  Negative
INSTRUMENTTYPE:  
INSTRUMENT:  Maxis II HD Q-TOF Bruker
COLLISIONENERGY:  
Comment:  DB#=CCMSLIB00000849491; origin=GNPS
Num Peaks:  9
142.03114	40.0
165.91885	40.0
183.02576	30.0
191.14603	70.0
192.11043	30.0
221.15428	30.0
265.14444	1000.0
268.11349	20.0
1130.38342	20.0

NAME:  NCGC00380519-01_C25H30O13_
PRECURSORMZ:  583.16684357383
PRECURSORTYPE:  [M+FA-H]-
FORMULA:  C25H30O13
Ontology: ;;;
INCHIKEY:  USQLNPJSDYEFJF-UHFFFAOYNA-N
SMILES:  CC1(O)CC(O)C2C1C(OC1OC(CO)C(O)C(O)C1OC(=O)C=CC1=CC=C(O)C=C1)OC=C2C(O)=O
RETENTIONTIME:  
CCS:  -1
IONMODE:  Negative
INSTRUMENTTYPE:  
INSTRUMENT:  Maxis II HD Q-TOF Bruker
COLLISIONENERGY:  
Comment:  DB#=CCMSLIB00000849686; origin=GNPS
Num Peaks:  26
109.03174	60.0
113.02747	50.0
117.03501	100.0
145.02728	210.0
149.0605	130.0
153.01761	30.0
161.04781	40.0
163.04424	70.0
167.03375	40.0
167.07266	100.0
174.77052	30.0
177.07173	30.0
182.10728	10.0
185.08221	140.0
193.0522	40.0
229.0685	100.0
235.05904	20.0
254.1324	20.0
289.02979	20.0
353.08182	30.0
373.11252	390.0
391.12259	70.0
537.16223	1000.0
537.55841	20.0
540.51569	20.0
749.05951	20.0

NAME:  NCGC00381002-01_C25H33NO6_Spiro[2H-furo[2,3-e]isoindole-2,1'(2'H)-naphthalen]-6(3H)-one, 7'-(acetyloxy)-3',4',4'a,5',6',7,7',8,8',8'a-decahydro-4,6'-dihydroxy-2',5',5',8'a-tetramethyl-, (2R,2'R,4a'S,6'S,8a'S)-
PRECURSORMZ:  488.22899033483
PRECURSORTYPE:  [M+FA-H]-
FORMULA:  C25H33NO6
Ontology: Kingdom: Organic compounds;Superclass: Organoheterocyclic compounds;Class: Isoindoles and derivatives;Subclass: Isoindoles
INCHIKEY:  MLWSQMMSROWDTI-UHFFFAOYNA-N
SMILES:  CC1CCC2C(C)(C)C(O)C(CC2(C)C11CC2=C(O)C=C3C(O)=NCC3=C2O1)OC(C)=O
RETENTIONTIME:  
CCS:  -1
IONMODE:  Negative
INSTRUMENTTYPE:  
INSTRUMENT:  Maxis II HD Q-TOF Bruker
COLLISIONENERGY:  
Comment:  DB#=CCMSLIB00000851259; origin=GNPS
Num Peaks:  9
148.03801	20.0
167.22853	10.0
176.03761	40.0
177.04068	80.0
209.03323	10.0
258.07785	10.0
382.20193	180.0
400.21185	180.0
442.22375	1000.0

NAME:  Pesticide3_Forchlorfenuron_C12H10ClN3O_Urea, N-(2-chloro-4-pyridinyl)-N'-phenyl-
PRECURSORMZ:  246.04396324783
PRECURSORTYPE:  [M-H]-
FORMULA:  C12H10ClN3O
Ontology: ;;;
INCHIKEY:  GPXLRLUVLMHHIK-UHFFFAOYSA-N
SMILES:  OC(NC1=CC(Cl)=NC=C1)=NC1=CC=CC=C1
RETENTIONTIME:  
CCS:  153.9220802
IONMODE:  Negative
INSTRUMENTTYPE:  
INSTRUMENT:  Q-Exactive Plus Orbitrap Res 70k
COLLISIONENERGY:  
Comment:  DB#=CCMSLIB00001058245; origin=GNPS
Num Peaks:  2
91.02988	80.0
127.00723	1000.0

NAME:  NCGC00380086-01_C23H30O6_2,4,6-Octatrienoic acid, (5aS,9aS,9bS)-1,3,5,5a,6,7,8,9,9a,9b-decahydro-3,9b-dihydroxy-6,6,9a-trimethyl-1-oxonaphtho[1,2-c]furan-5-yl ester, (2E,4E,6E)-
PRECURSORMZ:  401.19696223383
PRECURSORTYPE:  [M-H]-
FORMULA:  C23H30O6
Ontology: ;;;
INCHIKEY:  SZNYTCZAXYAIIP-UHFFFAOYNA-N
SMILES:  CC=CC=CC=CC(=O)OC1C=C2C(O)OC(=O)C2(O)C2(C)CCCC(C)(C)C12
RETENTIONTIME:  
CCS:  -1
IONMODE:  Negative
INSTRUMENTTYPE:  
INSTRUMENT:  Maxis II HD Q-TOF Bruker
COLLISIONENERGY:  
Comment:  DB#=CCMSLIB00000850331; origin=GNPS
Num Peaks:  11
133.71158	40.0
137.06133	150.0
150.06783	20.0
191.14751	100.0
201.13072	90.0
204.10516	20.0
219.09941	20.0
219.13815	440.0
235.13243	300.0
263.12878	1000.0
401.20499	60.0

NAME:  NCGC00380661-01_C23H36O12_
PRECURSORMZ:  503.21340014683
PRECURSORTYPE:  [M-H]-
FORMULA:  C23H36O12
Ontology: ;;;
INCHIKEY:  LVOGPECZHVNNHD-UHFFFAOYNA-N
SMILES:  COC(=O)C(C)=CCCC(C)(OC1OC(COC(=O)CC(C)(O)CC(O)=O)C(O)C(O)C1O)C=C
RETENTIONTIME:  
CCS:  -1
IONMODE:  Negative
INSTRUMENTTYPE:  
INSTRUMENT:  Maxis II HD Q-TOF Bruker
COLLISIONENERGY:  
Comment:  DB#=CCMSLIB00000850274; origin=GNPS
Num Peaks:  40
71.02058	70.0
101.0229	290.0
105.01932	80.0
113.02583	60.0
113.10276	30.0
113.22884	40.0
123.04149	220.0
125.02464	1000.0
126.96124	30.0
131.03795	50.0
141.05151	420.0
143.03471	130.0
147.08051	50.0
153.06418	60.0
155.03214	100.0
161.04695	340.0
164.08109	60.0
179.05406	160.0
179.10703	270.0
180.51279	50.0
181.41223	60.0
183.0643	80.0
201.07907	40.0
203.05161	40.0
221.06879	120.0
225.11429	50.0
327.14392	310.0
369.15277	50.0
380.88547	30.0
385.06821	50.0
399.62393	70.0
401.03598	20.0
441.20175	30.0
443.18259	40.0
500.68219	30.0
501.12592	30.0
502.20386	20.0
503.06818	60.0
503.2121	950.0
1217.37512	40.0

NAME:  Pesticide3_Lufenuron_C17H8Cl2F8N2O3_N-[[[2,5-Dichloro-4-(1,1,2,3,3,3-hexafluoropropoxy)phenyl]amino]carbonyl]-2,6-difluorobenzamide
PRECURSORMZ:  508.97114634783
PRECURSORTYPE:  [M-H]-
FORMULA:  C17H8Cl2F8N2O3
Ontology: ;;;
INCHIKEY:  PWPJGUXAGUPAHP-UHFFFAOYNA-N
SMILES:  OC(=NC(=O)NC1=C(Cl)C=C(OC(F)(F)C(F)C(F)(F)F)C(Cl)=C1)C1=C(F)C=CC=C1F
RETENTIONTIME:  
CCS:  163.323889
IONMODE:  Negative
INSTRUMENTTYPE:  
INSTRUMENT:  Maxis HD qTOF
COLLISIONENERGY:  
Comment:  DB#=CCMSLIB00001058300; origin=GNPS
Num Peaks:  26
146.98694	110.0
154.00429	10.0
156.02696	20.0
162.82146	10.0
163.09604	10.0
163.56235	10.0
167.93057	20.0
174.95778	480.0
175.96799	10.0
199.95628	20.0
201.94672	430.0
249.56317	30.0
284.991	30.0
285.95151	30.0
301.9939	20.0
302.99509	30.0
305.94794	40.0
325.95776	1000.0
338.92255	10.0
338.97607	370.0
350.71704	20.0
350.94772	30.0
445.96246	30.0
452.98828	120.0
468.96466	20.0
488.97342	30.0

NAME:  NCGC00380470-01_C19H22O7_(3aS,4S,5S,6E,10Z,11aR)-6-Formyl-5-hydroxy-10-(hydroxymethyl)-3-methylene-2-oxo-2,3,3a,4,5,8,9,11a-octahydrocyclodeca[b]furan-4-yl methacrylate
PRECURSORMZ:  407.13475559583
PRECURSORTYPE:  [M+FA-H]-
FORMULA:  C19H22O7
Ontology: ;;;
INCHIKEY:  HQPSNGXRJBMMAL-UHFFFAOYNA-N
SMILES:  CC(=C)C(=O)OC1C2C(OC(=O)C2=C)C=C(CO)CCC=C(C=O)C1O
RETENTIONTIME:  
CCS:  -1
IONMODE:  Negative
INSTRUMENTTYPE:  
INSTRUMENT:  Maxis II HD Q-TOF Bruker
COLLISIONENERGY:  
Comment:  DB#=CCMSLIB00000849956; origin=GNPS
Num Peaks:  18
147.04022	80.0
157.06189	180.0
160.05598	200.0
173.09831	200.0
177.05562	180.0
183.08348	1000.0
185.06555	230.0
185.09886	580.0
201.08986	640.0
203.10562	200.0
211.0827	330.0
213.08878	230.0
213.11241	250.0
227.06818	190.0
245.08197	110.0
275.09003	950.0
361.13278	90.0
407.15109	130.0

NAME:  NCGC00169696-02_C17H26O12_Methyl (1S,4aR,6S,7R,7aS)-1-(beta-D-glucopyranosyloxy)-4a,6,7-trihydroxy-7-methyl-1,4a,5,6,7,7a-hexahydrocyclopenta[c]pyran-4-carboxylate
PRECURSORMZ:  467.14062882483
PRECURSORTYPE:  [M+FA-H]-
FORMULA:  C17H26O12
Ontology: ;;;
INCHIKEY:  VFYACENSDOLJGQ-UHFFFAOYNA-N
SMILES:  COC(=O)C1=COC(OC2OC(CO)C(O)C(O)C2O)C2C(C)(O)C(O)CC12O
RETENTIONTIME:  
CCS:  -1
IONMODE:  Negative
INSTRUMENTTYPE:  
INSTRUMENT:  Maxis II HD Q-TOF Bruker
COLLISIONENERGY:  
Comment:  DB#=CCMSLIB00000849281; origin=GNPS
Num Peaks:  76
88.57193	20.0
89.01866	10.0
101.02543	40.0
107.05321	60.0
108.55901	10.0
111.58237	10.0
112.38916	30.0
113.02451	110.0
115.0428	10.0
117.67593	10.0
119.03292	60.0
123.04493	20.0
125.02282	10.0
135.04692	30.0
136.05402	20.0
137.02104	70.0
139.04236	50.0
143.04414	10.0
145.01102	10.0
146.76814	20.0
149.04333	40.0
161.04851	190.0
163.04408	20.0
168.22687	30.0
169.0499	200.0
177.01744	20.0
177.05545	110.0
178.04756	20.0
178.06444	20.0
179.05583	1000.0
180.04196	20.0
183.0724	50.0
187.0367	20.0
189.06158	50.0
191.03853	40.0
193.05162	30.0
195.06519	120.0
201.05222	20.0
205.04924	30.0
207.05978	30.0
209.04492	10.0
211.05827	50.0
213.07732	40.0
219.0648	40.0
223.05981	390.0
233.04837	20.0
235.0528	20.0
237.07428	20.0
241.0704	650.0
245.04625	10.0
251.06129	10.0
259.07986	100.0
264.64105	20.0
265.07162	160.0
265.1243	20.0
271.07755	20.0
273.09543	20.0
277.07739	10.0
281.06818	10.0
283.07385	50.0
295.08014	60.0
298.48172	10.0
307.07593	30.0
313.09122	10.0
321.10001	10.0
325.09055	40.0
331.10184	50.0
337.11258	10.0
343.10944	20.0
353.08826	20.0
371.10233	40.0
385.11472	310.0
403.1286	130.0
421.14417	40.0
467.13165	10.0
476.03909	20.0

NAME:  NCGC00163699-03_C26H34O7_2,4,6,8-Decatetraenedioic acid, mono[5-methoxy-4-[2-methyl-3-(3-methyl-2-buten-1-yl)oxiranyl]-1-oxaspiro[2.5]oct-6-yl] ester, (2E,4E,6E,8E)-
PRECURSORMZ:  457.22317698283
PRECURSORTYPE:  [M-H]-
FORMULA:  C26H34O7
Ontology: ;;;
INCHIKEY:  NGGMYCMLYOUNGM-UHFFFAOYNA-N
SMILES:  COC1C(CCC2(CO2)C1C1(C)OC1CC=C(C)C)OC(=O)C=CC=CC=CC=CC(O)=O
RETENTIONTIME:  
CCS:  208.4275376
IONMODE:  Negative
INSTRUMENTTYPE:  
INSTRUMENT:  Maxis II HD Q-TOF Bruker
COLLISIONENERGY:  
Comment:  DB#=CCMSLIB00000849794; origin=GNPS
Num Peaks:  21
84.49537	40.0
85.23448	90.0
103.05585	60.0
118.99724	100.0
130.04094	630.0
131.04987	1000.0
146.03944	80.0
147.04393	80.0
149.06006	100.0
151.04024	60.0
173.06387	60.0
179.06952	140.0
189.13214	90.0
316.97952	90.0
324.00784	80.0
363.19788	60.0
377.01065	110.0
378.99716	40.0
413.23273	30.0
457.23785	110.0
457.32861	60.0

NAME:  NCGC00180737-03_C21H24N2O10_Uridine, 2'-acetate 3'-(2,4-dimethoxy-6-methylbenzoate)
PRECURSORMZ:  509.14129752883
PRECURSORTYPE:  [M+FA-H]-
FORMULA:  C21H24N2O10
Ontology: ;;;
INCHIKEY:  MAWCJLLSYLMLHT-UHFFFAOYNA-N
SMILES:  COC1=CC(OC)=C(C(=O)OC2C(CO)OC(C2OC(C)=O)N2C=CC(O)=NC2=O)C(C)=C1
RETENTIONTIME:  
CCS:  -1
IONMODE:  Negative
INSTRUMENTTYPE:  
INSTRUMENT:  Maxis II HD Q-TOF Bruker
COLLISIONENERGY:  
Comment:  DB#=CCMSLIB00000850736; origin=GNPS
Num Peaks:  36
112.03983	180.0
121.06693	150.0
122.02385	110.0
126.90886	30.0
127.05496	60.0
128.54272	30.0
151.07599	560.0
153.02554	290.0
162.97179	60.0
164.03687	130.0
181.04276	100.0
182.04498	80.0
194.86969	80.0
195.06569	1000.0
219.98387	50.0
220.28729	40.0
224.06058	90.0
225.05573	80.0
228.07417	50.0
244.99176	40.0
254.08881	40.0
257.12689	50.0
267.06241	110.0
286.10803	70.0
326.99567	60.0
330.0994	30.0
346.09186	50.0
372.1525	70.0
378.10864	50.0
380.1618	80.0
399.64285	30.0
403.11621	30.0
420.13614	970.0
462.20978	230.0
463.13705	250.0
474.75449	60.0

NAME:  NCGC00385693-01_C32H48O8_Propanedioic acid, mono[12-(acetyloxy)-4,4,8,10,14-pentamethyl-17-(tetrahydro-2-methyl-5-oxo-2-furanyl)gonan-3-yl] ester
PRECURSORMZ:  605.33312105383
PRECURSORTYPE:  [M+FA-H]-
FORMULA:  C32H48O8
Ontology: ;;;
INCHIKEY:  COUZJTKJINDPEN-UHFFFAOYNA-N
SMILES:  CC(=O)OC1CC2C3(C)CCC(OC(=O)CC(O)=O)C(C)(C)C3CCC2(C)C2(C)CCC(C12)C1(C)CCC(=O)O1
RETENTIONTIME:  
CCS:  -1
IONMODE:  Negative
INSTRUMENTTYPE:  
INSTRUMENT:  Maxis II HD Q-TOF Bruker
COLLISIONENERGY:  
Comment:  DB#=CCMSLIB00000851127; origin=GNPS
Num Peaks:  19
201.06047	10.0
207.74391	20.0
246.04086	10.0
309.19489	10.0
387.33389	20.0
399.01007	10.0
403.33395	10.0
405.34393	30.0
418.28433	10.0
429.3396	360.0
431.31583	410.0
465.01208	10.0
473.32721	1000.0
476.98636	10.0
491.35147	20.0
515.34021	660.0
517.31152	40.0
559.34387	40.0
584.97278	10.0

NAME:  Pesticide4_Fluazinam_C13H4Cl2F6N4O4_2-Pyridinamine, 3-chloro-N-[3-chloro-2,6-dinitro-4-(trifluoromethyl)phenyl]-5-(trifluoromethyl)-
PRECURSORMZ:  462.94410254783
PRECURSORTYPE:  [M-H]-
FORMULA:  C13H4Cl2F6N4O4
Ontology: ;;;
INCHIKEY:  UZCGKGPEKUCDTF-UHFFFAOYSA-N
SMILES:  FC(F)(F)C1=CC(Cl)=C(NC2=C(C=C(C(Cl)=C2N(=O)=O)C(F)(F)F)N(=O)=O)N=C1
RETENTIONTIME:  
CCS:  144.3736385
IONMODE:  Negative
INSTRUMENTTYPE:  
INSTRUMENT:  Maxis HD qTOF
COLLISIONENERGY:  
Comment:  DB#=CCMSLIB00001058357; origin=GNPS
Num Peaks:  16
206.87041	10.0
232.20872	20.0
274.00995	10.0
334.97818	30.0
339.97385	10.0
365.93759	10.0
369.95084	40.0
379.96606	40.0
381.98749	10.0
385.94037	10.0
386.95804	40.0
392.99173	10.0
397.97818	380.0
415.94241	1000.0
426.96042	10.0
462.94586	320.0

NAME:  NCGC00380871-01_C22H27ClO13_(1R,4S,5R,6S,7R,8S)-5-Chloro-9-(beta-D-glucopyranosyloxy)-4-hydroxy-2,10-dioxatricyclo[5.3.1.0~4,8~]undec-6-yl 3,4-dihydroxybenzoate
PRECURSORMZ:  579.11222114783
PRECURSORTYPE:  [M+FA-H]-
FORMULA:  C22H27ClO13
Ontology: ;;;
INCHIKEY:  LWSJXQHGEHCKGM-UHFFFAOYNA-N
SMILES:  [H]C12CC3([H])OC(OC4OC(CO)C(O)C(O)C4O)C1([H])C(O)(CO3)C(Cl)C2OC(=O)C1=CC(O)=C(O)C=C1
RETENTIONTIME:  
CCS:  -1
IONMODE:  Negative
INSTRUMENTTYPE:  
INSTRUMENT:  Maxis II HD Q-TOF Bruker
COLLISIONENERGY:  
Comment:  DB#=CCMSLIB00000849452; origin=GNPS
Num Peaks:  5
153.01826	130.0
371.05435	10.0
497.13675	30.0
533.10693	1000.0
534.1059	10.0

NAME:  NCGC00380777-01_C77H120N16O19_
PRECURSORMZ:  1617.88976825583
PRECURSORTYPE:  [M+FA-H]-
FORMULA:  C77H120N16O19
Ontology: ;;;
INCHIKEY:  LSJHBSMFQYTUER-UHFFFAOYNA-N
SMILES:  CCC(C)(N=C(O)C(CCC(O)=N)N=C(O)C1CC(O)CN1C(=O)C(C)(C)N=C(O)C(C)(C)N=C(O)C(CC(C)C)N=C(O)CN=C(O)C(N=C(O)C(C)(C)N=C(O)C(C)(C)N=C(O)C(C)(C)N=C(O)C(CC1=CC=CC=C1)N=C(C)O)C(C)C)C(=O)N1CC(O)CC1C(O)=NC(C)(C)C(O)=NC(CO)CC1=CC=CC=C1
RETENTIONTIME:  
CCS:  -1
IONMODE:  Negative
INSTRUMENTTYPE:  
INSTRUMENT:  Maxis II HD Q-TOF Bruker
COLLISIONENERGY:  
Comment:  DB#=CCMSLIB00000850673; origin=GNPS
Num Peaks:  32
101.07193	20.0
112.03936	10.0
127.05016	20.0
129.06589	40.0
165.10193	30.0
178.09799	10.0
196.10843	320.0
197.09338	30.0
214.11894	290.0
215.12311	10.0
235.1445	20.0
240.09816	20.0
257.12534	30.0
261.12686	20.0
278.15021	10.0
295.17661	30.0
311.17276	10.0
330.18274	30.0
339.16647	50.0
348.19226	1000.0
349.19492	90.0
357.18259	10.0
426.23566	30.0
670.35925	20.0
688.36871	410.0
689.3703	90.0
769.46094	10.0
882.50946	20.0
1571.89026	600.0
1572.89148	390.0
1573.89709	120.0
1574.9032	10.0

NAME:  quercetin-3-O-pentosyl(1-2)acetylpentoside
PRECURSORMZ:  607.13045836983
PRECURSORTYPE:  [M-H]-
FORMULA:  C27H28O16
Ontology: ;;;
INCHIKEY:  YNLHCSVACHMLGF-UHFFFAOYNA-N
SMILES:  CC(=O)OC1C(O)C(O)COC1OC1C(O)C(O)COC1OC1=C(OC2=CC(O)=CC(O)=C2C1=O)C1=CC(O)=C(O)C=C1
RETENTIONTIME:  
CCS:  -1
IONMODE:  Negative
INSTRUMENTTYPE:  
INSTRUMENT:  qTof
COLLISIONENERGY:  
Comment:  DB#=CCMSLIB00004678850; origin=GNPS
Num Peaks:  8
300.02554	110.0
301.03198	10.0
547.09772	20.0
565.11578	80.0
566.11957	10.0
605.10919	10.0
607.12817	1000.0
608.13184	150.0

NAME:  NCGC00380768-01_C21H24ClNO4_5-Chloro-3-[(1E,3E)-3,5-dimethyl-1,3-heptadien-1-yl]-7-methyl-6,8-dioxo-2,6,7,8-tetrahydro-7-isoquinolinyl acetate
PRECURSORMZ:  388.13210954783
PRECURSORTYPE:  [M-H]-
FORMULA:  C21H24ClNO4
Ontology: Kingdom: Organic compounds;Superclass: Organoheterocyclic compounds;Class: Azaphilones;
INCHIKEY:  DOUKEKLEUAGITQ-UHFFFAOYNA-N
SMILES:  CCC(C)C=C(C)C=CC1=CC2=C(Cl)C(=O)C(C)(OC(C)=O)C(=O)C2=CN1
RETENTIONTIME:  
CCS:  213.8161781
IONMODE:  Negative
INSTRUMENTTYPE:  
INSTRUMENT:  Maxis II HD Q-TOF Bruker
COLLISIONENERGY:  
Comment:  DB#=CCMSLIB00000850409; origin=GNPS
Num Peaks:  14
179.99469	70.0
253.07535	60.0
268.66248	130.0
271.04565	30.0
284.05069	120.0
304.11584	70.0
308.16156	30.0
310.13766	60.0
311.14835	40.0
312.06732	70.0
324.15518	90.0
328.11365	1000.0
388.138	410.0
388.63181	130.0

NAME:  NCGC00162403-05_C20H18ClNO6_L-Phenylalanine, N-[[(3R)-5-chloro-3,4-dihydro-8-hydroxy-3-methyl-1-oxo-1H-2-benzopyran-7-yl]carbonyl]-
PRECURSORMZ:  402.07498854783
PRECURSORTYPE:  [M-H]-
FORMULA:  C20H18ClNO6
Ontology: ;;;
INCHIKEY:  RWQKHEORZBHNRI-UHFFFAOYNA-N
SMILES:  CC1CC2=C(Cl)C=C(C(O)=NC(CC3=CC=CC=C3)C(O)=O)C(O)=C2C(=O)O1
RETENTIONTIME:  
CCS:  190.7219817
IONMODE:  Negative
INSTRUMENTTYPE:  
INSTRUMENT:  Maxis II HD Q-TOF Bruker
COLLISIONENERGY:  
Comment:  DB#=CCMSLIB00000850370; origin=GNPS
Num Peaks:  36
136.05333	90.0
137.06215	350.0
150.33505	40.0
153.05444	70.0
164.07382	40.0
186.35039	30.0
195.64549	20.0
199.41286	30.0
199.45995	30.0
206.37007	20.0
207.13928	50.0
210.00195	20.0
211.01468	110.0
217.17262	20.0
239.0076	80.0
249.02493	60.0
270.06958	60.0
314.0607	100.0
314.09372	20.0
325.26181	30.0
335.23633	20.0
353.24854	220.0
358.08514	660.0
371.03534	50.0
371.11789	10.0
371.25952	990.0
371.84293	30.0
372.10452	30.0
372.26276	90.0
383.55539	20.0
401.2153	20.0
401.26871	520.0
402.07758	1000.0
402.27341	50.0
605.33698	40.0
895.22498	20.0

NAME:  NCGC00384677-01_C42H71NO29_
PRECURSORMZ:  1052.40389881783
PRECURSORTYPE:  [M-H]-
FORMULA:  C42H71NO29
Ontology: ;;;
INCHIKEY:  CLQVYHFCGNGQEU-UHFFFAOYNA-N
SMILES:  CC(C)CC(=O)OC1OC(CO)C(OC2OC(C)C(NC3C=C(CO)C(OC4OC(CO)C(OC5OC(CO)C(OC6OC(CO)C(O)C(O)C6O)C(O)C5O)C(O)C4O)C(O)C3O)C(O)C2O)C(O)C1O
RETENTIONTIME:  
CCS:  -1
IONMODE:  Negative
INSTRUMENTTYPE:  
INSTRUMENT:  Maxis II HD Q-TOF Bruker
COLLISIONENERGY:  
Comment:  DB#=CCMSLIB00000851424; origin=GNPS
Num Peaks:  122
83.01475	10.0
85.02957	20.0
87.00919	220.0
93.03775	10.0
97.02956	20.0
101.02522	90.0
101.05997	130.0
104.43237	20.0
109.02723	20.0
113.0239	40.0
115.03894	30.0
123.04568	30.0
125.02352	110.0
126.05806	10.0
127.04407	10.0
129.01898	30.0
131.03307	20.0
136.03792	30.0
137.05916	20.0
138.05424	40.0
139.0417	30.0
141.05524	100.0
143.03465	190.0
145.05099	10.0
148.07547	10.0
150.0555	10.0
154.06195	10.0
156.06624	20.0
157.0141	10.0
159.06784	10.0
161.04463	320.0
162.05327	30.0
163.04564	10.0
166.08965	30.0
168.06192	10.0
171.06564	10.0
174.07286	40.0
178.08772	60.0
180.06918	60.0
180.10191	10.0
182.08299	30.0
185.08368	20.0
192.06609	20.0
194.08307	20.0
196.09528	20.0
198.07631	50.0
203.05499	50.0
203.09361	20.0
204.06438	30.0
206.08138	30.0
216.08621	180.0
221.06506	60.0
222.07933	40.0
230.08687	30.0
236.09459	20.0
242.10437	160.0
245.10347	350.0
246.10097	80.0
248.09259	20.0
258.0997	70.0
260.11243	170.0
264.08615	10.0
276.10876	80.0
290.10437	10.0
291.08258	10.0
302.12451	110.0
303.12967	10.0
305.12418	20.0
308.83191	10.0
320.13602	450.0
321.13849	30.0
321.1684	10.0
322.13724	10.0
326.12494	50.0
340.14944	20.0
344.13867	100.0
347.10492	10.0
350.12885	40.0
358.15179	10.0
362.14734	1000.0
363.15234	90.0
365.10931	40.0
368.13992	30.0
383.12262	20.0
386.14844	100.0
387.14777	10.0
404.15863	40.0
422.20126	20.0
442.039	10.0
446.20514	10.0
452.18024	10.0
467.18915	10.0
470.15588	10.0
488.21109	110.0
489.21048	10.0
506.22778	290.0
507.2229	20.0
566.25043	210.0
567.24591	40.0
590.23871	30.0
608.258	590.0
609.26208	120.0
650.26501	190.0
651.27515	40.0
668.23883	30.0
668.27496	40.0
686.25153	10.0
728.3045	80.0
729.29047	10.0
752.30566	30.0
770.30981	360.0
771.31183	70.0
812.31812	40.0
813.30188	40.0
830.3075	20.0
890.34625	40.0
891.35223	10.0
897.34521	10.0
914.35791	10.0
932.36652	190.0
933.3576	60.0
934.36969	10.0

NAME:  NCGC00381216-01_C24H28O8_Furo[4,3,2-ij]pyrano[4',3':4,5]cyclohepta[1,2-f][2]benzopyran-1,5,9,13(2H,11H)-tetrone, 3a,5a,6,8,12,13a,13b,13c-octahydro-7-(hydroxymethyl)-2,5a,11,11,13a-pentamethyl-
PRECURSORMZ:  489.17662040983
PRECURSORTYPE:  [M+FA-H]-
FORMULA:  C24H28O8
Ontology: ;;;
INCHIKEY:  JIEVZPUBUDASNE-UHFFFAOYNA-N
SMILES:  CC1OC2OC(=O)C3(C)CC4=C(CO)C5=C(CC(=O)C4(C)C(C23)C1=O)C(C)(C)OC(=O)C5
RETENTIONTIME:  
CCS:  -1
IONMODE:  Negative
INSTRUMENTTYPE:  
INSTRUMENT:  Maxis II HD Q-TOF Bruker
COLLISIONENERGY:  
Comment:  DB#=CCMSLIB00000849917; origin=GNPS
Num Peaks:  21
112.01947	70.0
138.03802	60.0
139.07106	50.0
163.07584	40.0
181.07384	70.0
203.65993	30.0
205.13087	80.0
207.06587	60.0
293.18732	40.0
309.18781	60.0
325.14447	40.0
325.18781	80.0
335.1662	30.0
337.17661	30.0
369.16498	60.0
389.08063	30.0
399.1752	30.0
441.50089	20.0
443.17322	1000.0
446.77017	30.0
473.93558	40.0

NAME:  NCGC00347608-02_C30H38O11_7,11-Methano-2H,4H-oxireno[1,8]cycloocta[1,2-f][2]benzopyran-8-acetic acid, 4-(3-furanyl)dodecahydro-alpha,11-dihydroxy-4a,7,9,9-tetramethyl-2,13-dioxo-10-(1-oxopropoxy)-, methyl ester, (alphaR,4R,4aR,7S,8S,10S,11S,11aR,12aS)-
PRECURSORMZ:  619.23961459183
PRECURSORTYPE:  [M+FA-H]-
FORMULA:  C30H38O11
Ontology: Kingdom: Organic compounds;Superclass: Lipids and lipid;Class: Prenol lipids;Subclass: Triterpenoids
INCHIKEY:  FZBGZDZLYSLJFE-UHFFFAOYNA-N
SMILES:  CCC(=O)OC1C(C)(C)C(C(O)C(=O)OC)C2(C)C3CCC4(C)C(CC(=O)OC4C4=COC=C4)C33OC3C1(O)C2=O
RETENTIONTIME:  
CCS:  -1
IONMODE:  Negative
INSTRUMENTTYPE:  
INSTRUMENT:  Maxis II HD Q-TOF Bruker
COLLISIONENERGY:  
Comment:  DB#=CCMSLIB00000850777; origin=GNPS
Num Peaks:  139
73.24947	10.0
99.04504	30.0
101.02837	30.0
111.04507	20.0
121.02987	130.0
121.06452	30.0
123.04427	30.0
125.06593	20.0
129.05588	30.0
135.07816	20.0
137.05489	50.0
137.09766	20.0
141.05301	90.0
143.08012	20.0
145.03287	30.0
147.07968	30.0
148.05165	20.0
151.07391	70.0
152.28343	30.0
154.00609	20.0
154.23091	20.0
154.54462	20.0
155.07173	520.0
155.15144	10.0
165.05351	20.0
167.02887	30.0
171.06866	90.0
173.1003	30.0
175.07909	50.0
177.05127	60.0
181.08986	30.0
186.64174	10.0
187.06837	20.0
189.09163	140.0
190.02881	20.0
191.10461	20.0
192.07574	10.0
194.04918	30.0
198.88925	20.0
200.08885	30.0
201.0937	20.0
205.05095	20.0
206.30562	10.0
206.742	10.0
207.06183	20.0
209.00182	30.0
209.0818	60.0
211.09398	10.0
213.10046	30.0
215.11597	20.0
216.76245	30.0
219.1013	40.0
222.04645	10.0
227.09024	100.0
233.11493	20.0
237.08269	70.0
238.08948	40.0
241.08246	20.0
245.15556	20.0
253.1313	30.0
255.13492	30.0
255.18172	10.0
257.08688	240.0
257.16116	20.0
259.09772	60.0
259.87195	10.0
267.14508	20.0
282.15967	20.0
283.09827	30.0
283.13666	20.0
283.17154	20.0
287.10617	30.0
289.10312	20.0
297.11984	40.0
299.08945	40.0
299.12851	60.0
309.11111	10.0
311.13409	140.0
312.13773	20.0
313.10193	30.0
317.14807	10.0
325.1048	70.0
327.12421	570.0
331.11215	10.0
333.19327	20.0
335.16718	10.0
337.14639	10.0
339.15558	20.0
343.12851	80.0
344.11249	20.0
345.14182	130.0
351.19885	10.0
357.13638	70.0
357.1781	20.0
367.19751	30.0
374.97845	30.0
375.15292	20.0
377.18451	80.0
378.14395	10.0
379.14716	20.0
380.11786	20.0
383.18091	40.0
391.11823	20.0
393.1644	20.0
394.7655	20.0
395.18741	1000.0
397.19232	10.0
401.1543	20.0
406.17303	20.0
409.12451	30.0
411.18268	100.0
417.22119	10.0
419.6066	20.0
421.16296	20.0
421.19141	20.0
431.12988	10.0
439.17911	210.0
439.64218	20.0
449.14957	30.0
457.18558	30.0
467.17221	720.0
481.19186	30.0
485.19446	10.0
497.21283	30.0
499.19711	210.0
499.2468	40.0
500.19873	60.0
509.19934	10.0
513.21954	10.0
517.22241	10.0
541.2063	80.0
543.23029	20.0
557.21997	10.0
559.21716	680.0
560.22266	10.0
572.31384	20.0
619.25775	20.0
852.51611	50.0
1203.14819	20.0

NAME:  NCGC00381020-01_C62H100O31_Hexopyranose, O-pentopyranosyl-(1->4)-O-pentopyranosyl-(1->4)-O--3-O-[tetrahydro-3,4-dihydroxy-4-(hydroxymethyl)-2-furanyl]pentopyranosyl-(1->2)-1-O-[(2beta,3beta,5xi,6beta,9xi,18xi)-3-[(6-deoxyhexopyranosyl)oxy]-2,6,23-trihydroxy-28-oxoolean-12-en-28-yl]-
PRECURSORMZ:  1339.61757998783
PRECURSORTYPE:  [M-H]-
FORMULA:  C62H100O31
Ontology: ;;;
INCHIKEY:  CQWIBPNPRFMAOF-UHFFFAOYNA-N
SMILES:  CC1OC(OC2C(O)CC3(C)C4CC=C5C6CC(C)(C)CCC6(CCC5(C)C4(C)CC(O)C3C2(C)CO)C(=O)OC2OC(CO)C(O)C(O)C2OC2OCC(OC3OCC(OC4OCC(O)C(O)C4O)C(O)C3O)C(OC3OCC(O)(CO)C3O)C2O)C(O)C(O)C1O
RETENTIONTIME:  
CCS:  -1
IONMODE:  Negative
INSTRUMENTTYPE:  
INSTRUMENT:  Maxis II HD Q-TOF Bruker
COLLISIONENERGY:  
Comment:  DB#=CCMSLIB00000851166; origin=GNPS
Num Peaks:  40
85.02989	20.0
89.02502	20.0
99.00726	10.0
101.02502	10.0
113.02408	110.0
115.03927	10.0
127.03938	20.0
131.03458	130.0
143.03438	80.0
145.05028	20.0
149.04498	40.0
173.0461	20.0
187.05998	10.0
205.07045	100.0
263.07816	70.0
277.0918	30.0
319.10327	10.0
321.08237	30.0
337.11414	230.0
338.11688	20.0
347.09729	20.0
365.11087	40.0
391.12463	10.0
409.13528	80.0
451.14261	10.0
469.15714	480.0
470.16058	40.0
541.17731	150.0
583.18628	10.0
601.20038	290.0
602.20129	30.0
665.39276	430.0
666.39648	60.0
673.22217	110.0
674.20996	10.0
1207.57666	40.0
1208.58313	20.0
1339.61963	1000.0
1340.62244	470.0
1341.62231	110.0

NAME:  NCGC00380683-01_C21H32O7_2,4-Dihydroxy-5-methoxy-2a'',5a'',7''-trimethyldodecahydrodispiro[furan-3,2'-furan-5',6''-naphtho[1,8-bc]furan]-2''(2a''H)-one
PRECURSORMZ:  441.21300591783
PRECURSORTYPE:  [M+FA-H]-
FORMULA:  C21H32O7
Ontology: Kingdom: Organic compounds;Superclass: Organic oxygen compounds;Class: Organooxygen compounds;Subclass: Carbohydrates and carbohydrate conjugates
INCHIKEY:  JFEFKYNVTFPFRI-UHFFFAOYNA-N
SMILES:  COC1OC(O)C2(CCC3(O2)C(C)CC2OC(=O)C4(C)CCCC3(C)C24)C1O
RETENTIONTIME:  
CCS:  -1
IONMODE:  Negative
INSTRUMENTTYPE:  
INSTRUMENT:  Maxis II HD Q-TOF Bruker
COLLISIONENERGY:  
Comment:  DB#=CCMSLIB00000851473; origin=GNPS
Num Peaks:  9
127.03857	20.0
141.05084	40.0
305.17337	30.0
363.18811	10.0
389.87225	10.0
393.59155	10.0
395.20706	1000.0
440.99844	20.0
441.21228	30.0

NAME:  NCGC00373238-02_C33H47NO13_Delvocid
PRECURSORMZ:  664.29746412483
PRECURSORTYPE:  [M-H]-
FORMULA:  C33H47NO13
Ontology: ;;;
INCHIKEY:  NCXMLFZGDNKEPB-UHFFFAOYNA-N
SMILES:  [H]C12CC(OC3OC(C)C(O)C(N)C3O)C=CC=CC=CC=CCC(C)OC(=O)C=CC3OC3CC(O)CC(O)(CC(O)C1C(O)=O)O2
RETENTIONTIME:  
CCS:  261.7553881
IONMODE:  Negative
INSTRUMENTTYPE:  
INSTRUMENT:  Maxis II HD Q-TOF Bruker
COLLISIONENERGY:  
Comment:  DB#=CCMSLIB00000849413; origin=GNPS
Num Peaks:  21
111.04375	600.0
137.02342	1000.0
150.0784	600.0
155.03535	830.0
157.04898	450.0
161.09953	280.0
163.07616	430.0
173.06573	370.0
173.09634	600.0
213.08578	340.0
245.01384	220.0
280.12262	480.0
289.12341	330.0
301.17026	250.0
321.03409	310.0
395.19037	300.0
421.20059	850.0
439.23434	210.0
470.21298	220.0
584.28271	110.0
664.25903	520.0

NAME:  NCGC00380875-01_C21H32O11_4-(4-Hydroxyphenyl)-2-butanyl 6-O-[(4xi)-alpha-L-threo-pentofuranosyl]-beta-D-glucopyranoside
PRECURSORMZ:  505.19266439783
PRECURSORTYPE:  [M+FA-H]-
FORMULA:  C21H32O11
Ontology: ;;;
INCHIKEY:  DJDISCKFJXDADJ-UHFFFAOYNA-N
SMILES:  CC(CCC1=CC=C(O)C=C1)OC1OC(COC2OC(CO)C(O)C2O)C(O)C(O)C1O
RETENTIONTIME:  
CCS:  -1
IONMODE:  Negative
INSTRUMENTTYPE:  
INSTRUMENT:  Maxis II HD Q-TOF Bruker
COLLISIONENERGY:  
Comment:  DB#=CCMSLIB00000849464; origin=GNPS
Num Peaks:  6
101.02258	10.0
113.02342	10.0
131.03522	10.0
165.09195	140.0
327.14536	650.0
459.18723	1000.0

NAME:  NCGC00380146-01_C20H28O5_
PRECURSORMZ:  347.18639754983
PRECURSORTYPE:  [M-H]-
FORMULA:  C20H28O5
Ontology: ;;;
INCHIKEY:  UWPQNWXARKJJQM-UHFFFAOYNA-N
SMILES:  CC12CCCC(C)(C1C(O)OC2=O)C1CCC2CC1(CC2=C)C(O)=O
RETENTIONTIME:  
CCS:  -1
IONMODE:  Negative
INSTRUMENTTYPE:  
INSTRUMENT:  Maxis II HD Q-TOF Bruker
COLLISIONENERGY:  
Comment:  DB#=CCMSLIB00000849872; origin=GNPS
Num Peaks:  6
241.15889	150.0
301.18198	270.0
329.12378	20.0
329.17462	510.0
329.25665	60.0
347.18314	1000.0

NAME:  NCGC00169346-02_C23H28O11_Methyl (3R,4R,5R)-3,4-dihydroxy-5-({6-O-[(2E)-3-phenyl-2-propenoyl]-beta-D-glucopyranosyl}oxy)-1-cyclohexene-1-carboxylate
PRECURSORMZ:  525.16136426983
PRECURSORTYPE:  [M+FA-H]-
FORMULA:  C23H28O11
Ontology: Kingdom: Organic compounds;Superclass: Lipids and lipid;Class: Fatty Acyls;Subclass: Fatty acyl glycosides
INCHIKEY:  DOFMBNVUGRDDTK-UHFFFAOYNA-N
SMILES:  COC(=O)C1=CC(O)C(O)C(C1)OC1OC(COC(=O)C=CC2=CC=CC=C2)C(O)C(O)C1O
RETENTIONTIME:  
CCS:  -1
IONMODE:  Negative
INSTRUMENTTYPE:  
INSTRUMENT:  Maxis II HD Q-TOF Bruker
COLLISIONENERGY:  
Comment:  DB#=CCMSLIB00000849521; origin=GNPS
Num Peaks:  18
113.02349	30.0
115.05457	10.0
131.05061	30.0
133.06615	30.0
143.03387	10.0
145.06561	30.0
147.04407	990.0
151.03735	40.0
161.05969	1000.0
169.05054	30.0
173.06157	20.0
189.05473	800.0
191.06821	20.0
201.05768	10.0
219.06442	50.0
243.06577	20.0
249.07704	70.0
309.09894	20.0

NAME:  NCGC00380403-01_C19H23N3O4_2H-Pyrazino[1',2':1,5]pyrrolo[2,3-b]indole-1,4(3H,5aH)-dione, 6-acetyl-6,10b,11,11a-tetrahydro-10b-hydroxy-3-(2-methylpropyl)-
PRECURSORMZ:  402.16705878083
PRECURSORTYPE:  [M+FA-H]-
FORMULA:  C19H23N3O4
Ontology: ;;;
INCHIKEY:  IQSAULADRNRYOT-UHFFFAOYNA-N
SMILES:  CC(C)CC1N=C(O)C2CC3(O)C(N2C1=O)N(C(C)=O)C1=CC=CC=C31
RETENTIONTIME:  
CCS:  -1
IONMODE:  Negative
INSTRUMENTTYPE:  
INSTRUMENT:  Maxis II HD Q-TOF Bruker
COLLISIONENERGY:  
Comment:  DB#=CCMSLIB00000850700; origin=GNPS
Num Peaks:  24
71.81696	50.0
83.31786	10.0
132.04436	200.0
134.54723	10.0
146.05882	60.0
153.10164	90.0
155.09607	40.0
173.23819	130.0
180.2646	30.0
180.44566	30.0
180.91055	10.0
180.93703	20.0
181.071	70.0
181.09679	730.0
183.11388	590.0
183.19612	10.0
196.95016	50.0
197.02014	30.0
284.12775	20.0
314.15543	30.0
337.83301	20.0
338.1322	30.0
338.1644	40.0
356.16229	1000.0

NAME:  NCGC00169307-02_C27H31NO5_8H-Pyrano[2,3-f]quinolin-8-one, 2,7,9,10-tetrahydro-10-hydroxy-9-methoxy-10-(4-methoxyphenyl)-2-methyl-2-(4-methyl-3-penten-1-yl)-, (2S,9R,10R)-
PRECURSORMZ:  448.21294664983
PRECURSORTYPE:  [M-H]-
FORMULA:  C27H31NO5
Ontology: ;;;
INCHIKEY:  CPWPNTRWIIAFEG-UHFFFAOYNA-N
SMILES:  COC1C(O)=NC2=C(C3=C(C=C2)C=CC(C)(CCC=C(C)C)O3)C1(O)C1=CC=C(OC)C=C1
RETENTIONTIME:  
CCS:  227.3997471
IONMODE:  Negative
INSTRUMENTTYPE:  
INSTRUMENT:  Maxis II HD Q-TOF Bruker
COLLISIONENERGY:  
Comment:  DB#=CCMSLIB00000851238; origin=GNPS
Num Peaks:  31
112.98578	30.0
187.03258	60.0
188.92975	20.0
238.08658	60.0
240.06654	20.0
274.04498	60.0
278.08618	100.0
278.11932	30.0
285.16061	40.0
286.0228	40.0
286.08765	50.0
300.01843	30.0
300.06531	50.0
312.06516	30.0
313.08493	50.0
315.12735	60.0
327.99823	40.0
328.14474	40.0
329.10339	40.0
336.11365	50.0
344.12833	30.0
353.21487	50.0
355.15817	20.0
355.86426	20.0
370.17981	50.0
376.19287	150.0
382.14258	130.0
383.16153	190.0
398.17801	1000.0
430.20905	90.0
448.2103	510.0

NAME:  NCGC00380950-01_C19H20O6_6a,7,8,12a-Tetrahydroxy-3-methyl-2,3,4,5,6,6a,7,12a-octahydro-1,12-tetraphenedione
PRECURSORMZ:  343.11871191183
PRECURSORTYPE:  [M-H]-
FORMULA:  C19H20O6
Ontology: Kingdom: Organic compounds;Superclass: Benzenoids;Class: Tetralins;
INCHIKEY:  UTAIBCIOWTVUDJ-UHFFFAOYNA-N
SMILES:  CC1CC(=O)C2=C(CCC3(O)C(O)C4=C(C=CC=C4O)C(=O)C23O)C1
RETENTIONTIME:  
CCS:  -1
IONMODE:  Negative
INSTRUMENTTYPE:  
INSTRUMENT:  Maxis II HD Q-TOF Bruker
COLLISIONENERGY:  
Comment:  DB#=CCMSLIB00000850583; origin=GNPS
Num Peaks:  19
159.04523	50.0
175.07222	40.0
177.08701	40.0
191.06841	30.0
203.04288	70.0
212.04663	30.0
214.02599	20.0
215.00993	50.0
238.05283	40.0
258.09113	30.0
265.09528	30.0
269.11789	50.0
282.11145	40.0
289.08743	70.0
297.11298	40.0
307.09976	160.0
325.10983	1000.0
328.40253	30.0
343.12302	120.0

NAME:  NCGC00380115-01_C15H14O5_2-Hydroxy-4-(3-hydroxy-5-methylphenoxy)-6-methylbenzoic acid
PRECURSORMZ:  273.07684709883
PRECURSORTYPE:  [M-H]-
FORMULA:  C15H14O5
Ontology: ;;;
INCHIKEY:  ZJEIMBOWRAUNAN-UHFFFAOYSA-N
SMILES:  CC1=CC(O)=CC(OC2=CC(O)=C(C(O)=O)C(C)=C2)=C1
RETENTIONTIME:  
CCS:  179.2260611
IONMODE:  Negative
INSTRUMENTTYPE:  
INSTRUMENT:  Maxis II HD Q-TOF Bruker
COLLISIONENERGY:  
Comment:  DB#=CCMSLIB00000850079; origin=GNPS
Num Peaks:  8
123.04318	560.0
133.65761	20.0
147.03731	110.0
161.09407	30.0
210.06729	50.0
213.06044	40.0
229.08649	1000.0
273.07715	530.0

NAME:  NCGC00381088-01_C42H54O23_alpha-D-Glucopyranoside, 3-O-[(2E)-3-(4-hydroxyphenyl)-1-oxo-2-propen-1-yl]-beta-D-fructofuranosyl O-6-deoxy-alpha-L-mannopyranosyl-(1->4)-O-6-deoxy-alpha-L-mannopyranosyl-(1->3)-4-O-[(2E)-3-(4-hydroxyphenyl)-1-oxo-2-propen-1-yl]-
PRECURSORMZ:  925.29831154683
PRECURSORTYPE:  [M-H]-
FORMULA:  C42H54O23
Ontology: Kingdom: Organic compounds;Superclass: Organic oxygen compounds;Class: Organooxygen compounds;Subclass: Carbohydrates and carbohydrate conjugates
INCHIKEY:  RTQZACYXEASSEF-UHFFFAOYNA-N
SMILES:  CC1OC(OC2C(C)OC(OC3C(O)C(OC4(CO)OC(CO)C(O)C4OC(=O)C=CC4=CC=C(O)C=C4)OC(CO)C3OC(=O)C=CC3=CC=C(O)C=C3)C(O)C2O)C(O)C(O)C1O
RETENTIONTIME:  
CCS:  -1
IONMODE:  Negative
INSTRUMENTTYPE:  
INSTRUMENT:  Maxis II HD Q-TOF Bruker
COLLISIONENERGY:  
Comment:  DB#=CCMSLIB00000849608; origin=GNPS
Num Peaks:  14
113.0248	30.0
117.03468	100.0
119.05042	60.0
143.03484	20.0
145.02936	1000.0
146.03259	20.0
161.04428	10.0
163.04024	130.0
453.16519	20.0
633.22522	40.0
779.26294	190.0
780.26691	30.0
925.3006	210.0
926.29944	50.0

NAME:  Pesticide2_Thidiazuron_C9H8N4OS_1-Phenyl-3-(1,2,3-thiadiazol-5-yl)urea
PRECURSORMZ:  255.0112833279
PRECURSORTYPE:  [M+Cl]-
FORMULA:  C9H8N4OS
Ontology: Kingdom: Organic compounds;Superclass: Benzenoids;Class: Benzene and substituted derivatives;Subclass: N
INCHIKEY:  HFCYZXMHUIHAQI-UHFFFAOYSA-N
SMILES:  OC(NC1=CN=NS1)=NC1=CC=CC=C1
RETENTIONTIME:  
CCS:  -1
IONMODE:  Negative
INSTRUMENTTYPE:  
INSTRUMENT:  Q-Exactive Plus Orbitrap Res 70k
COLLISIONENERGY:  
Comment:  DB#=CCMSLIB00001058418; origin=GNPS
Num Peaks:  4
70.98313	110.0
71.99085	20.0
99.99745	1000.0
219.03467	60.0

NAME:  NCGC00380804-01_C31H48O10_(2R,3S,4E,6E,8E,10E,12E,14R,15R,16R,18R,22S,24S,26S,27R)-14,16,18,22,24,26-Hexahydroxy-2,3,27-trimethyl-28-oxooxacyclooctacosa-4,6,8,10,12-pentaene-15-carboxylic acid
PRECURSORMZ:  579.31747129383
PRECURSORTYPE:  [M-H]-
FORMULA:  C31H48O10
Ontology: Kingdom: Organic compounds;Superclass: Phenylpropanoids and polyketides;Class: Macrolides and analogues;
INCHIKEY:  ALFUZUYJAXAEKE-UHFFFAOYNA-N
SMILES:  CC1OC(=O)C(C)C(O)CC(O)CC(O)CCCC(O)CC(O)C(C(O)C=CC=CC=CC=CC=CC1C)C(O)=O
RETENTIONTIME:  
CCS:  255.0764473
IONMODE:  Negative
INSTRUMENTTYPE:  
INSTRUMENT:  Maxis II HD Q-TOF Bruker
COLLISIONENERGY:  
Comment:  DB#=CCMSLIB00000850995; origin=GNPS
Num Peaks:  48
73.03175	50.0
111.04524	70.0
111.11999	30.0
141.08705	60.0
143.06908	40.0
145.06013	50.0
147.04675	60.0
147.11823	60.0
150.09116	50.0
151.07239	40.0
155.10851	30.0
171.81703	40.0
181.0871	160.0
181.12277	40.0
187.1152	40.0
198.0739	40.0
199.09901	160.0
207.10443	40.0
211.02441	50.0
211.14429	40.0
213.10977	30.0
217.10306	100.0
225.1245	60.0
229.12764	70.0
229.16302	30.0
239.00117	40.0
247.11421	40.0
247.14169	30.0
261.13651	70.0
269.08368	60.0
273.13388	270.0
278.84219	30.0
285.16852	70.0
286.87244	20.0
287.15756	200.0
291.1434	330.0
305.15176	40.0
311.20798	50.0
329.17068	80.0
329.2233	40.0
347.16953	350.0
365.17783	1000.0
437.02408	30.0
543.29987	20.0
561.30444	90.0
579.31683	380.0
580.31213	20.0
816.85754	20.0

NAME:  NCGC00381076-01_C17H23NO7_4-[(2-{[(2-Ethyl-2,3-dihydroxybutanoyl)oxy]methyl}phenyl)amino]-4-oxobutanoic acid
PRECURSORMZ:  352.14017563283
PRECURSORTYPE:  [M-H]-
FORMULA:  C17H23NO7
Ontology: ;;;
INCHIKEY:  VDRDRMCAECTSGB-UHFFFAOYNA-N
SMILES:  CCC(O)(C(C)O)C(=O)OCC1=CC=CC=C1N=C(O)CCC(O)=O
RETENTIONTIME:  
CCS:  -1
IONMODE:  Negative
INSTRUMENTTYPE:  
INSTRUMENT:  Maxis II HD Q-TOF Bruker
COLLISIONENERGY:  
Comment:  DB#=CCMSLIB00000849599; origin=GNPS
Num Peaks:  5
82.86859	10.0
101.02181	20.0
147.06656	1000.0
222.0797	20.0
352.13232	20.0

NAME:  NCGC00380320-01_C25H34O8_1H-Furo[3,4-b]xanthene-9-propanoic acid, 3,5a,6,7,8,9,9a,10-octahydro-7-hydroxy-8-(1-hydroxy-1-methylethyl)-11-methoxy-4,5a,9-trimethyl-1-oxo-, (5aS,9R,9aR)-
PRECURSORMZ:  443.20752692283
PRECURSORTYPE:  [M-H2O-H]-
FORMULA:  C25H34O8
Ontology: Kingdom: Organic compounds;Superclass: Organoheterocyclic compounds;Class: Benzopyrans;
INCHIKEY:  NNOMPFCNQCRAIO-UHFFFAOYNA-N
SMILES:  COC1=C2C(=O)OCC2=C(C)C2=C1CC1C(C)(CC(O)C(C(C)(C)O)C1(C)CCC(O)=O)O2
RETENTIONTIME:  
CCS:  -1
IONMODE:  Negative
INSTRUMENTTYPE:  
INSTRUMENT:  Maxis II HD Q-TOF Bruker
COLLISIONENERGY:  
Comment:  DB#=CCMSLIB00000850307; origin=GNPS
Num Peaks:  16
176.04311	10.0
191.03456	100.0
192.0432	10.0
201.09709	20.0
261.11237	20.0
273.08588	20.0
285.11447	10.0
305.54535	20.0
315.16348	30.0
327.15872	20.0
355.14893	20.0
371.19675	10.0
399.21243	20.0
407.19833	20.0
425.18658	30.0
443.20715	1000.0

NAME:  NCGC00347813-02_C19H22N2O9_Uridine, 3'-(2,4-dimethoxy-6-methylbenzoate)
PRECURSORMZ:  467.13073284383
PRECURSORTYPE:  [M+FA-H]-
FORMULA:  C19H22N2O9
Ontology: Kingdom: Organic compounds;Superclass: Nucleosides;Class: Pyrimidine nucleosides;
INCHIKEY:  LQYPUZKOEZWGBX-UHFFFAOYNA-N
SMILES:  COC1=CC(OC)=C(C(=O)OC2C(CO)OC(C2O)N2C=CC(O)=NC2=O)C(C)=C1
RETENTIONTIME:  
CCS:  -1
IONMODE:  Negative
INSTRUMENTTYPE:  
INSTRUMENT:  Maxis II HD Q-TOF Bruker
COLLISIONENERGY:  
Comment:  DB#=CCMSLIB00000850757; origin=GNPS
Num Peaks:  9
121.06589	50.0
151.07652	240.0
152.03819	30.0
182.0451	120.0
195.06549	1000.0
225.05074	70.0
330.09628	10.0
378.11743	120.0
421.12546	180.0

NAME:  NCGC00380281-01_C21H30O4_4a(2H)-Phenanthrenecarboxylic acid, 1,3,4,9,10,10a-hexahydro-5,6-dihydroxy-1,1-dimethyl-7-(1-methylethyl)-, methyl ester, (4aR)-
PRECURSORMZ:  345.20713299383
PRECURSORTYPE:  [M-H]-
FORMULA:  C21H30O4
Ontology: Kingdom: Organic compounds;Superclass: Lipids and lipid;Class: Prenol lipids;Subclass: Diterpenoids
INCHIKEY:  IIJLVJMZYPZQLW-UHFFFAOYNA-N
SMILES:  COC(=O)C12CCCC(C)(C)C1CCC1=CC(C(C)C)=C(O)C(O)=C21
RETENTIONTIME:  
CCS:  195.1485726
IONMODE:  Negative
INSTRUMENTTYPE:  
INSTRUMENT:  Maxis II HD Q-TOF Bruker
COLLISIONENERGY:  
Comment:  DB#=CCMSLIB00000850184; origin=GNPS
Num Peaks:  7
171.04143	30.0
271.16617	60.0
286.19144	1000.0
289.29254	30.0
301.21652	840.0
345.20673	290.0
1805.0658	20.0

NAME:  NCGC00380642-01_C26H34O7_1,1,5a,7a,9,11b-Hexamethyl-7-methylene-3,8,11-trioxo-3,5a,5b,6,7,7a,8,9,11,11a,11b,12,13,13a-tetradecahydro-1H-isochromeno[7,8-g][2]benzoxepin-12-yl acetate
PRECURSORMZ:  503.22865598283
PRECURSORTYPE:  [M+FA-H]-
FORMULA:  C26H34O7
Ontology: Kingdom: Organic compounds;Superclass: Organoheterocyclic compounds;Class: Naphthopyrans;
INCHIKEY:  JFYYCQXZVIOBKU-UHFFFAOYNA-N
SMILES:  CC1OC(=O)C2C3(C)C(CC4C(C)(C=CC(=O)OC4(C)C)C3CC(=C)C2(C)C1=O)OC(C)=O
RETENTIONTIME:  
CCS:  -1
IONMODE:  Negative
INSTRUMENTTYPE:  
INSTRUMENT:  Maxis II HD Q-TOF Bruker
COLLISIONENERGY:  
Comment:  DB#=CCMSLIB00000850868; origin=GNPS
Num Peaks:  14
228.25166	40.0
249.11972	60.0
303.18552	80.0
341.17068	80.0
353.21198	40.0
355.19727	40.0
371.18454	90.0
397.21103	50.0
400.18683	220.0
402.21225	30.0
402.9888	110.0
415.21408	1000.0
442.19122	100.0
457.22421	170.0

NAME:  NCGC00169132-02_C33H44O8_(4alpha,5alpha,6beta,8alpha,9beta,13alpha,14beta,16beta,17Z)-6,16-Diacetoxy-4,8,14-trimethyl-3,7-dioxo-18-norcholesta-1,17,24-trien-21-oic acid
PRECURSORMZ:  567.29634192483
PRECURSORTYPE:  [M-H]-
FORMULA:  C33H44O8
Ontology: Kingdom: Organic compounds;Superclass: Lipids and lipid;Class: Steroids and steroid derivatives;Subclass: Steroid esters
INCHIKEY:  MDFZYGLOIJNNRM-UHFFFAOYNA-N
SMILES:  CC1C2C(OC(C)=O)C(=O)C3(C)C(CCC4C(C(CC34C)OC(C)=O)=C(CCC=C(C)C)C(O)=O)C2(C)C=CC1=O
RETENTIONTIME:  
CCS:  246.8724617
IONMODE:  Negative
INSTRUMENTTYPE:  
INSTRUMENT:  Maxis II HD Q-TOF Bruker
COLLISIONENERGY:  
Comment:  DB#=CCMSLIB00000849425; origin=GNPS
Num Peaks:  76
109.02895	40.0
117.91203	40.0
119.08713	60.0
121.06479	50.0
135.07922	170.0
139.11456	70.0
143.08009	30.0
155.03065	40.0
161.0611	240.0
161.10074	60.0
162.06834	50.0
169.08675	50.0
173.13634	100.0
175.11295	40.0
177.06718	60.0
191.09938	100.0
194.34039	20.0
199.12437	30.0
199.14932	60.0
201.15811	40.0
202.10713	30.0
203.07587	30.0
217.12276	1000.0
229.12456	40.0
239.17226	40.0
247.15833	60.0
251.56445	110.0
259.16617	50.0
273.0047	20.0
281.19293	120.0
284.13364	10.0
305.14737	30.0
309.1832	190.0
311.24194	30.0
317.19968	70.0
323.15903	100.0
327.19098	50.0
333.18277	40.0
335.20773	40.0
341.17651	90.0
347.24969	40.0
351.19479	60.0
371.22525	80.0
373.22064	30.0
379.19498	100.0
379.25784	60.0
382.17804	20.0
387.22635	30.0
388.24814	80.0
390.08197	50.0
401.51367	60.0
402.25046	70.0
402.83731	30.0
403.15732	20.0
403.2637	740.0
404.22717	40.0
405.23517	30.0
406.27591	30.0
411.21878	20.0
419.26181	40.0
421.2767	110.0
441.25952	40.0
447.23703	30.0
447.267	60.0
463.28757	240.0
466.27203	20.0
481.29953	260.0
481.3511	20.0
505.63397	10.0
506.56186	30.0
507.27386	770.0
523.28894	20.0
525.28809	280.0
567.30078	460.0
1577.13953	50.0
1951.55151	20.0

NAME:  NCGC00380892-01_C26H30O12_Cyclopenta[c]pyran-4-carboxylic acid, 1,4a,5,7a-tetrahydro-7-(hydroxymethyl)-1-[[6-O-[(2E)-3-(4-hydroxyphenyl)-1-oxo-2-propen-1-yl]-beta-D-glucopyranosyl]oxy]-, methyl ester
PRECURSORMZ:  533.16644995383
PRECURSORTYPE:  [M-H]-
FORMULA:  C26H30O12
Ontology: Kingdom: Organic compounds;Superclass: Lipids and lipid;Class: Prenol lipids;Subclass: Terpene glycosides
INCHIKEY:  IVYAOUHUAWZJDB-UHFFFAOYNA-N
SMILES:  COC(=O)C1=COC(OC2OC(COC(=O)C=CC3=CC=C(O)C=C3)C(O)C(O)C2O)C2C1CC=C2CO
RETENTIONTIME:  
CCS:  232.6270977
IONMODE:  Negative
INSTRUMENTTYPE:  
INSTRUMENT:  Maxis II HD Q-TOF Bruker
COLLISIONENERGY:  
Comment:  DB#=CCMSLIB00000849833; origin=GNPS
Num Peaks:  20
101.02428	60.0
117.03342	60.0
119.04882	10.0
123.04401	160.0
145.02936	1000.0
146.03644	10.0
147.04268	30.0
161.05983	20.0
163.03842	200.0
177.05165	20.0
205.05045	20.0
207.06529	50.0
225.07697	110.0
235.06094	20.0
265.06512	50.0
290.25204	10.0
307.08215	90.0
501.13202	20.0
515.16211	10.0
533.16608	380.0

NAME:  NCGC00381107-01_C42H72O13_beta-D-Glucopyranoside, (3beta,12beta)-12,20-dihydroxydammar-24-en-3-yl 2-O-beta-D-glucopyranosyl-
PRECURSORMZ:  829.49549492583
PRECURSORTYPE:  [M+FA-H]-
FORMULA:  C42H72O13
Ontology: Kingdom: Organic compounds;Superclass: Lipids and lipid;Class: Prenol lipids;Subclass: Triterpenoids
INCHIKEY:  RWXIFXNRCLMQCD-UHFFFAOYNA-N
SMILES:  CC(C)=CCCC(C)(O)C1CCC2(C)C1C(O)CC1C3(C)CCC(OC4OC(CO)C(O)C(O)C4OC4OC(CO)C(O)C(O)C4O)C(C)(C)C3CCC21C
RETENTIONTIME:  
CCS:  -1
IONMODE:  Negative
INSTRUMENTTYPE:  
INSTRUMENT:  Maxis II HD Q-TOF Bruker
COLLISIONENERGY:  
Comment:  DB#=CCMSLIB00000849560; origin=GNPS
Num Peaks:  25
71.01523	20.0
83.01268	60.0
85.0295	30.0
89.02674	40.0
95.01427	30.0
101.02403	170.0
113.02325	260.0
119.03519	50.0
125.02046	20.0
131.03497	10.0
143.03423	40.0
144.03795	20.0
159.03136	70.0
161.04555	220.0
179.05676	30.0
191.93562	20.0
221.06717	30.0
375.29404	60.0
443.34512	10.0
459.38422	100.0
537.33069	20.0
621.4364	140.0
622.4375	10.0
783.49408	1000.0
784.49408	150.0

NAME:  NCGC00179900-02_C40H62O15_Ergosta-5,24-dien-26-one, 22,26-epoxy-3-[(6-O-hexopyranosylhexopyranosyl)oxy]-1,28-dihydroxy-
PRECURSORMZ:  827.40707384383
PRECURSORTYPE:  [M+FA-H]-
FORMULA:  C40H62O15
Ontology: Kingdom: Organic compounds;Superclass: Lipids and lipid;Class: Steroids and steroid derivatives;Subclass: Steroid lactones
INCHIKEY:  TZLCZBLLJUXBSB-UHFFFAOYNA-N
SMILES:  CC(C1CCC2C3CC=C4CC(CC(O)C4(C)C3CCC12C)OC1OC(COC2OC(CO)C(O)C(O)C2O)C(O)C(O)C1O)C1CC(CO)=C(C)C(=O)O1
RETENTIONTIME:  
CCS:  -1
IONMODE:  Negative
INSTRUMENTTYPE:  
INSTRUMENT:  Maxis II HD Q-TOF Bruker
COLLISIONENERGY:  
Comment:  DB#=CCMSLIB00000851279; origin=GNPS
Num Peaks:  24
89.02421	40.0
101.02432	130.0
113.02431	110.0
119.03505	100.0
125.02319	20.0
131.03412	30.0
143.03448	60.0
149.04526	40.0
159.02725	40.0
161.04482	260.0
179.05577	900.0
180.05545	20.0
221.06688	350.0
251.07562	20.0
263.08023	20.0
281.08859	20.0
323.09839	30.0
341.11075	30.0
751.38892	80.0
763.39459	1000.0
764.39771	150.0
781.40558	250.0
782.40002	40.0
827.41449	30.0

NAME:  NCGC00380938-01_C21H34O11_6-O-Pentopyranosyl-1-O-[(2,6,6-trimethyl-1-cyclohexen-1-yl)carbonyl]-beta-D-glucopyranose
PRECURSORMZ:  507.20831446283
PRECURSORTYPE:  [M+FA-H]-
FORMULA:  C21H34O11
Ontology: Kingdom: Organic compounds;Superclass: Organic oxygen compounds;Class: Organooxygen compounds;Subclass: Carbohydrates and carbohydrate conjugates
INCHIKEY:  JGMROMZJBQKIDK-UHFFFAOYNA-N
SMILES:  CC1=C(C(=O)OC2OC(COC3OCC(O)C(O)C3O)C(O)C(O)C2O)C(C)(C)CCC1
RETENTIONTIME:  
CCS:  -1
IONMODE:  Negative
INSTRUMENTTYPE:  
INSTRUMENT:  Maxis II HD Q-TOF Bruker
COLLISIONENERGY:  
Comment:  DB#=CCMSLIB00000850468; origin=GNPS
Num Peaks:  7
125.02329	20.0
149.04451	100.0
167.10759	1000.0
191.05695	20.0
233.0663	10.0
293.08801	330.0
461.20334	140.0

NAME:  NCGC00380916-01_C16H27NO10_
PRECURSORMZ:  438.16169862083
PRECURSORTYPE:  [M+FA-H]-
FORMULA:  C16H27NO10
Ontology: Kingdom: Organic compounds;Superclass: Organic oxygen compounds;Class: Organooxygen compounds;Subclass: Carbohydrates and carbohydrate conjugates
INCHIKEY:  PMWFORPJUWEXBG-UHFFFAOYNA-N
SMILES:  CC(C)C(OC1OC(COC2OCC(O)(CO)C2O)C(O)C(O)C1O)C#N
RETENTIONTIME:  
CCS:  -1
IONMODE:  Negative
INSTRUMENTTYPE:  
INSTRUMENT:  Maxis II HD Q-TOF Bruker
COLLISIONENERGY:  
Comment:  DB#=CCMSLIB00000850487; origin=GNPS
Num Peaks:  13
101.02676	20.0
125.02323	60.0
131.03413	20.0
143.03539	30.0
149.04445	50.0
161.0448	230.0
173.04839	20.0
188.05563	110.0
191.05502	50.0
233.06749	290.0
260.11459	50.0
293.0882	520.0
392.15677	1000.0

NAME:  Pesticide4_Avermectin B1b_C48H72O14_(1'R,2S,4'S,5S,6R,8'R,10'E,12'S,13'S,14'E,16'E,20'R,21'R,24'S)-6-[(2S)-2-Butanyl]-21',24'-dihydroxy-5,11',13',22'-tetramethyl-2'-oxo-5,6-dihydrospiro[pyran-2,6'-[3,7,19]trioxatetracyclo[15.6.1.1~4,8~.0~20,24~]pentacosa[10,14,16,22]tetraen]-12'-yl 2,6-dideoxy-4-O-(2,6-dideoxy-3-O-methyl-alpha-L-arabino-hexopyranosyl)-3-O-methyl-alpha-L-arabino-hexopyranoside
PRECURSORMZ:  917.49040954583
PRECURSORTYPE:  [M+FA-H]-
FORMULA:  C48H72O14
Ontology: Kingdom: Organic compounds;Superclass: Phenylpropanoids and polyketides;Class: Macrolides and analogues;
INCHIKEY:  RRZXIRBKKLTSOM-UHFFFAOYNA-N
SMILES:  [H]C12CC([H])(CC=C(C)C(OC3CC(OC)C(OC4CC(OC)C(O)C(C)O4)C(C)O3)C(C)C=CC=C3COC4C(O)C(C)=CC(C(=O)O1)C34O)OC1(C2)OC(C(C)CC)C(C)C=C1
RETENTIONTIME:  
CCS:  -1
IONMODE:  Negative
INSTRUMENTTYPE:  
INSTRUMENT:  Maxis HD qTOF
COLLISIONENERGY:  
Comment:  DB#=CCMSLIB00001058377; origin=GNPS
Num Peaks:  62
83.0495	10.0
83.81019	10.0
84.02314	40.0
85.02955	60.0
96.01785	20.0
119.05198	20.0
121.02834	10.0
123.03986	10.0
137.0545	10.0
159.03853	10.0
170.07289	10.0
171.07831	10.0
179.0701	10.0
179.26323	20.0
188.69667	10.0
197.10246	20.0
217.1221	10.0
223.0779	50.0
227.11623	10.0
229.10806	1000.0
230.11586	30.0
235.1113	10.0
243.14035	10.0
255.12813	30.0
260.1142	10.0
266.9827	10.0
271.1358	10.0
271.22672	20.0
315.20969	10.0
317.20392	20.0
319.17001	10.0
323.21341	10.0
342.97156	20.0
345.15274	20.0
399.23175	20.0
443.22427	130.0
444.22919	20.0
455.28571	10.0
484.99658	10.0
497.02017	10.0
511.28552	40.0
521.33081	10.0
529.29651	150.0
540.98456	20.0
544.9964	10.0
547.28955	30.0
562.98669	10.0
565.31451	50.0
575.2666	20.0
594.99365	10.0
670.97687	10.0
759.41113	30.0
761.44763	10.0
761.48096	20.0
827.49622	50.0
828.50323	10.0
835.46686	190.0
836.47522	100.0
853.02222	10.0
853.47614	230.0
854.46948	30.0
871.49365	80.0

NAME:  NCGC00347878-02_C24H28O13_beta-D-Glucopyranoside, 4-hydroxyphenyl 2-O-[(2S,3R,4S)-tetrahydro-3,4-dihydroxy-4-[[(4-hydroxybenzoyl)oxy]methyl]-2-furanyl]-
PRECURSORMZ:  523.14571450983
PRECURSORTYPE:  [M-H]-
FORMULA:  C24H28O13
Ontology: ;;;
INCHIKEY:  GDCHGVOUTCXBSI-UHFFFAOYNA-N
SMILES:  OCC1OC(OC2=CC=C(O)C=C2)C(OC2OCC(O)(COC(=O)C3=CC=C(O)C=C3)C2O)C(O)C1O
RETENTIONTIME:  
CCS:  227.2831243
IONMODE:  Negative
INSTRUMENTTYPE:  
INSTRUMENT:  Maxis II HD Q-TOF Bruker
COLLISIONENERGY:  
Comment:  DB#=CCMSLIB00000851412; origin=GNPS
Num Peaks:  6
93.03521	20.0
113.0252	10.0
137.02409	1000.0
266.51898	20.0
403.12451	20.0
523.14832	90.0

NAME:  NCGC00385743-01_C67H108O33_beta-D-Xylopyranose, O-beta-D-xylopyranosyl-(1->3)-O-alpha-L-arabinopyranosyl-(1->4)-O-6-deoxy-3-O-[(2S,3R,4R)-tetrahydro-3,4-dihydroxy-4-(hydroxymethyl)-2-furanyl]-alpha-L-mannopyranosyl-(1->2)-1-O-[(3beta,5xi,9xi,16alpha)-3-[(6-O-alpha-L-arabinopyranosyl-beta-D-glucopyranosyl)oxy]-16-hydroxy-28-oxoolean-12-en-28-yl]-
PRECURSORMZ:  1485.67548848583
PRECURSORTYPE:  [M+FA-H]-
FORMULA:  C67H108O33
Ontology: Kingdom: Organic compounds;Superclass: Lipids and lipid;Class: Prenol lipids;Subclass: Terpene glycosides
INCHIKEY:  USYFGIHTVDRWHW-UHFFFAOYNA-N
SMILES:  CC1OC(OC2C(O)C(O)COC2OC(=O)C23CCC(C)(C)CC2C2=CCC4C5(C)CCC(OC6OC(COC7OCC(O)C(O)C7O)C(O)C(O)C6O)C(C)(C)C5CCC4(C)C2(C)CC3O)C(O)C(OC2OCC(O)(CO)C2O)C1OC1OCC(O)C(OC2OCC(O)C(O)C2O)C1O
RETENTIONTIME:  
CCS:  -1
IONMODE:  Negative
INSTRUMENTTYPE:  
INSTRUMENT:  Maxis II HD Q-TOF Bruker
COLLISIONENERGY:  
Comment:  DB#=CCMSLIB00000850346; origin=GNPS
Num Peaks:  76
73.03252	10.0
85.0322	30.0
89.02605	60.0
95.0146	20.0
99.00751	20.0
101.02522	70.0
111.00781	20.0
112.98702	20.0
113.02532	110.0
115.04112	30.0
125.02574	30.0
127.04071	50.0
131.03577	250.0
143.03528	130.0
145.05061	20.0
149.04771	130.0
155.03548	30.0
161.0421	40.0
173.04741	30.0
175.03877	20.0
185.04787	20.0
187.06136	10.0
191.05893	10.0
205.07288	180.0
215.05684	30.0
233.06744	50.0
259.0881	10.0
263.07663	60.0
275.0784	10.0
277.09268	150.0
281.08743	70.0
319.10501	20.0
321.07764	30.0
337.11392	350.0
338.12109	20.0
341.87656	10.0
347.09732	20.0
365.10941	110.0
380.24768	10.0
391.12964	30.0
409.13684	310.0
410.14011	10.0
451.14334	30.0
469.15677	570.0
470.16068	50.0
523.16534	10.0
541.17792	470.0
542.185	60.0
560.19543	10.0
601.20203	690.0
602.20404	80.0
633.40393	10.0
673.22058	320.0
674.22467	70.0
679.36609	10.0
691.19757	10.0
691.23468	10.0
703.42859	10.0
707.40723	10.0
721.40228	10.0
721.44403	10.0
747.43713	30.0
761.3382	10.0
765.44482	700.0
766.44885	190.0
841.42371	20.0
842.44031	10.0
1176.57812	10.0
1307.62988	20.0
1308.63013	10.0
1349.62244	10.0
1350.65173	10.0
1439.6687	1000.0
1440.67395	490.0
1441.67322	160.0
1442.67004	10.0

NAME:  Pesticide4_Metaflumizone_C24H16F6N4O2_(2E)-2-{2-(4-Cyanophenyl)-1-[3-(trifluoromethyl)phenyl]ethylidene}-N-[4-(trifluoromethoxy)phenyl]hydrazinecarboxamide
PRECURSORMZ:  541.0871460089
PRECURSORTYPE:  [M+Cl]-
FORMULA:  C24H16F6N4O2
Ontology: Kingdom: Organic compounds;Superclass: Phenylpropanoids and polyketides;Class: Stilbenes;
INCHIKEY:  MIFOMMKAVSCNKQ-UHFFFAOYSA-N
SMILES:  OC(NC1=CC=C(OC(F)(F)F)C=C1)=NN=C(CC1=CC=C(C=C1)C#N)C1=CC(=CC=C1)C(F)(F)F
RETENTIONTIME:  
CCS:  -1
IONMODE:  Negative
INSTRUMENTTYPE:  
INSTRUMENT:  Q-Exactive Plus Orbitrap Res 70k
COLLISIONENERGY:  
Comment:  DB#=CCMSLIB00001058398; origin=GNPS
Num Peaks:  14
102.035	60.0
116.03831	60.0
116.05077	10.0
117.0461	80.0
141.0462	30.0
171.04289	10.0
199.04892	20.0
214.06691	20.0
234.073	10.0
272.06998	10.0
274.08502	20.0
285.06549	50.0
302.09125	1000.0
328.07141	40.0

NAME:  NCGC00384682-01_C48H78O18_1-O-[(3beta)-3-{[3-O-(beta-D-Galactopyranosyl)-beta-D-glucopyranosyl]oxy}-28-oxoolean-12-en-28-yl]-beta-D-glucopyranose
PRECURSORMZ:  987.51701821983
PRECURSORTYPE:  [M+FA-H]-
FORMULA:  C48H78O18
Ontology: Kingdom: Organic compounds;Superclass: Lipids and lipid;Class: Prenol lipids;Subclass: Terpene glycosides
INCHIKEY:  MHCDFIFLMYBWIV-UHFFFAOYNA-N
SMILES:  CC1(C)CCC2(CCC3(C)C(=CCC4C5(C)CCC(OC6OC(CO)C(O)C(OC7OC(CO)C(O)C(O)C7O)C6O)C(C)(C)C5CCC34C)C2C1)C(=O)OC1OC(CO)C(O)C(O)C1O
RETENTIONTIME:  
CCS:  -1
IONMODE:  Negative
INSTRUMENTTYPE:  
INSTRUMENT:  Maxis II HD Q-TOF Bruker
COLLISIONENERGY:  
Comment:  DB#=CCMSLIB00000850595; origin=GNPS
Num Peaks:  53
88.59951	20.0
101.02455	100.0
102.20978	20.0
111.01389	20.0
113.02445	20.0
119.03499	70.0
125.02415	10.0
143.04114	30.0
160.97099	10.0
161.04437	200.0
179.05725	110.0
195.06876	20.0
199.99915	20.0
215.03528	30.0
269.04626	20.0
271.04425	20.0
287.01541	20.0
296.13565	20.0
299.02838	20.0
301.02057	20.0
306.11658	20.0
326.06647	20.0
334.71228	10.0
343.116	20.0
365.50876	30.0
410.23682	10.0
418.98349	30.0
456.36453	20.0
505.32047	30.0
577.02069	20.0
617.43817	20.0
624.98218	30.0
727.39038	20.0
735.4632	130.0
736.45538	10.0
736.49463	10.0
737.48071	30.0
777.23389	10.0
777.45685	20.0
778.57471	30.0
779.4624	1000.0
780.45856	250.0
793.46265	20.0
821.47845	130.0
862.53644	10.0
865.04626	10.0
877.00739	10.0
881.52185	10.0
941.48914	20.0
941.58154	20.0
942.52698	40.0
955.49792	10.0
987.37488	10.0

NAME:  kaempferol-7-O-hexosyl(1-2)deoxyhexoside
PRECURSORMZ:  593.15119381383
PRECURSORTYPE:  [M-H]-
FORMULA:  C27H30O15
Ontology: Kingdom: Organic compounds;Superclass: Phenylpropanoids and polyketides;Class: Flavonoids;Subclass: Flavonoid glycosides
INCHIKEY:  ZEJXENDZTYVXDP-UHFFFAOYNA-N
SMILES:  CC1OC(OC2C(O)C(O)C(CO)OC2OC2=CC(O)=C3C(=O)C(O)=C(OC3=C2)C2=CC=C(O)C=C2)C(O)C(O)C1O
RETENTIONTIME:  
CCS:  239.0670965
IONMODE:  Negative
INSTRUMENTTYPE:  
INSTRUMENT:  qTof
COLLISIONENERGY:  
Comment:  DB#=CCMSLIB00004678866; origin=GNPS
Num Peaks:  68
103.03755	20.0
135.08224	10.0
145.02873	30.0
147.03375	20.0
154.01741	10.0
163.03813	20.0
177.01572	10.0
184.08313	10.0
187.08522	20.0
191.0585	10.0
205.05565	40.0
207.10252	10.0
223.06268	20.0
227.02477	20.0
228.02797	10.0
255.03885	20.0
256.04016	20.0
257.06436	20.0
265.07291	10.0
279.12769	20.0
283.02167	10.0
284.03476	540.0
284.1629	20.0
285.04074	1000.0
285.18384	30.0
285.26462	20.0
285.45859	10.0
285.88458	10.0
286.04196	150.0
286.13235	20.0
286.16599	10.0
286.2395	10.0
287.04636	20.0
287.12915	10.0
305.16553	10.0
307.08792	30.0
309.09854	20.0
317.14737	10.0
326.03836	20.0
327.06363	20.0
331.18808	10.0
413.06693	10.0
429.06998	10.0
447.09601	120.0
448.10513	20.0
449.08313	10.0
453.53683	10.0
455.25662	10.0
487.12378	10.0
496.10385	10.0
497.30338	10.0
532.26404	10.0
533.33685	20.0
534.08728	10.0
571.78027	10.0
592.17657	20.0
593.12982	990.0
593.33972	30.0
593.4101	20.0
593.50232	10.0
593.57159	10.0
594.13477	220.0
594.24548	50.0
594.3363	20.0
595.14642	70.0
595.32452	10.0
664.49384	10.0
695.30121	20.0

NAME:  NCGC00169427-03_C34H42O17_(1aS,1bS,2S,5aR,6S,6aS)-6-({3,4-Di-O-acetyl-6-deoxy-2-O-[(2E)-3-phenyl-2-propenoyl]-alpha-L-mannopyranosyl}oxy)-1a-(hydroxymethyl)-1a,1b,2,5a,6,6a-hexahydrooxireno[4,5]cyclopenta[1,2-c]pyran-2-yl beta-D-glucopyranoside
PRECURSORMZ:  767.24040243983
PRECURSORTYPE:  [M+FA-H]-
FORMULA:  C34H42O17
Ontology: Kingdom: Organic compounds;Superclass: Phenylpropanoids and polyketides;Class: Cinnamic acids and derivatives;Subclass: Cinnamic acid esters
INCHIKEY:  VJFDKEUBFXWWLI-UHFFFAOYNA-N
SMILES:  CC1OC(OC2C3OC3(CO)C3C2C=COC3OC2OC(CO)C(O)C(O)C2O)C(OC(=O)C=CC2=CC=CC=C2)C(OC(C)=O)C1OC(C)=O
RETENTIONTIME:  
CCS:  -1
IONMODE:  Negative
INSTRUMENTTYPE:  
INSTRUMENT:  Maxis II HD Q-TOF Bruker
COLLISIONENERGY:  
Comment:  DB#=CCMSLIB00000850829; origin=GNPS
Num Peaks:  71
81.03188	20.0
99.0447	30.0
103.05503	30.0
105.03242	20.0
108.02238	10.0
109.03365	50.0
110.9007	10.0
111.04462	10.0
112.01805	30.0
117.03148	20.0
119.03603	40.0
119.52233	10.0
121.02444	10.0
121.06932	40.0
123.04259	40.0
125.02093	10.0
126.03165	80.0
127.04002	310.0
128.01547	10.0
133.07741	30.0
134.04054	10.0
135.04358	160.0
136.01665	20.0
137.02972	10.0
137.05962	20.0
139.03641	20.0
144.85815	10.0
145.03299	70.0
145.06783	20.0
147.04456	1000.0
148.04832	20.0
151.03821	190.0
151.09361	20.0
152.05215	10.0
153.02065	20.0
153.04965	20.0
155.0441	20.0
161.04822	30.0
163.03943	210.0
164.17085	10.0
168.04626	10.0
169.04826	30.0
171.04398	120.0
176.04729	20.0
179.06512	20.0
181.04732	90.0
182.05099	20.0
187.04356	30.0
187.07571	20.0
192.91457	10.0
193.05032	30.0
198.05206	10.0
205.04692	10.0
211.11058	10.0
215.07246	20.0
223.06812	80.0
237.0755	30.0
241.07829	20.0
281.90787	10.0
297.01154	20.0
297.10077	20.0
343.0864	20.0
385.13794	10.0
403.14163	20.0
427.13663	10.0
445.1506	530.0
446.16718	30.0
473.14612	20.0
515.17657	10.0
529.16339	20.0
1277.02759	10.0

NAME:  NCGC00380855-01_C42H66O19_7'-Hydroxy-8',12'-dimethyl-5-oxodihydrospiro[furan-3,5'-[6]oxapentacyclo[9.8.0.0~1,7~.0~4,8~.0~12,17~]nonadecan]-15'-yl hexopyranosyl-(1->4)hexopyranosyl-(1->4)-6-deoxy-3-O-methylhexopyranoside
PRECURSORMZ:  873.41255345283
PRECURSORTYPE:  [M-H]-
FORMULA:  C42H66O19
Ontology: Kingdom: Organic compounds;Superclass: Organic oxygen compounds;Class: Organooxygen compounds;Subclass: Carbohydrates and carbohydrate conjugates
INCHIKEY:  NJYMCMBDFMRROK-UHFFFAOYNA-N
SMILES:  COC1C(O)C(OC2CCC3(C)C(CCC45CCC6C(C)(CCC34)C5(O)OC63COC(=O)C3)C2)OC(C)C1OC1OC(CO)C(OC2OC(CO)C(O)C(O)C2O)C(O)C1O
RETENTIONTIME:  
CCS:  -1
IONMODE:  Negative
INSTRUMENTTYPE:  
INSTRUMENT:  Maxis II HD Q-TOF Bruker
COLLISIONENERGY:  
Comment:  DB#=CCMSLIB00000850628; origin=GNPS
Num Peaks:  34
101.02579	20.0
101.4966	10.0
109.03349	20.0
111.008	40.0
113.02524	40.0
119.02959	40.0
127.04816	10.0
129.00368	20.0
141.0199	20.0
143.0547	30.0
145.06068	20.0
161.04437	80.0
167.00172	20.0
179.06223	20.0
259.06723	20.0
263.07446	100.0
282.07214	30.0
306.09671	20.0
347.79721	20.0
434.99554	30.0
505.32059	20.0
527.0932	10.0
532.88562	10.0
549.31036	40.0
573.19922	30.0
711.37915	60.0
807.97882	20.0
872.40417	10.0
873.41803	1000.0
874.10278	30.0
874.4165	160.0
875.0426	20.0
875.43335	30.0
876.41937	10.0

NAME:  NCGC00381046-01_C41H66O14_9,19-Cyclolanost-24-en-26-oic acid, 3-[(2-O-hexopyranosylpentopyranosyl)oxy]-12,15-dihydroxy-, (3beta,8xi,9beta,24E)-
PRECURSORMZ:  781.43798035283
PRECURSORTYPE:  [M-H]-
FORMULA:  C41H66O14
Ontology: Kingdom: Organic compounds;Superclass: Lipids and lipid;Class: Steroids and steroid derivatives;Subclass: Steroidal glycosides
INCHIKEY:  WIKNHJPJHDNAME-UHFFFAOYNA-N
SMILES:  CC(CCC=C(C)C(O)=O)C1CC(O)C2(C)C3CCC4C5(CC35CC(O)C12C)CCC(OC1OCC(O)C(O)C1OC1OC(CO)C(O)C(O)C1O)C4(C)C
RETENTIONTIME:  
CCS:  -1
IONMODE:  Negative
INSTRUMENTTYPE:  
INSTRUMENT:  Maxis II HD Q-TOF Bruker
COLLISIONENERGY:  
Comment:  DB#=CCMSLIB00000850852; origin=GNPS
Num Peaks:  7
101.02598	20.0
113.02323	20.0
131.03519	20.0
487.35037	20.0
619.38599	100.0
781.43939	1000.0
782.4436	120.0

NAME:  NCGC00380467-01_C26H30O13_2H-Pyran-4-acetic acid, 5-carboxy-2-(beta-D-glucopyranosyloxy)-3,4-dihydro-3-[2-[[(2Z)-1-oxo-3-phenyl-2-propen-1-yl]oxy]ethylidene]-, alpha-methyl ester, (2S,3Z,4S)-
PRECURSORMZ:  595.16684357383
PRECURSORTYPE:  [M+FA-H]-
FORMULA:  C26H30O13
Ontology: Kingdom: Organic compounds;Superclass: Lipids and lipid;Class: Prenol lipids;Subclass: Terpene glycosides
INCHIKEY:  JGHUOJAZXGSFRI-UHFFFAOYNA-N
SMILES:  COC(=O)CC1C(=CCOC(=O)C=CC2=CC=CC=C2)C(OC2OC(CO)C(O)C(O)C2O)OC=C1C(O)=O
RETENTIONTIME:  
CCS:  -1
IONMODE:  Negative
INSTRUMENTTYPE:  
INSTRUMENT:  Maxis II HD Q-TOF Bruker
COLLISIONENERGY:  
Comment:  DB#=CCMSLIB00000850151; origin=GNPS
Num Peaks:  18
76.12982	10.0
81.09626	20.0
119.04908	10.0
133.02583	10.0
135.04651	20.0
143.03328	20.0
145.02933	170.0
147.04285	200.0
149.06331	20.0
163.05315	10.0
165.01991	70.0
177.05464	1000.0
195.06458	130.0
205.04628	20.0
219.0694	10.0
221.04562	450.0
401.10907	40.0
549.15137	10.0

NAME:  NCGC00381098-01_C26H34O12_3-Hydroxy-1-(3-hydroxy-4-methoxyphenyl)-2-{4-[(1E)-3-hydroxy-1-propen-1-yl]-2-methoxyphenoxy}propyl beta-D-glucopyranoside
PRECURSORMZ:  583.20322908283
PRECURSORTYPE:  [M+FA-H]-
FORMULA:  C26H34O12
Ontology: Kingdom: Organic compounds;Superclass: Organic oxygen compounds;Class: Organooxygen compounds;Subclass: Carbohydrates and carbohydrate conjugates
INCHIKEY:  XBTCTDQFKYYTLT-UHFFFAOYNA-N
SMILES:  COC1=C(O)C=C(C=C1)C(OC1OC(CO)C(O)C(O)C1O)C(CO)OC1=C(OC)C=C(C=CCO)C=C1
RETENTIONTIME:  
CCS:  -1
IONMODE:  Negative
INSTRUMENTTYPE:  
INSTRUMENT:  Maxis II HD Q-TOF Bruker
COLLISIONENERGY:  
Comment:  DB#=CCMSLIB00000849235; origin=GNPS
Num Peaks:  54
71.01331	20.0
79.27034	10.0
79.90345	20.0
89.02385	40.0
90.75011	10.0
98.23145	30.0
99.4121	10.0
101.02519	130.0
108.50448	10.0
113.02406	210.0
119.03471	220.0
129.97629	20.0
133.03047	30.0
134.03574	10.0
143.03499	120.0
145.03049	80.0
146.03751	90.0
147.7438	10.0
148.87874	10.0
148.91425	20.0
149.02505	40.0
150.03053	20.0
151.04938	20.0
161.02376	30.0
161.05296	330.0
161.49565	20.0
162.0327	190.0
164.04727	100.0
164.90541	10.0
165.05667	70.0
177.05565	510.0
178.79935	10.0
179.05891	1000.0
180.0619	20.0
189.0569	30.0
195.06447	60.0
209.07608	20.0
219.06787	20.0
225.05936	10.0
231.06538	40.0
237.07149	20.0
251.07967	20.0
282.09821	10.0
284.0993	20.0
309.10574	20.0
311.59286	10.0
312.10602	60.0
324.10095	10.0
327.12558	370.0
328.14267	10.0
339.11798	20.0
342.10519	40.0
357.13184	190.0
537.19287	30.0

NAME:  NCGC00380896-01_C32H42O14_
PRECURSORMZ:  649.25017957983
PRECURSORTYPE:  [M-H]-
FORMULA:  C32H42O14
Ontology: Kingdom: Organic compounds;Superclass: Lipids and lipid;Class: Prenol lipids;Subclass: Terpene glycosides
INCHIKEY:  PWYKZGIRJKJYLR-UHFFFAOYNA-N
SMILES:  CC(C)CC(=O)OC1OC=C(COC2OC(CO)C(O)C(O)C2OC(=O)C=CC2=CC=C(O)C=C2)C2CCC(O)(COC(C)=O)C12
RETENTIONTIME:  
CCS:  -1
IONMODE:  Negative
INSTRUMENTTYPE:  
INSTRUMENT:  Maxis II HD Q-TOF Bruker
COLLISIONENERGY:  
Comment:  DB#=CCMSLIB00000849848; origin=GNPS
Num Peaks:  12
117.03389	100.0
119.04955	60.0
145.02924	1000.0
161.06041	20.0
163.04004	100.0
177.05576	10.0
187.04025	50.0
205.05077	80.0
307.0864	10.0
367.10193	50.0
547.18335	30.0
649.25238	80.0

NAME:  NCGC00380989-01_C21H22O7_3H-Furo[4,3,2-de]indeno[4,5-h]-2-benzopyran-3,6,9-trione, 1,6b,7,8,9a,10,11,11b-octahydro-11-hydroxy-1-(methoxymethyl)-9a,11b-dimethyl-, (1S,6bR,9aS,11R,11bR)-
PRECURSORMZ:  385.12927659583
PRECURSORTYPE:  [M-H]-
FORMULA:  C21H22O7
Ontology: Kingdom: Organic compounds;Superclass: Lipids and lipid;Class: Steroids and steroid derivatives;Subclass: Oxasteroids and derivatives
INCHIKEY:  SIROZWFVILRLGG-UHFFFAOYNA-N
SMILES:  COCC1OC(=O)C2=COC3=C2C1(C)C1=C(C2CCC(=O)C2(C)CC1O)C3=O
RETENTIONTIME:  
CCS:  -1
IONMODE:  Negative
INSTRUMENTTYPE:  
INSTRUMENT:  Maxis II HD Q-TOF Bruker
COLLISIONENERGY:  
Comment:  DB#=CCMSLIB00000850385; origin=GNPS
Num Peaks:  13
98.4548	20.0
136.5737	30.0
223.06955	10.0
237.05074	30.0
239.10939	20.0
239.13042	20.0
252.08263	160.0
267.10391	690.0
274.46643	50.0
281.08801	70.0
326.11212	80.0
341.138	1000.0
385.12494	50.0

NAME:  NCGC00380502-01_C19H28O10_beta-D-Glucopyranoside, 2-phenylethyl 6-O-beta-D-xylopyranosyl-
PRECURSORMZ:  461.16644964983
PRECURSORTYPE:  [M+FA-H]-
FORMULA:  C19H28O10
Ontology: Kingdom: Organic compounds;Superclass: Organic oxygen compounds;Class: Organooxygen compounds;Subclass: Carbohydrates and carbohydrate conjugates
INCHIKEY:  ZRGXCWYRIBRSQA-UHFFFAOYNA-N
SMILES:  OC1COC(OCC2OC(OCCC3=CC=CC=C3)C(O)C(O)C2O)C(O)C1O
RETENTIONTIME:  
CCS:  -1
IONMODE:  Negative
INSTRUMENTTYPE:  
INSTRUMENT:  Maxis II HD Q-TOF Bruker
COLLISIONENERGY:  
Comment:  DB#=CCMSLIB00000850106; origin=GNPS
Num Peaks:  17
80.44299	20.0
101.02431	110.0
113.03004	70.0
113.5294	130.0
131.033	290.0
143.03317	90.0
149.04495	530.0
173.0481	30.0
179.05412	340.0
191.05624	1000.0
221.06627	110.0
237.83388	10.0
251.07703	160.0
311.10031	110.0
415.17325	170.0
416.18701	30.0
461.17511	130.0

NAME:  NCGC00347837-02_C42H58N8O7_1,4,7,10,13,16,19-Heptaazacyclotricosane-2,5,8,11,14,17,20-heptone, 3-(1H-indol-3-ylmethyl)-6,18-dimethyl-15-(1-methylethyl)-9-(2-methylpropyl)-12-(1-phenylethyl)-
PRECURSORMZ:  785.43556978783
PRECURSORTYPE:  [M-H]-
FORMULA:  C42H58N8O7
Ontology: Kingdom: Organic compounds;Superclass: Organic acids and derivatives;Class: Peptidomimetics;Subclass: Hybrid peptides
INCHIKEY:  JYHXDMQYXCMDPF-UHFFFAOYNA-N
SMILES:  CC(C)CC1N=C(O)C(N=C(O)C(N=C(O)C(C)N=C(O)CCCN=C(O)C(CC2=CNC3=CC=CC=C23)N=C(O)C(C)N=C1O)C(C)C)C(C)C1=CC=CC=C1
RETENTIONTIME:  
CCS:  -1
IONMODE:  Negative
INSTRUMENTTYPE:  
INSTRUMENT:  Maxis II HD Q-TOF Bruker
COLLISIONENERGY:  
Comment:  DB#=CCMSLIB00000850940; origin=GNPS
Num Peaks:  76
111.02264	50.0
120.04929	30.0
125.07475	30.0
126.05664	20.0
127.04964	60.0
142.06834	20.0
143.04768	70.0
144.07275	20.0
149.97009	40.0
152.05634	20.0
153.06073	20.0
155.08418	10.0
165.10089	20.0
168.10791	30.0
170.09433	30.0
171.11021	30.0
181.10202	20.0
183.1131	50.0
186.12767	30.0
188.0746	20.0
200.13521	30.0
221.29605	30.0
226.11887	30.0
229.12524	110.0
236.13438	30.0
238.14481	30.0
239.14288	20.0
241.15083	20.0
278.12607	10.0
290.19034	10.0
300.20529	20.0
302.19269	20.0
319.71625	20.0
328.20624	40.0
338.21463	20.0
350.21445	20.0
352.23691	10.0
355.21677	30.0
358.19431	30.0
378.21185	30.0
380.5358	10.0
381.22256	60.0
382.17499	20.0
382.23358	20.0
383.20413	30.0
385.80899	10.0
386.24582	20.0
389.25021	80.0
396.21152	30.0
398.16498	10.0
451.26135	20.0
460.2926	50.0
472.24734	20.0
489.28372	70.0
494.25769	20.0
497.28598	50.0
498.29163	20.0
509.24966	20.0
512.31488	20.0
524.30878	10.0
527.26184	20.0
528.28778	70.0
537.29163	20.0
566.26709	30.0
571.3266	20.0
612.4082	30.0
618.35626	30.0
632.34375	20.0
656.37958	140.0
680.37579	20.0
780.39459	10.0
783.79651	20.0
785.43872	1000.0
785.6131	20.0
786.44202	100.0
786.63971	10.0

NAME:  NCGC00385730-01_C67H106O28_
PRECURSORMZ:  1357.67978632083
PRECURSORTYPE:  [M-H]-
FORMULA:  C67H106O28
Ontology: Kingdom: Organic compounds;Superclass: Lipids and lipid;Class: Prenol lipids;Subclass: Terpene glycosides
INCHIKEY:  KYRFLECDBCSAMY-UHFFFAOYNA-N
SMILES:  CC(=CCCC(C)(O)C=C)C(=O)OC1CC2(CCC3(C)C(=CCC4C5(C)CCC(OC6OC(COC7OCC(O)C(O)C7O)C(O)C(OC7OCC(O)C(O)C7O)C6OC6OC(CO)C(O)C(O)C6OC6OCC(O)C(O)C6O)C(C)(C)C5CCC34C)C2CC1(C)C)C(O)=O
RETENTIONTIME:  
CCS:  -1
IONMODE:  Negative
INSTRUMENTTYPE:  
INSTRUMENT:  Maxis II HD Q-TOF Bruker
COLLISIONENERGY:  
Comment:  DB#=CCMSLIB00000851202; origin=GNPS
Num Peaks:  4
1356.68384	10.0
1357.6803	1000.0
1358.17712	30.0
1358.69141	240.0

NAME:  NCGC00380614-01_C24H23N5O4_2H-Pyrazino[2,1-b]quinazoline-3,6(1H,4H)-dione, 1-methyl-4-[[(2S,9S,9aS)-2,3,9,9a-tetrahydro-9-hydroxy-2-methyl-3-oxo-1H-imidazo[1,2-a]indol-9-yl]methyl]-, (1S,4R)-
PRECURSORMZ:  444.16772778883
PRECURSORTYPE:  [M-H]-
FORMULA:  C24H23N5O4
Ontology: Kingdom: Organic compounds;Superclass: Organoheterocyclic compounds;Class: Diazanaphthalenes;Subclass: Benzodiazines
INCHIKEY:  DQQCCKFZJNINST-UHFFFAOYNA-N
SMILES:  CC1NC2N(C1=O)C1=CC=CC=C1C2(O)CC1N2C(=O)C3=CC=CC=C3N=C2C(C)N=C1O
RETENTIONTIME:  
CCS:  215.1967148
IONMODE:  Negative
INSTRUMENTTYPE:  
INSTRUMENT:  Maxis II HD Q-TOF Bruker
COLLISIONENERGY:  
Comment:  DB#=CCMSLIB00000849262; origin=GNPS
Num Peaks:  38
99.87459	10.0
127.42887	20.0
130.05255	20.0
132.04288	100.0
144.02744	10.0
144.04796	30.0
145.03874	70.0
158.05859	30.0
160.04144	40.0
161.03131	30.0
167.06392	40.0
170.03127	30.0
173.07072	20.0
186.06805	90.0
188.08228	50.0
201.06662	130.0
211.08867	20.0
213.05559	100.0
214.06	60.0
214.89035	20.0
224.09186	20.0
226.01401	30.0
226.06883	60.0
227.08917	60.0
228.07433	30.0
229.00972	20.0
240.06575	40.0
242.09367	850.0
255.08141	20.0
267.11926	20.0
363.99554	30.0
373.13351	80.0
408.14725	30.0
426.27026	20.0
442.63892	10.0
444.16867	1000.0
445.42303	10.0
459.08981	10.0

NAME:  NCGC00168932-02_C18H22O10_5-Benzofuranpropanoic acid, 4-(beta-D-glucopyranosyloxy)-6-methoxy-
PRECURSORMZ:  443.11949945583
PRECURSORTYPE:  [M+FA-H]-
FORMULA:  C18H22O10
Ontology: Kingdom: Organic compounds;Superclass: Organic oxygen compounds;Class: Organooxygen compounds;Subclass: Carbohydrates and carbohydrate conjugates
INCHIKEY:  OLFRCQFNQXYDGW-UHFFFAOYNA-N
SMILES:  COC1=CC2=C(C=CO2)C(OC2OC(CO)C(O)C(O)C2O)=C1CCC(O)=O
RETENTIONTIME:  
CCS:  -1
IONMODE:  Negative
INSTRUMENTTYPE:  
INSTRUMENT:  Maxis II HD Q-TOF Bruker
COLLISIONENERGY:  
Comment:  DB#=CCMSLIB00000850043; origin=GNPS
Num Peaks:  8
174.03366	10.0
175.04276	10.0
176.04723	170.0
191.07074	40.0
217.05415	40.0
220.0356	20.0
235.06082	1000.0
397.1134	140.0

NAME:  NCGC00380902-01_C66H108O32_
PRECURSORMZ:  1411.67509486583
PRECURSORTYPE:  [M-H]-
FORMULA:  C66H108O32
Ontology: Kingdom: Organic compounds;Superclass: Lipids and lipid;Class: Prenol lipids;Subclass: Terpene glycosides
INCHIKEY:  FYJIAYYWHNHDEL-UHFFFAOYNA-N
SMILES:  CC1OC(OC2C(O)C(O)C(OCC3OC(OC(=O)C45CCC(C)(C)CC4C4=CCC6C7(C)CCC(OC8OC(CO)C(O)C(OC9OC(CO)C(O)C(O)C9O)C8O)C(C)(C)C7CCC6(C)C4(C)CC5)C(O)C(O)C3O)OC2CO)C(O)C(O)C1OC1OC(CO)C(O)C(O)C1O
RETENTIONTIME:  
CCS:  -1
IONMODE:  Negative
INSTRUMENTTYPE:  
INSTRUMENT:  Maxis II HD Q-TOF Bruker
COLLISIONENERGY:  
Comment:  DB#=CCMSLIB00000851097; origin=GNPS
Num Peaks:  47
85.0295	20.0
89.02543	20.0
101.02425	80.0
113.02454	40.0
119.03535	30.0
125.02402	70.0
127.03939	20.0
131.03444	20.0
143.03525	50.0
145.04977	50.0
161.04527	150.0
179.05614	70.0
205.07301	20.0
221.06639	50.0
245.06345	10.0
247.08269	50.0
263.07693	60.0
265.09012	10.0
307.10333	160.0
308.10852	10.0
325.11475	10.0
367.12463	390.0
368.12695	40.0
409.13583	200.0
410.14127	20.0
427.14587	110.0
428.14905	10.0
455.3519	60.0
456.36212	10.0
469.15738	30.0
529.17987	160.0
530.18152	20.0
553.17737	10.0
571.18939	60.0
572.19983	10.0
599.3949	30.0
613.198	10.0
617.40765	80.0
618.40955	10.0
631.21002	1000.0
632.2135	210.0
633.21295	50.0
779.4632	100.0
780.46777	30.0
1411.6803	240.0
1412.68433	140.0
1413.67847	40.0

NAME:  NCGC00380668-01_C48H78O18_(3beta,5xi,9xi,22beta)-22,24-Dihydroxyolean-12-en-3-yl 6-deoxy-alpha-L-mannopyranosyl-(1->2)-beta-D-galactopyranosyl-(1->2)-beta-D-glucopyranosiduronic acid
PRECURSORMZ:  941.51153921983
PRECURSORTYPE:  [M-H]-
FORMULA:  C48H78O18
Ontology: Kingdom: Organic compounds;Superclass: Lipids and lipid;Class: Prenol lipids;Subclass: Terpene glycosides
INCHIKEY:  PTDAHAWQAGSZDD-UHFFFAOYNA-N
SMILES:  CC1OC(OC2C(O)C(O)C(CO)OC2OC2C(O)C(O)C(OC2OC2CCC3(C)C(CCC4(C)C3CC=C3C5CC(C)(C)CC(O)C5(C)CCC43C)C2(C)CO)C(O)=O)C(O)C(O)C1O
RETENTIONTIME:  
CCS:  253.4477199
IONMODE:  Negative
INSTRUMENTTYPE:  
INSTRUMENT:  Maxis II HD Q-TOF Bruker
COLLISIONENERGY:  
Comment:  DB#=CCMSLIB00000849761; origin=GNPS
Num Peaks:  23
71.01736	10.0
85.02911	20.0
89.0256	20.0
99.00932	30.0
101.02361	40.0
112.01609	10.0
113.02446	120.0
115.04148	20.0
119.03354	20.0
131.03281	30.0
143.03438	60.0
145.04982	30.0
157.01244	30.0
161.04561	30.0
163.05965	30.0
205.07013	100.0
247.08435	30.0
615.38104	30.0
923.49182	20.0
941.39081	10.0
941.51239	1000.0
942.51666	270.0
943.52258	20.0

NAME:  NCGC00380765-01_C53H88O25_
PRECURSORMZ:  1169.55967088183
PRECURSORTYPE:  [M+FA-H]-
FORMULA:  C53H88O25
Ontology: Kingdom: Organic compounds;Superclass: Lipids and lipid;Class: Steroids and steroid derivatives;Subclass: Steroidal glycosides
INCHIKEY:  IVGOREXWBRGMRG-UHFFFAOYNA-N
SMILES:  COC1CC(OC2CCC3(C)C4CCC5(C)C(CCC5(O)C4CC=C3C2)C(C)O)OC(C)C1OC1OC(C)C(OC2OC(COC3OC(COC4OC(CO)C(O)C(O)C4O)C(O)C(O)C3O)C(O)C(O)C2O)C(OC)C1O
RETENTIONTIME:  
CCS:  -1
IONMODE:  Negative
INSTRUMENTTYPE:  
INSTRUMENT:  Maxis II HD Q-TOF Bruker
COLLISIONENERGY:  
Comment:  DB#=CCMSLIB00000850405; origin=GNPS
Num Peaks:  36
71.01468	20.0
85.02876	20.0
89.02434	40.0
101.02361	140.0
111.00952	10.0
111.04422	10.0
113.02377	140.0
119.03391	90.0
125.02396	70.0
131.03392	30.0
141.01817	10.0
143.03441	60.0
145.04912	10.0
149.04434	10.0
155.03439	10.0
159.03008	20.0
161.04393	190.0
179.05565	250.0
203.05486	20.0
221.06592	160.0
233.0661	20.0
245.06708	40.0
263.07742	80.0
281.08948	10.0
323.0976	90.0
341.10693	10.0
383.11777	30.0
407.12292	20.0
425.12988	30.0
485.15344	30.0
799.44708	20.0
961.50513	110.0
962.51056	30.0
1123.55615	1000.0
1124.55701	390.0
1125.56335	50.0

NAME:  NCGC00380886-01_C26H40O12_
PRECURSORMZ:  543.24470027583
PRECURSORTYPE:  [M-H]-
FORMULA:  C26H40O12
Ontology: Kingdom: Organic compounds;Superclass: Lipids and lipid;Class: Prenol lipids;Subclass: Terpene glycosides
INCHIKEY:  JCNYBRAUXUDAEQ-UHFFFAOYNA-N
SMILES:  CC(CCO)CCC=C(C)C(=O)OC1(C)CCC2C1C(OC1OC(CO)C(O)C(O)C1O)OC=C2C(O)=O
RETENTIONTIME:  
CCS:  -1
IONMODE:  Negative
INSTRUMENTTYPE:  
INSTRUMENT:  Maxis II HD Q-TOF Bruker
COLLISIONENERGY:  
Comment:  DB#=CCMSLIB00000850055; origin=GNPS
Num Peaks:  27
85.02817	20.0
89.02496	10.0
95.01538	30.0
101.0306	20.0
107.04971	60.0
109.06606	30.0
113.02273	60.0
125.05861	30.0
132.02507	20.0
133.06688	10.0
143.0415	10.0
151.03935	20.0
151.07631	180.0
161.04681	50.0
167.10394	10.0
169.0856	160.0
179.05203	10.0
185.1183	330.0
195.06998	40.0
199.13104	20.0
213.07504	150.0
253.10687	10.0
313.12827	20.0
353.57928	10.0
357.11978	1000.0
375.12643	140.0
543.24707	320.0

NAME:  NCGC00380598-01_C30H49N5O9_3-(3-sec-Butyl-6-isopropyl-5,8,9-trimethyl-1,4,7,10,14,17-hexaoxoicosahydropyrrolo[1,2-d][1,4,7,10,13,16]oxapentaazacyclononadecin-16-yl)-2-methylpropanoic acid
PRECURSORMZ:  622.34575172583
PRECURSORTYPE:  [M-H]-
FORMULA:  C30H49N5O9
Ontology: Kingdom: Organic compounds;Superclass: Organic acids and derivatives;Class: Peptidomimetics;Subclass: Depsipeptides
INCHIKEY:  WTVZRLMVNARECX-UHFFFAOYNA-N
SMILES:  CCC(C)C1N=C(O)C2CCCN2C(=O)C(CC(C)C(O)=O)OC(=O)CCN=C(O)C(C)N(C)C(=O)C(C(C)C)N(C)C1=O
RETENTIONTIME:  
CCS:  256.014802
IONMODE:  Negative
INSTRUMENTTYPE:  
INSTRUMENT:  Maxis II HD Q-TOF Bruker
COLLISIONENERGY:  
Comment:  DB#=CCMSLIB00000849274; origin=GNPS
Num Peaks:  42
71.01502	10.0
83.0485	10.0
88.04134	10.0
101.0712	70.0
114.05655	10.0
127.05064	40.0
136.11322	10.0
139.0507	20.0
142.05119	30.0
143.04037	10.0
143.11845	20.0
150.0943	10.0
165.06647	10.0
165.10335	20.0
168.0838	20.0
168.10352	40.0
169.09851	10.0
173.09288	250.0
193.10008	50.0
196.09706	20.0
196.14224	10.0
197.1299	30.0
209.13005	20.0
214.15668	30.0
225.16081	20.0
239.10519	10.0
240.08316	10.0
240.16954	20.0
286.17807	60.0
291.16986	20.0
296.23352	10.0
322.20883	10.0
335.16205	80.0
366.20392	40.0
424.29086	20.0
424.33096	20.0
448.24454	20.0
496.30725	20.0
532.32422	10.0
550.3241	120.0
622.34778	1000.0
623.34253	20.0

NAME:  NCGC00380852-01_C24H30O13_2-(Hexopyranosyloxy)-1a-(hydroxymethyl)-1a,1b,2,5a,6,6a-hexahydrooxireno[4,5]cyclopenta[1,2-c]pyran-6-yl 3,4-dimethoxybenzoate
PRECURSORMZ:  571.16684357383
PRECURSORTYPE:  [M+FA-H]-
FORMULA:  C24H30O13
Ontology: Kingdom: Organic compounds;Superclass: Phenylpropanoids and polyketides;Class: Tannins;Subclass: Hydrolyzable tannins
INCHIKEY:  JPLOCWOFCUFHBG-UHFFFAOYNA-N
SMILES:  COC1=C(OC)C=C(C=C1)C(=O)OC1C2OC2(CO)C2C1C=COC2OC1OC(CO)C(O)C(O)C1O
RETENTIONTIME:  
CCS:  -1
IONMODE:  Negative
INSTRUMENTTYPE:  
INSTRUMENT:  Maxis II HD Q-TOF Bruker
COLLISIONENERGY:  
Comment:  DB#=CCMSLIB00000849809; origin=GNPS
Num Peaks:  32
97.02921	20.0
110.31744	10.0
123.01517	10.0
123.04223	20.0
132.02538	10.0
135.04305	30.0
137.02695	40.0
137.06062	30.0
145.02954	30.0
150.0295	20.0
151.04033	130.0
161.04468	20.0
163.04062	190.0
169.05138	20.0
178.05719	20.0
181.05109	730.0
193.08899	30.0
199.06808	20.0
205.05251	20.0
206.05994	60.0
221.08144	80.0
234.05344	10.0
249.07652	1000.0
279.08762	30.0
287.09412	10.0
299.08411	20.0
301.07593	30.0
315.09268	10.0
333.09521	40.0
345.09381	30.0
363.11279	30.0
525.16266	10.0

NAME:  NCGC00380203-01_C26H30ClNO8_2-{7-Acetoxy-5-chloro-3-[(1E,3E)-3,5-dimethyl-1,3-heptadien-1-yl]-7-methyl-6,8-dioxo-7,8-dihydro-2(6H)-isoquinolinyl}pentanedioic acid
PRECURSORMZ:  518.15871814783
PRECURSORTYPE:  [M-H]-
FORMULA:  C26H30ClNO8
Ontology: Kingdom: Organic compounds;Superclass: Organic acids and derivatives;Class: Carboxylic acids and derivatives;Subclass: Amino acids
INCHIKEY:  BVIXPBFQDINHQZ-UHFFFAOYNA-N
SMILES:  CCC(C)C=C(C)C=CC1=CC2=C(Cl)C(=O)C(C)(OC(C)=O)C(=O)C2=CN1C(CCC(O)=O)C(O)=O
RETENTIONTIME:  
CCS:  -1
IONMODE:  Negative
INSTRUMENTTYPE:  
INSTRUMENT:  Maxis II HD Q-TOF Bruker
COLLISIONENERGY:  
Comment:  DB#=CCMSLIB00000850517; origin=GNPS
Num Peaks:  25
116.05591	20.0
179.77505	10.0
205.42261	20.0
207.96902	20.0
238.15503	10.0
253.08783	10.0
268.13754	20.0
271.02823	30.0
279.13141	20.0
280.15536	10.0
282.15427	20.0
284.04904	80.0
298.0625	10.0
299.06964	30.0
299.4147	10.0
310.14114	130.0
313.07794	20.0
313.14154	20.0
324.16263	10.0
327.62689	20.0
328.11133	860.0
329.10074	10.0
336.59369	30.0
346.12323	50.0
388.13269	1000.0

NAME:  NCGC00169930-02_C30H38O16_(1aS,1bS,2S,5aR,6S,6aS)-6-({6-Deoxy-4-O-[(2E)-3-(4-hydroxyphenyl)-2-propenoyl]-alpha-L-mannopyranosyl}oxy)-1a-(hydroxymethyl)-1a,1b,2,5a,6,6a-hexahydrooxireno[4,5]cyclopenta[1,2-c]pyran-2-yl beta-D-glucopyranoside
PRECURSORMZ:  653.20870869183
PRECURSORTYPE:  [M-H]-
FORMULA:  C30H38O16
Ontology: Kingdom: Organic compounds;Superclass: Phenylpropanoids and polyketides;Class: Cinnamic acids and derivatives;Subclass: Hydroxycinnamic acids and derivatives
INCHIKEY:  WYUMOABRAAEBAO-UHFFFAOYNA-N
SMILES:  CC1OC(OC2C3OC3(CO)C3C2C=COC3OC2OC(CO)C(O)C(O)C2O)C(O)C(O)C1OC(=O)C=CC1=CC=C(O)C=C1
RETENTIONTIME:  
CCS:  248.5140668
IONMODE:  Negative
INSTRUMENTTYPE:  
INSTRUMENT:  Maxis II HD Q-TOF Bruker
COLLISIONENERGY:  
Comment:  DB#=CCMSLIB00000851306; origin=GNPS
Num Peaks:  23
117.03705	10.0
119.05002	140.0
133.02866	10.0
135.04887	20.0
137.06212	20.0
145.02853	530.0
151.04132	30.0
161.05968	10.0
163.03993	1000.0
169.05415	10.0
177.05209	10.0
181.05115	30.0
187.04013	30.0
205.05186	30.0
249.07623	40.0
291.08813	50.0
309.09723	50.0
377.12592	470.0
378.1261	20.0
417.1156	10.0
491.15591	10.0
653.20941	990.0
654.21436	20.0

NAME:  NCGC00380721-01_C20H30O4_2-Hydroxy-4,5',8a'-trimethyl-1'-oxo-4-vinyloctahydro-1'H-spiro[cyclopentane-1,2'-naphthalene]-5'-carboxylic acid
PRECURSORMZ:  333.20713299383
PRECURSORTYPE:  [M-H]-
FORMULA:  C20H30O4
Ontology: Kingdom: Organic compounds;Superclass: Organic oxygen compounds;Class: Organooxygen compounds;Subclass: Alcohols and polyols
INCHIKEY:  JSXYBZIRJXMIMK-UHFFFAOYNA-N
SMILES:  CC1(CC(O)C2(C1)CCC1C(C)(CCCC1(C)C2=O)C(O)=O)C=C
RETENTIONTIME:  
CCS:  -1
IONMODE:  Negative
INSTRUMENTTYPE:  
INSTRUMENT:  Maxis II HD Q-TOF Bruker
COLLISIONENERGY:  
Comment:  DB#=CCMSLIB00000850901; origin=GNPS
Num Peaks:  7
137.0947	20.0
235.13388	50.0
289.17932	20.0
331.60358	10.0
332.32022	10.0
333.20694	1000.0
334.22028	20.0

NAME:  NCGC00385737-01_C46H74O17_
PRECURSORMZ:  943.49080347083
PRECURSORTYPE:  [M+FA-H]-
FORMULA:  C46H74O17
Ontology: Kingdom: Organic compounds;Superclass: Lipids and lipid;Class: Prenol lipids;Subclass: Terpene glycosides
INCHIKEY:  GEXPREATDMYGJF-UHFFFAOYNA-N
SMILES:  CC1(C)CCC2(CCC3(C)C(=CCC4C5(C)CC(O)C(OC6OC(COC7OCC(O)C(O)C7O)C(O)C(O)C6O)C(C)(C)C5CCC34C)C2C1)C(=O)OC1OCC(O)C(O)C1O
RETENTIONTIME:  
CCS:  -1
IONMODE:  Negative
INSTRUMENTTYPE:  
INSTRUMENT:  Maxis II HD Q-TOF Bruker
COLLISIONENERGY:  
Comment:  DB#=CCMSLIB00000849389; origin=GNPS
Num Peaks:  7
471.34763	10.0
765.44482	1000.0
766.44727	70.0
897.49005	80.0
898.49677	20.0
943.49225	360.0
944.49194	70.0

NAME:  NCGC00381016-01_C38H44O16_Cyclohexanecarboxylic acid, 2-[(2-cyclopenten-1-ylcarbonyl)oxy]-1,6-dihydroxy-3-oxo-, [2-[[2,6-bis-O-(2-cyclopenten-1-ylcarbonyl)hexopyranosyl]oxy]-5-hydroxyphenyl]methyl ester
PRECURSORMZ:  801.26113788483
PRECURSORTYPE:  [M+FA-H]-
FORMULA:  C38H44O16
Ontology: Kingdom: Organic compounds;Superclass: Lipids and lipid;Class: Saccharolipids;
INCHIKEY:  VAZXQMYIQNKBRG-UHFFFAOYNA-N
SMILES:  OC1CCC(=O)C(OC(=O)C2CCC=C2)C1(O)C(=O)OCC1=CC(O)=CC=C1OC1OC(COC(=O)C2CCC=C2)C(O)C(O)C1OC(=O)C1CCC=C1
RETENTIONTIME:  
CCS:  -1
IONMODE:  Negative
INSTRUMENTTYPE:  
INSTRUMENT:  Maxis II HD Q-TOF Bruker
COLLISIONENERGY:  
Comment:  DB#=CCMSLIB00000849737; origin=GNPS
Num Peaks:  56
81.03605	70.0
97.02973	110.0
99.04496	60.0
107.01334	40.0
108.01756	20.0
109.02916	90.0
110.03455	20.0
111.04576	140.0
113.0249	10.0
121.02816	60.0
122.03726	10.0
123.00848	80.0
124.01421	30.0
125.02437	350.0
126.02847	50.0
127.03671	20.0
135.00781	10.0
136.01579	20.0
137.02473	100.0
138.03189	50.0
139.04059	160.0
141.01932	30.0
151.00298	140.0
152.01006	50.0
153.01895	1000.0
165.05595	30.0
168.00554	20.0
169.01457	170.0
170.01686	20.0
171.02957	180.0
201.05499	20.0
202.05539	10.0
203.07294	20.0
219.06827	20.0
220.07013	10.0
229.05042	20.0
231.06464	10.0
245.049	30.0
246.04929	20.0
247.05928	20.0
263.0553	90.0
264.06198	20.0
265.06836	60.0
273.03448	10.0
281.05942	30.0
283.08392	20.0
377.12201	60.0
378.12057	20.0
529.13696	10.0
531.14996	30.0
547.14093	10.0
624.18945	20.0
625.19733	100.0
641.19495	30.0
642.19141	20.0
643.20728	60.0

NAME:  NCGC00169628-03_C23H36O6_1-Naphthaleneheptanoic acid, 1,2,6,7,8,8a-hexahydro-beta,delta-dihydroxy-2-methyl-8-(2-methyl-1-oxobutoxy)-, (betaR,deltaR,1S,2S,8S,8aR)-
PRECURSORMZ:  407.24391242683
PRECURSORTYPE:  [M-H]-
FORMULA:  C23H36O6
Ontology: Kingdom: Organic compounds;Superclass: Organic acids and derivatives;Class: Hydroxy acids and derivatives;Subclass: Medium
INCHIKEY:  BOZILQFLQYBIIY-UHFFFAOYNA-N
SMILES:  CCC(C)C(=O)OC1CCC=C2C=CC(C)C(CCC(O)CC(O)CC(O)=O)C12
RETENTIONTIME:  
CCS:  209.5946391
IONMODE:  Negative
INSTRUMENTTYPE:  
INSTRUMENT:  Maxis II HD Q-TOF Bruker
COLLISIONENERGY:  
Comment:  DB#=CCMSLIB00000850280; origin=GNPS
Num Peaks:  11
85.03101	60.0
101.06149	190.0
130.72484	80.0
130.89268	50.0
145.10449	70.0
215.7634	40.0
305.17642	410.0
322.97205	60.0
389.21619	60.0
407.24487	1000.0
768.19073	30.0

NAME:  NCGC00381025-01_C36H54O12_2,7-Octadienoic acid, 6-[[3,4-bis-O-[(2E)-6-hydroxy-2,6-dimethyl-1-oxo-2,7-octadien-1-yl]-beta-D-glucopyranosyl]oxy]-2,6-dimethyl-, (2E)-
PRECURSORMZ:  677.35425072683
PRECURSORTYPE:  [M-H]-
FORMULA:  C36H54O12
Ontology: Kingdom: Organic compounds;Superclass: Lipids and lipid;Class: Saccharolipids;
INCHIKEY:  BSTJXYXEZBMPBY-UHFFFAOYNA-N
SMILES:  CC(=CCCC(C)(OC1OC(CO)C(OC(=O)C(C)=CCCC(C)(O)C=C)C(OC(=O)C(C)=CCCC(C)(O)C=C)C1O)C=C)C(O)=O
RETENTIONTIME:  
CCS:  -1
IONMODE:  Negative
INSTRUMENTTYPE:  
INSTRUMENT:  Maxis II HD Q-TOF Bruker
COLLISIONENERGY:  
Comment:  DB#=CCMSLIB00000851184; origin=GNPS
Num Peaks:  23
101.02309	20.0
113.02387	40.0
113.05939	20.0
121.09984	10.0
131.04083	10.0
137.06244	10.0
139.11331	270.0
155.07095	20.0
161.0453	50.0
165.09222	100.0
167.10654	20.0
183.10274	1000.0
184.10571	10.0
197.12079	10.0
225.11316	40.0
267.11993	10.0
291.11938	20.0
327.14514	800.0
345.15659	100.0
493.24606	520.0
511.25665	580.0
677.35651	730.0
678.34705	20.0

NAME:  NCGC00380868-01_C24H30O14_Methyl (2S,3R,4S)-2-(beta-D-glucopyranosyloxy)-4-{2-[(3,4,5-trihydroxybenzoyl)oxy]ethyl}-3-vinyl-3,4-dihydro-2H-pyran-5-carboxylate
PRECURSORMZ:  577.1329569059
PRECURSORTYPE:  [M+Cl]-
FORMULA:  C24H30O14
Ontology: Kingdom: Organic compounds;Superclass: Lipids and lipid;Class: Prenol lipids;Subclass: Terpene glycosides
INCHIKEY:  SMTKSCGLXONVGL-UHFFFAOYNA-N
SMILES:  COC(=O)C1=COC(OC2OC(CO)C(O)C(O)C2O)C(C=C)C1CCOC(=O)C1=CC(O)=C(O)C(O)=C1
RETENTIONTIME:  
CCS:  -1
IONMODE:  Negative
INSTRUMENTTYPE:  
INSTRUMENT:  Maxis II HD Q-TOF Bruker
COLLISIONENERGY:  
Comment:  DB#=CCMSLIB00000850541; origin=GNPS
Num Peaks:  22
125.02339	120.0
150.02838	10.0
168.01038	60.0
169.01407	660.0
194.81351	10.0
195.06931	20.0
202.88342	20.0
207.02621	20.0
227.08334	20.0
233.04237	20.0
237.07103	20.0
277.09528	40.0
288.86389	20.0
306.64075	20.0
308.62088	10.0
309.0675	30.0
347.07465	20.0
361.09238	10.0
379.09894	40.0
540.55322	20.0
541.15399	1000.0
542.14954	20.0

NAME:  NCGC00381066-01_C26H38O8_1H-Naphtho[1,2-c]pyran-7-propanoic acid, dodecahydro-8-(1-hydroxy-1-methylethyl)-3-(methoxycarbonyl)-3,4a,7,10a-tetramethyl-5-methylene-1,4-dioxo-
PRECURSORMZ:  477.24939173183
PRECURSORTYPE:  [M-H]-
FORMULA:  C26H38O8
Ontology: ;;;
INCHIKEY:  JNZBACSLMIGXCA-UHFFFAOYNA-N
SMILES:  COC(=O)C1(C)OC(=O)C2C3(C)CCC(C(C)(C)O)C(C)(CCC(O)=O)C3CC(=C)C2(C)C1=O
RETENTIONTIME:  
CCS:  -1
IONMODE:  Negative
INSTRUMENTTYPE:  
INSTRUMENT:  Maxis II HD Q-TOF Bruker
COLLISIONENERGY:  
Comment:  DB#=CCMSLIB00000850957; origin=GNPS
Num Peaks:  39
181.05145	10.0
200.08321	10.0
240.03333	10.0
243.17682	20.0
247.82845	10.0
255.13896	30.0
271.17786	10.0
273.15186	10.0
273.18427	10.0
283.16992	50.0
285.19104	10.0
286.1535	10.0
287.16907	10.0
299.1958	10.0
301.22076	30.0
317.21823	20.0
329.19794	20.0
331.19617	10.0
339.18735	10.0
341.19839	20.0
345.203	10.0
357.20593	30.0
359.22446	20.0
361.24133	240.0
373.23749	20.0
385.20047	30.0
387.21378	10.0
389.22949	30.0
397.23901	20.0
400.22772	20.0
401.23389	40.0
415.25211	40.0
417.22681	50.0
432.72433	10.0
433.26181	110.0
435.23679	60.0
459.24213	10.0
462.21463	10.0
477.25	1000.0

NAME:  NCGC00381203-01_C31H46N4O7_2H-Pyrido[1,2-a][1,4,7,10]tetraazacyclododecine-1,4,7,10(3H,12H)-tetrone, 3-(7,8-dihydroxy-6-oxooctyl)octahydro-9-(1-methylpropyl)-6-(phenylmethyl)-
PRECURSORMZ:  631.33485238483
PRECURSORTYPE:  [M+FA-H]-
FORMULA:  C31H46N4O7
Ontology: Kingdom: Organic compounds;Superclass: Organic acids and derivatives;Class: Carboxylic acids and derivatives;Subclass: Amino acids
INCHIKEY:  YSNRSVKJRYQIIA-UHFFFAOYNA-N
SMILES:  CCC(C)C1N=C(O)C(CC2=CC=CC=C2)N=C(O)C(CCCCCC(=O)C(O)CO)N=C(O)C2CCCCN2C1=O
RETENTIONTIME:  
CCS:  -1
IONMODE:  Negative
INSTRUMENTTYPE:  
INSTRUMENT:  Maxis II HD Q-TOF Bruker
COLLISIONENERGY:  
Comment:  DB#=CCMSLIB00000851079; origin=GNPS
Num Peaks:  17
127.0873	30.0
137.07115	10.0
139.07555	10.0
140.07169	30.0
167.08485	10.0
193.06717	10.0
223.14542	80.0
227.10382	120.0
242.11708	30.0
294.18463	50.0
312.19308	140.0
324.1969	30.0
331.1709	30.0
555.3197	1000.0
567.32214	210.0
585.33099	380.0
586.3493	10.0

NAME:  NCGC00169934-02_C25H32O13_2H-Pyran-4-acetic acid, 2-(beta-D-glucopyranosyloxy)-3,4-dihydro-3-(2-hydroxyethylidene)-5-(methoxycarbonyl)-, 2-(4-hydroxyphenyl)ethyl ester, (2S,3Z,4S)-
PRECURSORMZ:  585.18249363783
PRECURSORTYPE:  [M+FA-H]-
FORMULA:  C25H32O13
Ontology: Kingdom: Organic compounds;Superclass: Lipids and lipid;Class: Prenol lipids;Subclass: Terpene glycosides
INCHIKEY:  AHTRGGWSBFOEEG-UHFFFAOYNA-N
SMILES:  COC(=O)C1=COC(OC2OC(CO)C(O)C(O)C2O)C(=CCO)C1CC(=O)OCCC1=CC=C(O)C=C1
RETENTIONTIME:  
CCS:  -1
IONMODE:  Negative
INSTRUMENTTYPE:  
INSTRUMENT:  Maxis II HD Q-TOF Bruker
COLLISIONENERGY:  
Comment:  DB#=CCMSLIB00000850238; origin=GNPS
Num Peaks:  36
101.02323	70.0
111.00841	40.0
111.04415	20.0
113.02363	10.0
127.03943	110.0
135.00948	20.0
135.04201	10.0
137.02403	30.0
137.05998	40.0
138.99998	10.0
139.04076	10.0
143.03342	20.0
155.0341	10.0
163.03976	20.0
165.02132	10.0
169.05119	20.0
171.03227	20.0
179.03838	30.0
179.05362	30.0
181.05057	30.0
193.05304	20.0
197.04617	30.0
205.05025	10.0
207.03009	20.0
213.07068	10.0
221.0462	10.0
239.05685	80.0
275.09369	270.0
291.08679	510.0
345.10001	30.0
359.11282	40.0
377.12357	1000.0
378.11566	10.0
401.1203	20.0
419.12225	40.0
539.1781	120.0

NAME:  NCGC00380871-01_C22H27ClO13_(1R,4S,5R,6S,7R,8S)-5-Chloro-9-(beta-D-glucopyranosyloxy)-4-hydroxy-2,10-dioxatricyclo[5.3.1.0~4,8~]undec-6-yl 3,4-dihydroxybenzoate
PRECURSORMZ:  533.10674214783
PRECURSORTYPE:  [M-H]-
FORMULA:  C22H27ClO13
Ontology: ;;;
INCHIKEY:  LWSJXQHGEHCKGM-UHFFFAOYNA-N
SMILES:  [H]C12CC3([H])OC(OC4OC(CO)C(O)C(O)C4O)C1([H])C(O)(CO3)C(Cl)C2OC(=O)C1=CC(O)=C(O)C=C1
RETENTIONTIME:  
CCS:  -1
IONMODE:  Negative
INSTRUMENTTYPE:  
INSTRUMENT:  Maxis II HD Q-TOF Bruker
COLLISIONENERGY:  
Comment:  DB#=CCMSLIB00000849449; origin=GNPS
Num Peaks:  15
93.08611	20.0
109.04022	20.0
137.02538	10.0
152.08188	20.0
153.01886	270.0
197.73238	10.0
229.0453	20.0
264.24438	10.0
317.06238	10.0
335.08575	40.0
339.77798	20.0
371.05585	40.0
453.11835	10.0
497.12866	50.0
533.10883	1000.0

NAME:  NCGC00381336-01_C33H50O21_2,6-Anhydro-5-O-[4-({6-O-[4-(beta-D-glucopyranosyloxy)-2-methylenebutanoyl]-beta-D-glucopyranosyl}oxy)-2-methylenebutanoyl]-1-O-(4-hydroxy-2-methylenebutanoyl)hexitol
PRECURSORMZ:  827.28266117783
PRECURSORTYPE:  [M+FA-H]-
FORMULA:  C33H50O21
Ontology: Kingdom: Organic compounds;Superclass: Lipids and lipid;Class: Saccharolipids;
INCHIKEY:  GBGKVNUYCBHABP-UHFFFAOYNA-N
SMILES:  OCCC(=C)C(=O)OCC1OCC(OC(=O)C(=C)CCOC2OC(COC(=O)C(=C)CCOC3OC(CO)C(O)C(O)C3O)C(O)C(O)C2O)C(O)C1O
RETENTIONTIME:  
CCS:  -1
IONMODE:  Negative
INSTRUMENTTYPE:  
INSTRUMENT:  Maxis II HD Q-TOF Bruker
COLLISIONENERGY:  
Comment:  DB#=CCMSLIB00000849776; origin=GNPS
Num Peaks:  34
87.00725	10.0
89.02399	70.0
97.02956	20.0
101.02272	70.0
112.98375	10.0
113.02338	40.0
115.0396	90.0
119.03452	40.0
139.03189	20.0
140.04634	10.0
143.03868	10.0
145.05183	10.0
146.35043	10.0
149.04234	30.0
156.48796	10.0
156.96043	10.0
161.04831	80.0
163.05724	60.0
164.06532	10.0
179.05519	110.0
259.08328	1000.0
260.08057	20.0
277.09265	630.0
278.09491	20.0
357.11978	10.0
375.11963	20.0
379.12909	30.0
399.13126	20.0
423.15341	400.0
424.15247	40.0
519.17529	50.0
520.18158	20.0
537.18127	70.0
683.26282	20.0

NAME:  NCGC00380687-01_C54H86O22_(3beta,5xi,9xi)-3-{[3-O-Acetyl-beta-D-xylopyranosyl-(1->4)-6-deoxy-alpha-L-mannopyranosyl-(1->2)-beta-D-xylopyranosyl-(1->2)-beta-D-glucopyranosyl]oxy}-23-hydroxyolean-12-en-28-oic acid
PRECURSORMZ:  1085.55379795683
PRECURSORTYPE:  [M-H]-
FORMULA:  C54H86O22
Ontology: Kingdom: Organic compounds;Superclass: Lipids and lipid;Class: Prenol lipids;Subclass: Terpene glycosides
INCHIKEY:  VKJTXCWIQDBMLE-UHFFFAOYNA-N
SMILES:  CC1OC(OC2C(O)C(O)COC2OC2C(O)C(O)C(CO)OC2OC2CCC3(C)C(CCC4(C)C3CC=C3C5CC(C)(C)CCC5(CCC43C)C(O)=O)C2(C)CO)C(O)C(O)C1OC1OCC(O)C(OC(C)=O)C1O
RETENTIONTIME:  
CCS:  -1
IONMODE:  Negative
INSTRUMENTTYPE:  
INSTRUMENT:  Maxis II HD Q-TOF Bruker
COLLISIONENERGY:  
Comment:  DB#=CCMSLIB00000850412; origin=GNPS
Num Peaks:  48
83.01452	10.0
85.03071	20.0
89.02354	40.0
99.00913	10.0
101.02359	50.0
109.02907	10.0
113.02422	70.0
119.03552	10.0
125.02292	30.0
127.03967	40.0
131.03459	50.0
143.03383	40.0
145.04924	20.0
149.04633	40.0
161.04439	20.0
169.05067	10.0
187.05988	20.0
191.05684	30.0
233.06876	20.0
293.08844	10.0
423.32785	110.0
439.32697	10.0
469.33667	20.0
471.34821	360.0
472.35263	30.0
525.36218	20.0
585.38165	180.0
586.38489	20.0
603.39044	410.0
604.39282	60.0
731.43774	30.0
749.44812	110.0
750.45026	20.0
773.4552	20.0
791.45776	10.0
875.48267	10.0
893.49261	50.0
894.49213	20.0
911.5033	50.0
912.50494	20.0
1025.53271	230.0
1026.53931	80.0
1043.5448	520.0
1044.54578	150.0
1045.56165	20.0
1085.5564	1000.0
1086.5564	390.0
1087.56433	50.0

NAME:  NCGC00380395-01_C29H42N4O6_5-Carbamimidamido-2-(4,6'-dihydroxy-2',5',5',8a'-tetramethyl-6-oxo-3',4',4a',5',6,6',7',8,8',8a'-decahydro-2'H-spiro[furo[2,3-e]isoindole-2,1'-naphthalen]-7(3H)-yl)pentanoic acid
PRECURSORMZ:  587.30863763583
PRECURSORTYPE:  [M+FA-H]-
FORMULA:  C29H42N4O6
Ontology: Kingdom: Organic compounds;Superclass: Organic acids and derivatives;Class: Carboxylic acids and derivatives;Subclass: Amino acids
INCHIKEY:  FVWRHZWMISXFKU-UHFFFAOYNA-N
SMILES:  CC1CCC2C(C)(C)C(O)CCC2(C)C11CC2=C(O)C=C3C(=O)N(CC3=C2O1)C(CCCNC(N)=N)C(O)=O
RETENTIONTIME:  
CCS:  -1
IONMODE:  Negative
INSTRUMENTTYPE:  
INSTRUMENT:  Maxis II HD Q-TOF Bruker
COLLISIONENERGY:  
Comment:  DB#=CCMSLIB00000850691; origin=GNPS
Num Peaks:  10
174.03021	10.0
185.50203	10.0
274.12207	10.0
290.13239	20.0
455.29721	10.0
480.28638	40.0
497.31387	290.0
540.04553	10.0
540.72864	10.0
541.30322	1000.0

NAME:  NCGC00381292-01_C42H66O19_Cardanolide, 18,20-epoxy-3-[[O-hexopyranosyl-(1->4)-O-hexopyranosyl-(1->4)-6-deoxy-3-O-methyl-alpha-L-mannopyranosyl]oxy]-14-hydroxy-, (3beta,8xi,9xi,14xi,17xi,20xi)-
PRECURSORMZ:  919.41803245283
PRECURSORTYPE:  [M+FA-H]-
FORMULA:  C42H66O19
Ontology: Kingdom: Organic compounds;Superclass: Lipids and lipid;Class: Steroids and steroid derivatives;Subclass: Steroid lactones
INCHIKEY:  ZHNZMTIAIBWJJB-UHFFFAOYNA-N
SMILES:  COC1C(O)C(OC2CCC3(C)C(CCC4C3CCC35COC6(COC(=O)C6)C3CCC45O)C2)OC(C)C1OC1OC(CO)C(OC2OC(CO)C(O)C(O)C2O)C(O)C1O
RETENTIONTIME:  
CCS:  -1
IONMODE:  Negative
INSTRUMENTTYPE:  
INSTRUMENT:  Maxis II HD Q-TOF Bruker
COLLISIONENERGY:  
Comment:  DB#=CCMSLIB00000849371; origin=GNPS
Num Peaks:  45
71.01361	20.0
85.02907	50.0
87.00899	10.0
89.0246	30.0
99.00856	20.0
99.0441	10.0
101.02441	140.0
109.03108	20.0
113.02427	150.0
119.03456	80.0
125.02454	70.0
127.0401	30.0
141.0201	10.0
143.03397	60.0
145.04942	30.0
149.04343	10.0
159.02974	30.0
161.0448	230.0
179.05534	240.0
221.06572	100.0
233.06525	20.0
245.06494	30.0
263.077	80.0
323.09775	100.0
324.10019	20.0
369.21042	10.0
387.21851	10.0
531.30206	10.0
547.29529	40.0
548.30023	20.0
549.30963	50.0
550.31268	10.0
681.33966	30.0
693.36633	20.0
709.34399	40.0
710.35571	20.0
711.36169	180.0
712.36444	40.0
825.38995	10.0
843.40601	40.0
871.39966	230.0
872.4035	160.0
873.414	1000.0
874.41748	240.0
919.42407	20.0

NAME:  NCGC00169858-03_C24H24O7_Methyl (2R)-4-hydroxy-2-[4-hydroxy-3-(3-methyl-2-buten-1-yl)benzyl]-3-(4-hydroxyphenyl)-5-oxo-2,5-dihydro-2-furancarboxylate
PRECURSORMZ:  423.14492666083
PRECURSORTYPE:  [M-H]-
FORMULA:  C24H24O7
Ontology: Kingdom: Organic compounds;Superclass: Lipids and lipid;Class: Fatty Acyls;Subclass: Fatty acid esters
INCHIKEY:  NGOLMNWQNHWEKU-UHFFFAOYNA-N
SMILES:  COC(=O)C1(CC2=CC(CC=C(C)C)=C(O)C=C2)OC(=O)C(O)=C1C1=CC=C(O)C=C1
RETENTIONTIME:  
CCS:  220.4004537
IONMODE:  Negative
INSTRUMENTTYPE:  
INSTRUMENT:  Maxis II HD Q-TOF Bruker
COLLISIONENERGY:  
Comment:  DB#=CCMSLIB00000850445; origin=GNPS
Num Peaks:  28
122.4054	10.0
133.02614	20.0
145.03128	160.0
162.03952	20.0
176.27428	10.0
181.85658	20.0
189.02196	110.0
193.04562	20.0
201.92427	20.0
201.99451	20.0
204.04271	140.0
205.01482	30.0
205.05122	40.0
249.0405	180.0
264.08728	30.0
290.1311	20.0
291.14767	50.0
292.13873	20.0
302.97479	30.0
319.01651	20.0
319.13736	60.0
351.16553	20.0
362.11844	40.0
363.11685	70.0
364.13232	1000.0
364.23471	10.0
367.65967	20.0
396.11636	50.0

NAME:  NCGC00380726-01_C25H33NO6_(2'R,6'S,8a'S)-4,7'-Dihydroxy-2',5',5',8a'-tetramethyl-6-oxo-3,3',4',4a',5',6,6',7,7',8,8',8a'-dodecahydro-2'H-spiro[furo[2,3-e]isoindole-2,1'-naphthalen]-6'-yl acetate
PRECURSORMZ:  442.22351133483
PRECURSORTYPE:  [M-H]-
FORMULA:  C25H33NO6
Ontology: Kingdom: Organic compounds;Superclass: Organoheterocyclic compounds;Class: Isoindoles and derivatives;Subclass: Isoindoles
INCHIKEY:  JOLITHWHEFIGDT-UHFFFAOYNA-N
SMILES:  CC1CCC2C(C)(C)C(OC(C)=O)C(O)CC2(C)C11CC2=C(O)C=C3C(O)=NCC3=C2O1
RETENTIONTIME:  
CCS:  -1
IONMODE:  Negative
INSTRUMENTTYPE:  
INSTRUMENT:  Maxis II HD Q-TOF Bruker
COLLISIONENERGY:  
Comment:  DB#=CCMSLIB00000850916; origin=GNPS
Num Peaks:  6
176.03374	20.0
177.04015	30.0
237.14891	10.0
356.99783	10.0
382.20599	80.0
442.224	1000.0

NAME:  Pesticide3_Forchlorfenuron_C12H10ClN3O_Urea, N-(2-chloro-4-pyridinyl)-N'-phenyl-
PRECURSORMZ:  282.0206409599
PRECURSORTYPE:  [M+Cl]-
FORMULA:  C12H10ClN3O
Ontology: Kingdom: Organic compounds;Superclass: Organoheterocyclic compounds;Class: Pyridines and derivatives;Subclass: Halopyridines
INCHIKEY:  GPXLRLUVLMHHIK-UHFFFAOYSA-N
SMILES:  OC(NC1=CC(Cl)=NC=C1)=NC1=CC=CC=C1
RETENTIONTIME:  
CCS:  -1
IONMODE:  Negative
INSTRUMENTTYPE:  
INSTRUMENT:  Q-Exactive Plus Orbitrap Res 70k
COLLISIONENERGY:  
Comment:  DB#=CCMSLIB00001058248; origin=GNPS
Num Peaks:  3
91.02988	30.0
127.00689	1000.0
246.04393	80.0

NAME:  NCGC00380968-01_C16H16O4_Benzoic acid, 2-hydroxy-4-methoxy-6-(2-phenylethyl)-
PRECURSORMZ:  271.09758254283
PRECURSORTYPE:  [M-H]-
FORMULA:  C16H16O4
Ontology: Kingdom: Organic compounds;Superclass: Phenylpropanoids and polyketides;Class: Stilbenes;
INCHIKEY:  SKLSOJOIYMIFGM-UHFFFAOYSA-N
SMILES:  COC1=CC(O)=C(C(O)=O)C(CCC2=CC=CC=C2)=C1
RETENTIONTIME:  
CCS:  -1
IONMODE:  Negative
INSTRUMENTTYPE:  
INSTRUMENT:  Maxis II HD Q-TOF Bruker
COLLISIONENERGY:  
Comment:  DB#=CCMSLIB00000851192; origin=GNPS
Num Peaks:  19
93.03473	310.0
108.01627	50.0
123.01085	70.0
136.05666	80.0
151.04343	80.0
210.40878	40.0
211.07718	180.0
212.08571	450.0
212.11824	50.0
212.52075	20.0
212.57719	50.0
213.05121	10.0
213.09065	50.0
225.09587	40.0
227.10654	1000.0
228.12724	60.0
256.07452	60.0
271.09912	560.0
273.73386	30.0

NAME:  NCGC00381123-01_C25H35NO5_Spiro[2H-furo[2,3-e]isoindole-2,1'(2'H)-naphthalen]-6(3H)-one, 3',4',4'a,5',6',7,7',8,8',8'a-decahydro-4,6'-dihydroxy-7-(2-hydroxyethyl)-2',5',5',8'a-tetramethyl-, (2R,2'R,6'R,8a'S)-
PRECURSORMZ:  474.24972577883
PRECURSORTYPE:  [M+FA-H]-
FORMULA:  C25H35NO5
Ontology: Kingdom: Organic compounds;Superclass: Organoheterocyclic compounds;Class: Isoindoles and derivatives;Subclass: Isoindolines
INCHIKEY:  ZHECNBLIOXZXBL-UHFFFAOYNA-N
SMILES:  CC1CCC2C(C)(C)C(O)CCC2(C)C11CC2=C(O)C=C3C(=O)N(CCO)CC3=C2O1
RETENTIONTIME:  
CCS:  -1
IONMODE:  Negative
INSTRUMENTTYPE:  
INSTRUMENT:  Maxis II HD Q-TOF Bruker
COLLISIONENERGY:  
Comment:  DB#=CCMSLIB00000851038; origin=GNPS
Num Peaks:  8
158.57253	10.0
176.03488	10.0
190.04756	20.0
202.49896	20.0
221.06947	20.0
253.06177	10.0
428.24606	1000.0
1232.05859	40.0

NAME:  NCGC00380774-01_C22H27ClO7_
PRECURSORMZ:  483.14273344783
PRECURSORTYPE:  [M+FA-H]-
FORMULA:  C22H27ClO7
Ontology: Kingdom: Organic compounds;Superclass: Organoheterocyclic compounds;Class: Azaphilones;
INCHIKEY:  QBTPSJBCRQLPLW-UHFFFAOYNA-N
SMILES:  CCC(C)C=C(C)C=CC1=CC2=C(Cl)C(=O)C(C)(OC(C)=O)C(=O)C2(O)C(OC)O1
RETENTIONTIME:  
CCS:  -1
IONMODE:  Negative
INSTRUMENTTYPE:  
INSTRUMENT:  Maxis II HD Q-TOF Bruker
COLLISIONENERGY:  
Comment:  DB#=CCMSLIB00000851385; origin=GNPS
Num Peaks:  57
125.0188	20.0
133.9968	30.0
142.9962	40.0
160.05534	20.0
163.00595	30.0
170.07265	20.0
173.03325	10.0
173.05391	20.0
183.07697	20.0
193.0072	20.0
206.02133	20.0
216.04422	20.0
218.17249	10.0
226.06367	40.0
227.14662	20.0
230.60008	10.0
231.14	20.0
242.09276	30.0
254.13504	40.0
258.1958	10.0
259.45575	10.0
269.08893	20.0
269.12045	40.0
270.12448	30.0
271.14941	20.0
273.1142	20.0
275.92523	10.0
283.12567	20.0
287.12717	140.0
298.112	90.0
300.13208	10.0
301.10733	30.0
302.07843	30.0
313.15506	10.0
314.15622	10.0
315.12299	170.0
318.09586	50.0
326.11508	130.0
326.62222	10.0
327.12381	1000.0
327.20663	10.0
331.15311	70.0
333.16843	30.0
341.13898	840.0
343.05557	20.0
343.116	350.0
344.12784	70.0
357.93506	20.0
359.14804	170.0
374.98709	30.0
376.12109	30.0
377.13535	20.0
386.13541	360.0
386.18069	60.0
387.14792	60.0
401.16049	460.0
1715.27917	10.0

NAME:  NCGC00381217-01_C60H98O29_3-{[Hexopyranosyl-(1->6)hexopyranosyl-(1->3)hexopyranosyl-(1->3)hexopyranosyl-(1->3)hexopyranosyl]oxy}-21-hydroxyolean-12-en-28-oic acid
PRECURSORMZ:  1281.61210068383
PRECURSORTYPE:  [M-H]-
FORMULA:  C60H98O29
Ontology: Kingdom: Organic compounds;Superclass: Lipids and lipid;Class: Prenol lipids;Subclass: Terpene glycosides
INCHIKEY:  FQIQTIUZOUXZTP-UHFFFAOYNA-N
SMILES:  CC1(C)CC2C3=CCC4C5(C)CCC(OC6OC(CO)C(O)C(OC7OC(CO)C(O)C(OC8OC(CO)C(O)C(OC9OC(COC%10OC(CO)C(O)C(O)C%10O)C(O)C(O)C9O)C8O)C7O)C6O)C(C)(C)C5CCC4(C)C3(C)CCC2(CC1O)C(O)=O
RETENTIONTIME:  
CCS:  -1
IONMODE:  Negative
INSTRUMENTTYPE:  
INSTRUMENT:  Maxis II HD Q-TOF Bruker
COLLISIONENERGY:  
Comment:  DB#=CCMSLIB00000849920; origin=GNPS
Num Peaks:  38
85.03022	20.0
89.02491	20.0
101.02449	70.0
113.02462	100.0
119.0349	30.0
125.02351	20.0
131.03418	20.0
143.03435	40.0
161.0443	100.0
179.05493	60.0
221.06726	100.0
263.0773	20.0
305.08942	20.0
441.33847	110.0
442.34363	20.0
467.13837	10.0
471.34384	10.0
585.38165	20.0
603.39038	140.0
604.39386	20.0
633.40265	20.0
729.42236	10.0
747.43597	40.0
751.46387	10.0
765.44427	60.0
795.45343	30.0
927.49957	20.0
957.50739	30.0
958.51288	10.0
1089.55127	20.0
1119.55566	70.0
1120.55115	20.0
1251.59424	10.0
1281.61292	1000.0
1282.12427	10.0
1282.61572	470.0
1283.61694	90.0
1284.61243	10.0

NAME:  NCGC00381125-01_C48H78O19_beta-D-Glucopyranose, O-6-deoxy-alpha-L-mannopyranosyl-(1->4)-O-beta-D-glucopyranosyl-(1->6)-1-O-[(2alpha,3beta,5xi,9xi,13xi,18xi,19xi)-2,3,23-trihydroxy-28-oxours-20-en-28-yl]-
PRECURSORMZ:  1003.51193283983
PRECURSORTYPE:  [M+FA-H]-
FORMULA:  C48H78O19
Ontology: Kingdom: Organic compounds;Superclass: Lipids and lipid;Class: Prenol lipids;Subclass: Terpene glycosides
INCHIKEY:  ATNAJMVRCNQHAG-UHFFFAOYNA-N
SMILES:  CC1OC(OC2C(O)C(O)C(OCC3OC(OC(=O)C45CCC6(C)C(CCC7C8(C)CC(O)C(O)C(C)(CO)C8CCC67C)C4C(C)C(C)=CC5)C(O)C(O)C3O)OC2CO)C(O)C(O)C1O
RETENTIONTIME:  
CCS:  -1
IONMODE:  Negative
INSTRUMENTTYPE:  
INSTRUMENT:  Maxis II HD Q-TOF Bruker
COLLISIONENERGY:  
Comment:  DB#=CCMSLIB00000851043; origin=GNPS
Num Peaks:  27
101.02469	50.0
113.02441	20.0
125.02383	20.0
131.03479	20.0
143.03505	60.0
145.05099	10.0
161.04604	90.0
163.06088	40.0
205.07051	60.0
221.06656	30.0
247.08267	80.0
265.09445	20.0
323.09875	40.0
367.12463	70.0
407.29208	20.0
409.13705	40.0
469.15744	430.0
470.16113	60.0
473.32614	10.0
485.32751	330.0
486.33194	100.0
487.34296	1000.0
488.3457	130.0
955.48657	20.0
956.50433	10.0
957.50958	120.0
958.51605	40.0

NAME:  NCGC00384728-01_C52H84O21_
PRECURSORMZ:  1089.54871227283
PRECURSORTYPE:  [M+FA-H]-
FORMULA:  C52H84O21
Ontology: Kingdom: Organic compounds;Superclass: Lipids and lipid;Class: Steroids and steroid derivatives;Subclass: Steroidal glycosides
INCHIKEY:  WBBCTOKMKWQACG-UHFFFAOYNA-N
SMILES:  COC1CC(OC2CCC3(C)C4CCC5(C)C(CCC5(O)C4CC=C3C2)C(C)OC2OC(COC3OC(CO)C(O)C(O)C3O)C(O)C(O)C2O)OC(C)C1OC1OC(C)C(OC(=O)C(C)=CC)C(OC)C1O
RETENTIONTIME:  
CCS:  -1
IONMODE:  Negative
INSTRUMENTTYPE:  
INSTRUMENT:  Maxis II HD Q-TOF Bruker
COLLISIONENERGY:  
Comment:  DB#=CCMSLIB00000849473; origin=GNPS
Num Peaks:  81
71.01368	10.0
71.06306	20.0
73.03459	20.0
83.01561	30.0
85.02952	140.0
87.00903	30.0
89.0242	80.0
89.50687	10.0
95.01434	50.0
97.02841	40.0
98.92616	20.0
99.00701	40.0
99.04533	1000.0
100.04916	60.0
101.02421	500.0
102.02984	10.0
111.01003	30.0
111.0432	70.0
112.01485	10.0
113.02446	620.0
119.0351	180.0
125.02333	90.0
129.02016	20.0
131.03897	20.0
132.05104	10.0
141.01964	10.0
143.03589	160.0
145.04883	10.0
149.04539	20.0
153.05557	20.0
159.02972	80.0
161.04488	750.0
162.04938	40.0
179.05695	310.0
180.05942	40.0
185.0495	10.0
221.06372	20.0
263.08017	30.0
273.08652	10.0
305.08844	40.0
323.09842	60.0
333.24118	10.0
444.93286	10.0
473.28186	20.0
617.37482	20.0
635.3847	60.0
636.39148	50.0
637.39166	10.0
719.4353	10.0
731.39551	10.0
761.41425	70.0
762.41516	30.0
779.42072	80.0
780.42761	50.0
797.43347	120.0
798.43384	70.0
799.44318	40.0
839.43994	20.0
840.42297	30.0
842.45526	10.0
863.44519	10.0
879.48108	60.0
880.4751	60.0
881.50592	20.0
923.46887	60.0
924.46997	40.0
925.48456	30.0
941.47644	690.0
941.63806	10.0
942.47876	670.0
943.48596	310.0
944.48602	60.0
959.41779	10.0
959.48297	90.0
960.49219	130.0
961.50049	60.0
962.49896	30.0
1041.52673	460.0
1042.53369	500.0
1043.54102	270.0
1044.53577	60.0

NAME:  NCGC00179768-02_C19H20O7_2H-Benz[1,2]anthra[10,4a-b]oxirene-7,8(3H,12bH)-dione, 3a,4,5,6,7a,7b-hexahydro-2,3a,7b,12-tetrahydroxy-5-methyl-
PRECURSORMZ:  359.11362653183
PRECURSORTYPE:  [M-H]-
FORMULA:  C19H20O7
Ontology: Kingdom: Organic compounds;Superclass: Benzenoids;Class: Tetralins;
INCHIKEY:  FXOBIDROVMXPBW-UHFFFAOYNA-N
SMILES:  CC1CC(=O)C2C(O)(C1)CC(O)C13OC1C1=C(C=CC=C1O)C(=O)C23O
RETENTIONTIME:  
CCS:  -1
IONMODE:  Negative
INSTRUMENTTYPE:  
INSTRUMENT:  Maxis II HD Q-TOF Bruker
COLLISIONENERGY:  
Comment:  DB#=CCMSLIB00000850652; origin=GNPS
Num Peaks:  43
87.36821	20.0
112.32532	20.0
120.34405	60.0
121.02992	60.0
125.05892	50.0
142.82549	50.0
145.02869	40.0
151.07693	60.0
160.01639	40.0
161.01845	100.0
173.03102	40.0
175.03917	620.0
187.03821	530.0
188.04869	50.0
189.01791	1000.0
189.67227	30.0
190.02638	140.0
195.06151	50.0
201.05807	40.0
202.02423	110.0
213.2298	30.0
215.03455	350.0
216.1077	50.0
216.78137	30.0
229.05092	70.0
237.05626	70.0
251.1093	20.0
267.11099	30.0
269.11578	40.0
273.0787	50.0
279.1019	150.0
281.86966	160.0
283.06161	70.0
285.29645	30.0
294.05292	30.0
295.09851	60.0
295.12207	70.0
305.07162	30.0
312.09586	40.0
323.09528	230.0
325.83768	40.0
341.1062	130.0
359.11548	950.0

NAME:  NCGC00180458-02_C18H24O12_Cyclopenta[c]pyran-4-carboxylic acid, 7-[(acetyloxy)methyl]-1-(beta-D-glucopyranosyloxy)-1,4a,5,7a-tetrahydro-5-hydroxy-, (1S,4aS,5S,7aS)-
PRECURSORMZ:  431.11949976083
PRECURSORTYPE:  [M-H]-
FORMULA:  C18H24O12
Ontology: Kingdom: Organic compounds;Superclass: Lipids and lipid;Class: Prenol lipids;Subclass: Terpene glycosides
INCHIKEY:  DGDWCRWJRNMRKX-UHFFFAOYNA-N
SMILES:  CC(=O)OCC1=CC(O)C2C1C(OC1OC(CO)C(O)C(O)C1O)OC=C2C(O)=O
RETENTIONTIME:  
CCS:  212.7763901
IONMODE:  Negative
INSTRUMENTTYPE:  
INSTRUMENT:  Maxis II HD Q-TOF Bruker
COLLISIONENERGY:  
Comment:  DB#=CCMSLIB00000849536; origin=GNPS
Num Peaks:  33
80.12497	20.0
97.63376	20.0
113.02441	80.0
119.0472	60.0
121.03503	80.0
135.0565	40.0
137.05685	60.0
139.04247	40.0
143.0318	30.0
147.04849	130.0
147.1432	10.0
149.04556	70.0
161.04475	140.0
165.05673	360.0
167.07146	20.0
173.02348	10.0
174.03152	30.0
179.0585	70.0
183.06561	70.0
201.0538	20.0
207.0658	110.0
225.07536	140.0
231.38506	20.0
232.06757	10.0
232.32088	20.0
251.05566	530.0
267.08224	10.0
269.07208	130.0
293.0748	10.0
327.1272	20.0
389.10046	20.0
431.11987	1000.0
432.12564	20.0

NAME:  NCGC00380907-01_C42H66O16_6-O-Hexopyranosyl-1-O-(3,19,23-trihydroxy-23,28-dioxoolean-12-en-28-yl)hexopyranose
PRECURSORMZ:  871.43328859283
PRECURSORTYPE:  [M+FA-H]-
FORMULA:  C42H66O16
Ontology: Kingdom: Organic compounds;Superclass: Lipids and lipid;Class: Prenol lipids;Subclass: Triterpenoids
INCHIKEY:  RURURFCCQXQDSO-UHFFFAOYNA-N
SMILES:  CC1(C)CCC2(CCC3(C)C(=CCC4C5(C)CCC(O)C(C)(C5CCC34C)C(O)=O)C2C1O)C(=O)OC1OC(COC2OC(CO)C(O)C(O)C2O)C(O)C(O)C1O
RETENTIONTIME:  
CCS:  -1
IONMODE:  Negative
INSTRUMENTTYPE:  
INSTRUMENT:  Maxis II HD Q-TOF Bruker
COLLISIONENERGY:  
Comment:  DB#=CCMSLIB00000851106; origin=GNPS
Num Peaks:  31
161.05373	30.0
251.1606	40.0
331.04434	20.0
392.30823	20.0
423.30887	20.0
439.31891	70.0
453.35162	20.0
483.30698	270.0
499.31421	40.0
501.24362	50.0
501.32385	1000.0
502.30457	20.0
523.29242	20.0
525.34351	20.0
539.15906	10.0
543.33398	240.0
662.39111	30.0
663.38879	190.0
664.39484	50.0
665.38593	20.0
681.38959	20.0
699.30377	10.0
735.29755	20.0
776.78223	40.0
777.41034	30.0
825.43774	20.0
827.4386	20.0
849.35498	20.0
870.39642	40.0
870.44116	40.0
948.33807	10.0

NAME:  quercetin-3-O-pentoside
PRECURSORMZ:  433.07763494783
PRECURSORTYPE:  [M-H]-
FORMULA:  C20H18O11
Ontology: Kingdom: Organic compounds;Superclass: Phenylpropanoids and polyketides;Class: Flavonoids;Subclass: Flavonoid glycosides
INCHIKEY:  PZZRDJXEMZMZFD-UHFFFAOYNA-N
SMILES:  OC1COC(OC2=C(OC3=CC(O)=CC(O)=C3C2=O)C2=CC(O)=C(O)C=C2)C(O)C1O
RETENTIONTIME:  
CCS:  215.6517048
IONMODE:  Negative
INSTRUMENTTYPE:  
INSTRUMENT:  qTof
COLLISIONENERGY:  
Comment:  DB#=CCMSLIB00004678830; origin=GNPS
Num Peaks:  11
151.00279	10.0
243.02786	10.0
255.03209	20.0
271.0257	50.0
300.02762	850.0
301.03403	330.0
302.03784	50.0
433.07904	1000.0
433.32144	10.0
434.08163	220.0
435.08313	30.0

NAME:  Bromophycolide H
PRECURSORMZ:  661.01692254783
PRECURSORTYPE:  [M-H]-
FORMULA:  C27H37Br3O4
Ontology: Kingdom: Organic compounds;Superclass: Phenylpropanoids and polyketides;Class: Macrolides and analogues;
INCHIKEY:  REIKJJVRPXQDAV-UHFFFAOYNA-N
SMILES:  CC12CCC(Br)C(C)(O)CCC(Br)C(C)(C)OC(=O)C3=CC(CC1C(=C)CCC2Br)=C(O)C=C3
RETENTIONTIME:  
CCS:  217.0350264
IONMODE:  Negative
INSTRUMENTTYPE:  
INSTRUMENT:  qTof
COLLISIONENERGY:  
Comment:  DB#=CCMSLIB00003740008; origin=GNPS
Num Peaks:  1
556.00159	1000.0

NAME:  Pesticide5_Fipronil_C12H4Cl2F6N4OS_5-Amino-1-[2,6-dichloro-4-(trifluoromethyl)phenyl]-4-[(trifluoromethyl)sulfinyl]-1H-pyrazole-3-carbonitrile
PRECURSORMZ:  470.9081075599
PRECURSORTYPE:  [M+Cl]-
FORMULA:  C12H4Cl2F6N4OS
Ontology: Kingdom: Organic compounds;Superclass: Organoheterocyclic compounds;Class: Azoles;Subclass: Pyrazoles
INCHIKEY:  ZOCSXAVNDGMNBV-UHFFFAOYNA-N
SMILES:  NC1=C(C(=NN1C1=C(Cl)C=C(C=C1Cl)C(F)(F)F)C#N)S(=O)C(F)(F)F
RETENTIONTIME:  
CCS:  -1
IONMODE:  Negative
INSTRUMENTTYPE:  
INSTRUMENT:  Maxis HD qTOF
COLLISIONENERGY:  
Comment:  DB#=CCMSLIB00001058321; origin=GNPS
Num Peaks:  19
150.55675	50.0
170.0056	30.0
242.98781	90.0
249.96053	30.0
268.14371	40.0
277.95691	70.0
280.97195	20.0
282.00186	60.0
287.96985	30.0
317.97159	200.0
329.96005	1000.0
332.97003	60.0
347.98993	30.0
364.93063	40.0
365.93875	120.0
390.97745	30.0
398.95135	140.0
434.9321	130.0
975.84546	20.0

NAME:  NCGC00381243-01_C39H48O21_
PRECURSORMZ:  851.26153211383
PRECURSORTYPE:  [M-H]-
FORMULA:  C39H48O21
Ontology: Kingdom: Organic compounds;Superclass: Phenylpropanoids and polyketides;Class: Tannins;Subclass: Hydrolyzable tannins
INCHIKEY:  FIDNWEXBAPOGEH-UHFFFAOYNA-N
SMILES:  COC(=O)C1=COC(OC2OC(CO)C(O)C(O)C2O)C(=CCOC(=O)C2=CC(OC)=C(OC3OC(CO)C(O)C(O)C3O)C=C2)C1CC(=O)OCCC1=CC=C(O)C=C1
RETENTIONTIME:  
CCS:  -1
IONMODE:  Negative
INSTRUMENTTYPE:  
INSTRUMENT:  Maxis II HD Q-TOF Bruker
COLLISIONENERGY:  
Comment:  DB#=CCMSLIB00000851444; origin=GNPS
Num Peaks:  27
101.0254	10.0
108.02007	30.0
111.00867	10.0
119.05039	20.0
123.04504	180.0
127.03735	10.0
135.04715	10.0
137.05788	20.0
151.07478	30.0
152.01089	80.0
163.037	10.0
167.03444	1000.0
168.03719	30.0
171.03172	10.0
179.03178	10.0
195.06686	50.0
235.06174	70.0
275.09323	20.0
291.0889	230.0
315.12476	70.0
327.08792	10.0
329.08786	10.0
359.11472	50.0
425.12164	40.0
527.15686	60.0
689.211	120.0
690.21472	20.0

NAME:  NCGC00347778-02_C34H52O12_1,5,16-Trihydroxy-26-oxo-6,7:22,26-diepoxyergost-24-en-3-yl hexopyranoside
PRECURSORMZ:  697.34407966183
PRECURSORTYPE:  [M+FA-H]-
FORMULA:  C34H52O12
Ontology: Kingdom: Organic compounds;Superclass: Lipids and lipid;Class: Steroids and steroid derivatives;Subclass: Steroid lactones
INCHIKEY:  INOKSQLHQGQUNF-UHFFFAOYNA-N
SMILES:  CC(C1C(O)CC2C3C4OC4C4(O)CC(CC(O)C4(C)C3CCC12C)OC1OC(CO)C(O)C(O)C1O)C1CC(C)=C(C)C(=O)O1
RETENTIONTIME:  
CCS:  -1
IONMODE:  Negative
INSTRUMENTTYPE:  
INSTRUMENT:  Maxis II HD Q-TOF Bruker
COLLISIONENERGY:  
Comment:  DB#=CCMSLIB00000849977; origin=GNPS
Num Peaks:  63
101.02129	100.0
113.0223	150.0
119.04215	140.0
132.01843	150.0
133.02925	100.0
134.03703	500.0
141.90311	30.0
143.03305	210.0
148.03984	240.0
149.05885	330.0
150.05128	40.0
160.01733	350.0
161.02496	370.0
161.0484	180.0
162.02855	200.0
162.97943	50.0
163.06494	130.0
164.03464	100.0
165.16687	70.0
175.041	560.0
175.16302	50.0
179.02927	40.0
179.05496	900.0
189.05128	50.0
190.04982	20.0
193.05937	60.0
282.08081	50.0
325.09775	100.0
328.22275	90.0
337.09686	650.0
338.09903	90.0
340.12012	650.0
341.11746	70.0
349.37643	50.0
358.13358	320.0
386.12247	40.0
391.27124	90.0
435.25113	60.0
445.29617	80.0
449.89703	40.0
453.22745	40.0
453.26617	520.0
454.2572	60.0
456.08215	20.0
471.29196	20.0
489.28085	90.0
520.1767	20.0
647.57831	30.0
649.52386	30.0
651.33765	1000.0
652.35065	50.0
664.23535	20.0
669.34644	120.0
678.43842	50.0
696.24048	110.0
697.28992	60.0
697.3443	960.0
697.94537	30.0
698.35065	20.0
702.46051	40.0
702.50171	60.0
954.125	100.0
1658.5741	240.0

NAME:  NCGC00347571-02_C27H40O4_(3beta,5alpha,8xi,14xi,25S)-3-Hydroxyspirost-9(11)-en-12-one
PRECURSORMZ:  473.29086231583
PRECURSORTYPE:  [M+FA-H]-
FORMULA:  C27H40O4
Ontology: Kingdom: Organic compounds;Superclass: Lipids and lipid;Class: Prenol lipids;Subclass: Triterpenoids
INCHIKEY:  YLZUMNXGXFXZNQ-UHFFFAOYNA-N
SMILES:  CC1C2C(CC3C4CCC5CC(O)CCC5(C)C4=CC(=O)C23C)OC11CCC(C)CO1
RETENTIONTIME:  
CCS:  -1
IONMODE:  Negative
INSTRUMENTTYPE:  
INSTRUMENT:  Maxis II HD Q-TOF Bruker
COLLISIONENERGY:  
Comment:  DB#=CCMSLIB00000849998; origin=GNPS
Num Peaks:  10
205.16196	20.0
360.01126	40.0
467.26035	20.0
472.18118	30.0
472.27148	30.0
472.33258	50.0
472.60315	60.0
472.96039	10.0
473.28479	1000.0
477.04245	30.0

NAME:  NCGC00381323-01_C31H42O17_Methyl (2S,3Z,4S)-3-ethylidene-2-[(6-O-hexopyranosylhexopyranosyl)oxy]-4-{2-[2-(4-hydroxyphenyl)ethoxy]-2-oxoethyl}-3,4-dihydro-2H-pyran-5-carboxylate
PRECURSORMZ:  685.23492343983
PRECURSORTYPE:  [M-H]-
FORMULA:  C31H42O17
Ontology: Kingdom: Organic compounds;Superclass: Lipids and lipid;Class: Prenol lipids;Subclass: Terpene glycosides
INCHIKEY:  FVQYDVAAZIXQID-UHFFFAOYNA-N
SMILES:  COC(=O)C1=COC(OC2OC(COC3OC(CO)C(O)C(O)C3O)C(O)C(O)C2O)C(=CC)C1CC(=O)OCCC1=CC=C(O)C=C1
RETENTIONTIME:  
CCS:  257.5433168
IONMODE:  Negative
INSTRUMENTTYPE:  
INSTRUMENT:  Maxis II HD Q-TOF Bruker
COLLISIONENERGY:  
Comment:  DB#=CCMSLIB00000851151; origin=GNPS
Num Peaks:  30
101.02538	120.0
111.00909	30.0
121.02967	10.0
127.03971	170.0
137.06248	30.0
139.0394	80.0
142.03108	10.0
147.04552	40.0
149.02243	60.0
161.04385	60.0
163.04068	20.0
168.89551	20.0
171.02811	60.0
179.05626	140.0
181.04794	10.0
203.06656	20.0
205.05312	10.0
221.06644	30.0
223.05968	50.0
259.09851	290.0
290.70938	10.0
291.08875	1000.0
292.0957	20.0
361.12964	510.0
362.13736	20.0
565.17896	20.0
606.18781	10.0
685.22803	80.0
686.24664	10.0
1697.2522	20.0

NAME:  Pesticide3_Diflubenzuron_C14H9ClF2N2O2_N-[(4-Chlorophenyl)carbamoyl]-2,6-difluorobenzamide
PRECURSORMZ:  309.02478514783
PRECURSORTYPE:  [M-H]-
FORMULA:  C14H9ClF2N2O2
Ontology: Kingdom: Organic compounds;Superclass: Benzenoids;Class: Benzene and substituted derivatives;Subclass: N
INCHIKEY:  QQQYTWIFVNKMRW-UHFFFAOYSA-N
SMILES:  OC(=NC(=O)NC1=CC=C(Cl)C=C1)C1=C(F)C=CC=C1F
RETENTIONTIME:  
CCS:  163.276322
IONMODE:  Negative
INSTRUMENTTYPE:  
INSTRUMENT:  Q-Exactive Plus Orbitrap Res 70k
COLLISIONENERGY:  
Comment:  DB#=CCMSLIB00001058264; origin=GNPS
Num Peaks:  13
93.01446	270.0
113.02111	1000.0
113.0231	20.0
126.01189	420.0
151.00691	930.0
156.02675	540.0
196.30522	10.0
210.06419	10.0
246.01286	40.0
274.7793	10.0
288.99176	10.0
289.01849	720.0
309.02509	80.0

NAME:  NCGC00380320-01_C25H34O8_1H-Furo[3,4-b]xanthene-9-propanoic acid, 3,5a,6,7,8,9,9a,10-octahydro-7-hydroxy-8-(1-hydroxy-1-methylethyl)-11-methoxy-4,5a,9-trimethyl-1-oxo-, (5aS,9R,9aR)-
PRECURSORMZ:  497.1947693149
PRECURSORTYPE:  [M+Cl]-
FORMULA:  C25H34O8
Ontology: Kingdom: Organic compounds;Superclass: Organoheterocyclic compounds;Class: Benzopyrans;
INCHIKEY:  NNOMPFCNQCRAIO-UHFFFAOYNA-N
SMILES:  COC1=C2C(=O)OCC2=C(C)C2=C1CC1C(C)(CC(O)C(C(C)(C)O)C1(C)CCC(O)=O)O2
RETENTIONTIME:  
CCS:  -1
IONMODE:  Negative
INSTRUMENTTYPE:  
INSTRUMENT:  Maxis II HD Q-TOF Bruker
COLLISIONENERGY:  
Comment:  DB#=CCMSLIB00000850310; origin=GNPS
Num Peaks:  11
179.11046	60.0
191.03352	80.0
193.16229	30.0
329.13644	60.0
367.15408	30.0
374.01736	30.0
385.16931	20.0
389.20859	30.0
461.21719	1000.0
461.5961	30.0
1085.57776	10.0

NAME:  NCGC00380166-01_C28H34O13_beta-D-Glucopyranoside, 4-[(1R,3aR,4S,6aS)-6a-(acetyloxy)tetrahydro-4-(4-hydroxy-3-methoxyphenyl)-1H,3H-furo[3,4-c]furan-1-yl]-2-methoxyphenyl
PRECURSORMZ:  577.19266470283
PRECURSORTYPE:  [M-H]-
FORMULA:  C28H34O13
Ontology: Kingdom: Organic compounds;Superclass: Lignans;Class: Lignan glycosides;
INCHIKEY:  ARPKCZZZMDEOIF-UHFFFAOYNA-N
SMILES:  COC1=C(O)C=CC(=C1)C1OCC2(OC(C)=O)C1COC2C1=CC(OC)=C(OC2OC(CO)C(O)C(O)C2O)C=C1
RETENTIONTIME:  
CCS:  259.2717349
IONMODE:  Negative
INSTRUMENTTYPE:  
INSTRUMENT:  Maxis II HD Q-TOF Bruker
COLLISIONENERGY:  
Comment:  DB#=CCMSLIB00000850886; origin=GNPS
Num Peaks:  38
123.04345	50.0
136.01543	120.0
151.03928	370.0
151.33058	30.0
161.05815	20.0
161.44772	10.0
162.03349	30.0
166.02237	30.0
176.04387	30.0
178.02615	20.0
181.04312	20.0
183.04189	30.0
188.04324	30.0
191.07141	70.0
192.03656	10.0
193.05028	80.0
203.03654	40.0
203.44489	10.0
204.04378	30.0
219.05891	80.0
223.07933	30.0
235.07532	40.0
239.08723	30.0
253.07285	50.0
258.97714	20.0
265.04657	10.0
280.06342	40.0
294.08698	40.0
295.09436	90.0
310.09003	30.0
325.10846	140.0
326.12436	30.0
343.11703	80.0
355.12054	60.0
414.37943	20.0
415.13977	1000.0
418.71753	20.0
559.23517	10.0

NAME:  methoxy-myricetin-3-O-hexosyl-7-O-deoxyhexosyl(1-2)deoxyhexoside
PRECURSORMZ:  785.21458191983
PRECURSORTYPE:  [M-H]-
FORMULA:  C34H42O21
Ontology: Kingdom: Organic compounds;Superclass: Phenylpropanoids and polyketides;Class: Flavonoids;Subclass: Flavonoid glycosides
INCHIKEY:  UIUUJPRXQQHVJA-UHFFFAOYNA-N
SMILES:  COC1=C(O)C=C(C=C1O)C1=C(OC2OC(CO)C(O)C(O)C2O)C(=O)C2=C(O)C=C(OC3OC(C)C(O)C(O)C3OC3OC(C)C(O)C(O)C3O)C=C2O1
RETENTIONTIME:  
CCS:  -1
IONMODE:  Negative
INSTRUMENTTYPE:  
INSTRUMENT:  qTof
COLLISIONENERGY:  
Comment:  DB#=CCMSLIB00004678826; origin=GNPS
Num Peaks:  34
163.42441	20.0
174.89545	10.0
212.90349	10.0
217.04701	10.0
220.5329	10.0
287.02408	10.0
315.0145	90.0
316.02631	40.0
317.0163	20.0
330.04727	20.0
331.04324	40.0
359.04053	10.0
363.32602	10.0
457.99716	10.0
470.03122	10.0
539.93585	10.0
549.41547	20.0
553.1051	10.0
608.12817	40.0
618.28778	10.0
623.15869	1000.0
623.37073	40.0
623.50317	10.0
623.62311	10.0
624.16437	260.0
624.32599	10.0
624.39734	10.0
624.51544	10.0
625.1814	40.0
629.54358	10.0
660.41205	10.0
661.09827	10.0
828.84375	10.0
948.46735	10.0

NAME:  NCGC00385664-01_C24H28O13_(1aS,1bS,2S,5aR,6S,6aS)-2-(beta-D-Glucopyranosyloxy)-1a-(hydroxymethyl)-1a,1b,2,5a,6,6a-hexahydrooxireno[4,5]cyclopenta[1,2-c]pyran-6-yl (2E)-3-(3,4-dihydroxyphenyl)acrylate
PRECURSORMZ:  523.14571450983
PRECURSORTYPE:  [M-H]-
FORMULA:  C24H28O13
Ontology: Kingdom: Organic compounds;Superclass: Phenylpropanoids and polyketides;Class: Cinnamic acids and derivatives;Subclass: Hydroxycinnamic acids and derivatives
INCHIKEY:  MZQXNUBTVLKMLP-UHFFFAOYNA-N
SMILES:  OCC1OC(OC2OC=CC3C(OC(=O)C=CC4=CC(O)=C(O)C=C4)C4OC4(CO)C23)C(O)C(O)C1O
RETENTIONTIME:  
CCS:  210.5061243
IONMODE:  Negative
INSTRUMENTTYPE:  
INSTRUMENT:  Maxis II HD Q-TOF Bruker
COLLISIONENERGY:  
Comment:  DB#=CCMSLIB00000850613; origin=GNPS
Num Peaks:  25
90.88477	20.0
95.0518	10.0
121.03095	20.0
127.93472	20.0
133.03114	70.0
134.03854	20.0
135.04582	100.0
159.50357	10.0
160.9807	10.0
161.02415	600.0
161.05721	10.0
163.03906	40.0
178.02237	20.0
178.23367	10.0
179.03375	150.0
194.06076	20.0
201.054	10.0
203.06953	20.0
246.94215	20.0
247.0578	20.0
281.09842	20.0
361.09811	30.0
522.95831	10.0
523.14819	1000.0
1276.59631	30.0

NAME:  Pesticide3_Hexaflumuron_C16H8Cl2F6N2O3_
PRECURSORMZ:  458.97434004783
PRECURSORTYPE:  [M-H]-
FORMULA:  C16H8Cl2F6N2O3
Ontology: Kingdom: Organic compounds;Superclass: Benzenoids;Class: Benzene and substituted derivatives;Subclass: N
INCHIKEY:  RGNPBRKPHBKNKX-UHFFFAOYSA-N
SMILES:  FC(F)C(F)(F)OC1=C(Cl)C=C(NC(=O)NC(=O)C2=C(F)C=CC=C2F)C=C1Cl
RETENTIONTIME:  
CCS:  169.6137684
IONMODE:  Negative
INSTRUMENTTYPE:  
INSTRUMENT:  Q-Exactive Plus Orbitrap Res 70k
COLLISIONENERGY:  
Comment:  DB#=CCMSLIB00001058272; origin=GNPS
Num Peaks:  22
93.01427	10.0
96.99041	40.0
113.02085	60.0
116.9968	30.0
156.02675	40.0
174.95995	1000.0
185.95195	80.0
199.95496	30.0
201.94693	20.0
235.94911	10.0
255.95517	70.0
258.00031	20.0
275.9613	500.0
284.98782	20.0
293.97754	10.0
294.96091	10.0
300.95636	60.0
301.99036	80.0
395.96268	10.0
402.99182	60.0
422.99921	20.0
438.96945	310.0

NAME:  NCGC00385682-01_C30H48O4_(2alpha,3beta,5xi,9xi,18xi)-2,3-Dihydroxyolean-12-en-28-oic acid
PRECURSORMZ:  517.35346257383
PRECURSORTYPE:  [M+FA-H]-
FORMULA:  C30H48O4
Ontology: Kingdom: Organic compounds;Superclass: Lipids and lipid;Class: Prenol lipids;Subclass: Triterpenoids
INCHIKEY:  MDZKJHQSJHYOHJ-UHFFFAOYNA-N
SMILES:  CC1(C)CCC2(CCC3(C)C(=CCC4C5(C)CC(O)C(O)C(C)(C)C5CCC34C)C2C1)C(O)=O
RETENTIONTIME:  
CCS:  -1
IONMODE:  Negative
INSTRUMENTTYPE:  
INSTRUMENT:  Maxis II HD Q-TOF Bruker
COLLISIONENERGY:  
Comment:  DB#=CCMSLIB00000849824; origin=GNPS
Num Peaks:  5
172.81842	20.0
248.98946	40.0
469.52951	10.0
470.34756	20.0
471.34848	1000.0

NAME:  NCGC00347683-02_C42H66O16_6-O-beta-D-Glucopyranosyl-1-O-[(3beta,5xi,9xi)-3,19,24-trihydroxy-24,28-dioxours-12-en-28-yl]-beta-D-glucopyranose
PRECURSORMZ:  825.42780959283
PRECURSORTYPE:  [M-H]-
FORMULA:  C42H66O16
Ontology: Kingdom: Organic compounds;Superclass: Lipids and lipid;Class: Prenol lipids;Subclass: Terpene glycosides
INCHIKEY:  LCQFYEBJTAIMPC-UHFFFAOYNA-N
SMILES:  CC1CCC2(CCC3(C)C(=CCC4C5(C)CCC(O)C(C)(C5CCC34C)C(O)=O)C2C1(C)O)C(=O)OC1OC(COC2OC(CO)C(O)C(O)C2O)C(O)C(O)C1O
RETENTIONTIME:  
CCS:  -1
IONMODE:  Negative
INSTRUMENTTYPE:  
INSTRUMENT:  Maxis II HD Q-TOF Bruker
COLLISIONENERGY:  
Comment:  DB#=CCMSLIB00000851393; origin=GNPS
Num Peaks:  10
437.30817	10.0
439.32468	20.0
441.30362	10.0
457.33411	40.0
483.31345	190.0
501.32263	730.0
502.33289	20.0
543.33228	20.0
825.42914	1000.0
826.43433	150.0

NAME:  NCGC00380613-01_C41H52N8O9_Cyclo[glycylprolyltryptophylglycyl-beta-hydroxy-3-(3-methyl-2-buten-1-yl)tyrosylglycylvalyl]
PRECURSORMZ:  845.38392783383
PRECURSORTYPE:  [M+FA-H]-
FORMULA:  C41H52N8O9
Ontology: Kingdom: Organic compounds;Superclass: Organic acids and derivatives;Class: Carboxylic acids and derivatives;Subclass: Amino acids
INCHIKEY:  LIHVMLWWVHJRMA-UHFFFAOYNA-N
SMILES:  CC(C)C1N=C(O)CN=C(O)C(N=C(O)CN=C(O)C(CC2=CNC3=CC=CC=C23)N=C(O)C2CCCN2C(=O)CN=C1O)C(O)C1=CC=C(O)C(CC=C(C)C)=C1
RETENTIONTIME:  
CCS:  -1
IONMODE:  Negative
INSTRUMENTTYPE:  
INSTRUMENT:  Maxis II HD Q-TOF Bruker
COLLISIONENERGY:  
Comment:  DB#=CCMSLIB00000849259; origin=GNPS
Num Peaks:  80
84.01128	20.0
99.02023	30.0
112.07632	20.0
113.03562	50.0
113.07071	30.0
115.08846	20.0
126.06608	10.0
130.06175	60.0
134.03838	50.0
137.07089	30.0
138.05754	20.0
139.05624	10.0
141.06744	10.0
142.06517	20.0
153.06583	40.0
155.08296	50.0
156.04118	40.0
166.02637	20.0
168.11278	10.0
169.07462	10.0
170.05756	30.0
170.09317	90.0
172.10954	40.0
177.06799	10.0
184.06754	10.0
187.08472	60.0
189.09225	360.0
194.092	20.0
198.08966	20.0
202.12328	10.0
209.10487	30.0
210.08463	50.0
211.11987	60.0
212.10268	20.0
214.11972	20.0
227.0793	20.0
227.1144	120.0
228.11115	10.0
229.12993	140.0
239.11035	10.0
251.11827	60.0
251.15236	100.0
252.13676	10.0
259.1459	20.0
267.10837	30.0
269.12418	10.0
269.16257	60.0
283.17889	20.0
284.10092	30.0
284.13824	20.0
285.12238	10.0
286.15329	20.0
310.1138	10.0
312.13022	20.0
323.12805	10.0
324.13055	110.0
326.14673	220.0
341.15494	120.0
343.16794	10.0
365.19476	20.0
366.17584	20.0
383.20468	320.0
395.19724	10.0
407.20853	10.0
413.16037	20.0
423.20654	20.0
436.23285	20.0
444.20074	10.0
453.18497	10.0
462.2092	10.0
470.2092	10.0
480.22162	950.0
481.22174	50.0
492.21893	10.0
609.2804	1000.0
610.2821	90.0
637.2771	30.0
652.31732	20.0
763.36603	20.0
781.37067	80.0

NAME:  NCGC00380714-01_C20H22O9_3,5-Dihydroxy-2-(4-hydroxyphenyl)-3,4-dihydro-2H-chromen-7-yl pentofuranoside
PRECURSORMZ:  405.11910583583
PRECURSORTYPE:  [M-H]-
FORMULA:  C20H22O9
Ontology: Kingdom: Organic compounds;Superclass: Phenylpropanoids and polyketides;Class: Flavonoids;Subclass: Flavonoid glycosides
INCHIKEY:  XWFQRXGYJJOFCO-UHFFFAOYNA-N
SMILES:  OCC1OC(OC2=CC(O)=C3CC(O)C(OC3=C2)C2=CC=C(O)C=C2)C(O)C1O
RETENTIONTIME:  
CCS:  -1
IONMODE:  Negative
INSTRUMENTTYPE:  
INSTRUMENT:  Maxis II HD Q-TOF Bruker
COLLISIONENERGY:  
Comment:  DB#=CCMSLIB00000850097; origin=GNPS
Num Peaks:  15
97.02959	110.0
123.0434	40.0
134.03751	30.0
137.02187	120.0
140.00346	50.0
186.07626	30.0
187.03877	40.0
189.05093	20.0
205.09781	50.0
206.08551	30.0
229.0817	70.0
255.06569	60.0
272.08008	20.0
273.07779	1000.0
315.08694	30.0

NAME:  NCGC00380542-01_C19H28O10_Pentonic acid, 4,5-dideoxy-3-C-methyl-, [4-(beta-D-glucopyranosyloxy)phenyl]methyl ester
PRECURSORMZ:  461.16644964983
PRECURSORTYPE:  [M+FA-H]-
FORMULA:  C19H28O10
Ontology: Kingdom: Organic compounds;Superclass: Organic oxygen compounds;Class: Organooxygen compounds;Subclass: Carbohydrates and carbohydrate conjugates
INCHIKEY:  UKSHFSUBKYPKMO-UHFFFAOYNA-N
SMILES:  CCC(C)(O)C(O)C(=O)OCC1=CC=C(OC2OC(CO)C(O)C(O)C2O)C=C1
RETENTIONTIME:  
CCS:  -1
IONMODE:  Negative
INSTRUMENTTYPE:  
INSTRUMENT:  Maxis II HD Q-TOF Bruker
COLLISIONENERGY:  
Comment:  DB#=CCMSLIB00000850214; origin=GNPS
Num Peaks:  3
147.06583	1000.0
309.12195	10.0
461.16623	50.0

NAME:  NCGC00169372-02_C27H34O16_2-(beta-D-Glucopyranosyloxy)benzyl 3-(hexopyranosyloxy)-6-hydroxy-2-methoxybenzoate
PRECURSORMZ:  613.17740856283
PRECURSORTYPE:  [M-H]-
FORMULA:  C27H34O16
Ontology: Kingdom: Organic compounds;Superclass: Organic oxygen compounds;Class: Organooxygen compounds;Subclass: Carbohydrates and carbohydrate conjugates
INCHIKEY:  WQQJTVODGXZMHF-UHFFFAOYNA-N
SMILES:  COC1=C(OC2OC(CO)C(O)C(O)C2O)C=CC(O)=C1C(=O)OCC1=CC=CC=C1OC1OC(CO)C(O)C(O)C1O
RETENTIONTIME:  
CCS:  223.2647468
IONMODE:  Negative
INSTRUMENTTYPE:  
INSTRUMENT:  Maxis II HD Q-TOF Bruker
COLLISIONENERGY:  
Comment:  DB#=CCMSLIB00000851055; origin=GNPS
Num Peaks:  29
81.30377	20.0
108.02444	20.0
113.02029	20.0
121.0331	20.0
121.62922	20.0
123.01003	130.0
124.01395	30.0
136.05045	30.0
137.02443	20.0
138.03209	400.0
139.04079	300.0
151.03375	40.0
161.04338	120.0
163.03671	50.0
166.02797	20.0
181.05215	130.0
183.02841	560.0
184.03206	40.0
209.04723	10.0
223.05748	10.0
269.07132	20.0
301.08795	110.0
343.61099	10.0
344.34399	10.0
344.72064	10.0
345.08554	1000.0
435.10391	10.0
450.11679	40.0
451.12457	50.0

NAME:  NCGC00381102-01_C52H82O22_
PRECURSORMZ:  1057.52249782783
PRECURSORTYPE:  [M-H]-
FORMULA:  C52H82O22
Ontology: Kingdom: Organic compounds;Superclass: Lipids and lipid;Class: Prenol lipids;Subclass: Terpene glycosides
INCHIKEY:  WOXFKHSZHQXBRF-UHFFFAOYNA-N
SMILES:  CC1OC(OC2C(O)C(CO)OC2OC(=O)C23CCC(C)(C)CC2C2=CCC4C5(C)CCC(OC6OC(C(O)C(O)C6O)C(O)=O)C(C)(C)C5CCC4(C)C2(C)CC3O)C(O)C(O)C1OC1OCC(O)C(O)C1O
RETENTIONTIME:  
CCS:  -1
IONMODE:  Negative
INSTRUMENTTYPE:  
INSTRUMENT:  Maxis II HD Q-TOF Bruker
COLLISIONENERGY:  
Comment:  DB#=CCMSLIB00000849557; origin=GNPS
Num Peaks:  15
85.03042	30.0
113.02401	50.0
131.03481	10.0
143.03462	10.0
337.11453	40.0
407.33359	10.0
471.34775	20.0
585.38129	100.0
586.38763	10.0
629.3714	50.0
647.38251	350.0
648.38715	70.0
1057.5249	1000.0
1058.52759	360.0
1059.53247	60.0

NAME:  NCGC00385241-01_C59H96O26_6-Deoxy-alpha-L-mannopyranosyl-(1->3)-beta-D-xylopyranosyl-(1->4)-6-deoxy-alpha-L-mannopyranosyl-(1->2)-6-deoxy-1-O-{(2beta,3beta,5xi,9xi,16alpha)-3-[(6-deoxy-alpha-L-mannopyranosyl)oxy]-2,16,23-trihydroxy-28-oxoolean-12-en-28-yl}-beta-D-galactopyranose
PRECURSORMZ:  1265.61718575883
PRECURSORTYPE:  [M+FA-H]-
FORMULA:  C59H96O26
Ontology: ;;;
INCHIKEY:  GFGWLAXJMCZYEJ-UHFFFAOYNA-N
SMILES:  CC1OC(OC2C(O)COC(OC3C(C)OC(OC4C(O)C(O)C(C)OC4OC(=O)C45CCC(C)(C)CC4C4=CCC6C7(C)CC(O)C(OC8OC(C)C(O)C(O)C8O)C(C)(CO)C7CCC6(C)C4(C)CC5O)C(O)C3O)C2O)C(O)C(O)C1O
RETENTIONTIME:  
CCS:  -1
IONMODE:  Negative
INSTRUMENTTYPE:  
INSTRUMENT:  Maxis II HD Q-TOF Bruker
COLLISIONENERGY:  
Comment:  DB#=CCMSLIB00000849941; origin=GNPS
Num Peaks:  10
381.13272	20.0
483.17114	40.0
569.20325	10.0
649.3891	10.0
1115.56006	20.0
1219.6106	1000.0
1220.61621	210.0
1221.61829	20.0
1265.62122	130.0
1266.62634	50.0

NAME:  Pesticide4_Pymetrozine_C10H11N5O_(E)-4,5-Dihydro-6-methyl-4-[(3-pyridinylmethylene)amino]-1,2,4-triazin-3(2H)-one
PRECURSORMZ:  254.04496518976
PRECURSORTYPE:  [M+K-2H]-
FORMULA:  C10H11N5O
Ontology: Kingdom: Organic compounds;Superclass: Organoheterocyclic compounds;Class: Triazines;
INCHIKEY:  QHMTXANCGGJZRX-UHFFFAOYSA-N
SMILES:  CC1=NN=C(O)N(C1)N=CC1=CN=CC=C1
RETENTIONTIME:  
CCS:  -1
IONMODE:  Negative
INSTRUMENTTYPE:  
INSTRUMENT:  Q-Exactive Plus Orbitrap Res 70k
COLLISIONENERGY:  
Comment:  DB#=CCMSLIB00001058317; origin=GNPS
Num Peaks:  5
85.99919	160.0
153.02245	470.0
207.04456	30.0
210.04402	40.0
254.0452	1000.0

NAME:  NCGC00381141-01_C26H28N4O5_1H-Imidazo[1,2-a]indole-9-propanoic acid, 2,3,9,9a-tetrahydro-9-hydroxy-2-(2-methylpropyl)-3-oxo-alpha-(4-oxo-3(4H)-quinazolinyl)-, methyl ester
PRECURSORMZ:  475.19869356583
PRECURSORTYPE:  [M-H]-
FORMULA:  C26H28N4O5
Ontology: Kingdom: Organic compounds;Superclass: Organic acids and derivatives;Class: Carboxylic acids and derivatives;Subclass: Amino acids
INCHIKEY:  XSMFFOWECZCAFL-UHFFFAOYNA-N
SMILES:  COC(=O)C(CC1(O)C2NC(CC(C)C)C(=O)N2C2=CC=CC=C12)N1C=NC2=CC=CC=C2C1=O
RETENTIONTIME:  
CCS:  -1
IONMODE:  Negative
INSTRUMENTTYPE:  
INSTRUMENT:  Maxis II HD Q-TOF Bruker
COLLISIONENERGY:  
Comment:  DB#=CCMSLIB00000851022; origin=GNPS
Num Peaks:  22
72.58288	20.0
131.0423	50.0
132.04306	300.0
145.04062	1000.0
152.07547	60.0
157.28094	20.0
158.0594	30.0
170.08035	30.0
171.05385	80.0
209.06691	60.0
241.10109	50.0
254.11646	50.0
266.13132	10.0
279.11475	30.0
298.12354	70.0
310.11523	270.0
310.92194	40.0
328.13412	20.0
329.15277	50.0
330.14072	120.0
342.14655	160.0
878.76355	20.0

NAME:  NCGC00381211-01_C66H100O25_2-Propenoic acid, 3-phenyl-, (3beta,8xi,9xi,11alpha,12beta,14beta,17xi)-11-(acetyloxy)-3-[[O-hexopyranosyl-(1->4)-O--6-deoxy-3-O-methylhexopyranosyl-(1->4)-O--2,6-dideoxy-3-O-methylhexopyranosyl-(1->4)-O--2,6-dideoxy-3-O-methylhexopyranosyl-(1->4)-2,6-dideoxy-3-O-methylhexopyranosyl]oxy]-14-hydroxy-20-oxopregnan-12-yl ester, (2E)-
PRECURSORMZ:  1337.65357126783
PRECURSORTYPE:  [M+FA-H]-
FORMULA:  C66H100O25
Ontology: Kingdom: Organic compounds;Superclass: Lipids and lipid;Class: Steroids and steroid derivatives;Subclass: Steroidal glycosides
INCHIKEY:  GOZAGCBVCYGQHP-UHFFFAOYNA-N
SMILES:  COC1CC(OC2CCC3(C)C(CCC4C3C(OC(C)=O)C(OC(=O)C=CC3=CC=CC=C3)C3(C)C(CCC43O)C(C)=O)C2)OC(C)C1OC1CC(OC)C(OC2CC(OC)C(OC3OC(C)C(OC4OC(CO)C(O)C(O)C4O)C(OC)C3O)C(C)O2)C(C)O1
RETENTIONTIME:  
CCS:  -1
IONMODE:  Negative
INSTRUMENTTYPE:  
INSTRUMENT:  Maxis II HD Q-TOF Bruker
COLLISIONENERGY:  
Comment:  DB#=CCMSLIB00000850799; origin=GNPS
Num Peaks:  9
101.02496	10.0
113.02417	20.0
147.04504	1000.0
148.04854	50.0
161.04599	20.0
171.04474	20.0
1231.6228	10.0
1291.64783	30.0
1292.65576	10.0

NAME:  NCGC00381045-01_C67H106O31_(3beta,5xi,9xi,16alpha,18xi,22alpha,28R)-16-Acetoxy-22-[(2E)-2-hexenoyloxy]-28-hydroxy-13,28-epoxyoleanan-3-yl 6-deoxy-2-O-[(2S,3R,4R)-3,4-dihydroxy-4-(hydroxymethyl)tetrahydro-2-furanyl]-alpha-L-mannopyranosyl-(1->2)-beta-D-galactopyranosyl-(1->3)-[beta-D-galactopyranosyl-(1->2)]-beta-D-glucopyranosiduronic acid
PRECURSORMZ:  1405.66453018083
PRECURSORTYPE:  [M-H]-
FORMULA:  C67H106O31
Ontology: Kingdom: Organic compounds;Superclass: Lipids and lipid;Class: Prenol lipids;Subclass: Terpene glycosides
INCHIKEY:  WCZBSKFQDBEVND-UHFFFAOYNA-N
SMILES:  CCCC=CC(=O)OC1CC(C)(C)CC2C34CCC5C6(C)CCC(OC7OC(C(O)C(OC8OC(CO)C(O)C(O)C8OC8OC(C)C(O)C(O)C8OC8OCC(O)(CO)C8O)C7OC7OC(CO)C(O)C(O)C7O)C(O)=O)C(C)(C)C6CCC5(C)C3(C)CC(OC(C)=O)C12C(O)O4
RETENTIONTIME:  
CCS:  -1
IONMODE:  Negative
INSTRUMENTTYPE:  
INSTRUMENT:  Maxis II HD Q-TOF Bruker
COLLISIONENERGY:  
Comment:  DB#=CCMSLIB00000850849; origin=GNPS
Num Peaks:  66
71.01329	20.0
73.03059	20.0
85.02974	30.0
86.00014	20.0
87.01083	20.0
87.04555	10.0
89.02527	40.0
95.01324	60.0
96.99195	20.0
97.02792	20.0
99.00717	60.0
99.04475	30.0
101.02554	90.0
109.03095	10.0
112.01456	30.0
113.02498	170.0
113.06089	100.0
115.04099	90.0
117.93378	20.0
119.03403	40.0
127.03908	90.0
129.02167	20.0
131.03549	250.0
132.0363	10.0
139.00748	30.0
143.03471	400.0
145.04933	230.0
149.04506	90.0
154.03079	10.0
157.01591	30.0
161.04468	70.0
165.0782	10.0
167.03979	20.0
179.05591	10.0
189.04178	10.0
191.05498	200.0
197.005	10.0
205.0713	560.0
206.08128	30.0
233.06802	50.0
247.05969	10.0
254.87682	10.0
277.08981	60.0
295.10419	40.0
301.05923	20.0
303.05145	10.0
307.10431	20.0
319.0639	10.0
337.11353	600.0
338.11905	80.0
365.10938	20.0
516.16199	10.0
519.3938	30.0
617.41541	20.0
618.4267	10.0
625.41296	70.0
627.43347	20.0
724.47974	10.0
725.42981	10.0
797.4892	10.0
1225.63147	30.0
1387.6593	10.0
1405.66895	1000.0
1406.66748	530.0
1407.66443	160.0
1408.67456	10.0

NAME:  NCGC00385695-01_C21H28O13_alpha-D-Glucopyranoside, beta-L-fructofuranosyl 6-O-[(2E)-3-(4-hydroxyphenyl)-1-oxo-2-propen-1-yl]-
PRECURSORMZ:  487.14571450983
PRECURSORTYPE:  [M-H]-
FORMULA:  C21H28O13
Ontology: Kingdom: Organic compounds;Superclass: Phenylpropanoids and polyketides;Class: Cinnamic acids and derivatives;Subclass: Hydroxycinnamic acids and derivatives
INCHIKEY:  PQYVXRPPFDHTSV-UHFFFAOYNA-N
SMILES:  OCC1OC(CO)(OC2OC(COC(=O)C=CC3=CC=C(O)C=C3)C(O)C(O)C2O)C(O)C1O
RETENTIONTIME:  
CCS:  234.6586183
IONMODE:  Negative
INSTRUMENTTYPE:  
INSTRUMENT:  Maxis II HD Q-TOF Bruker
COLLISIONENERGY:  
Comment:  DB#=CCMSLIB00000851130; origin=GNPS
Num Peaks:  20
117.03545	20.0
119.04922	10.0
133.06671	20.0
145.0293	1000.0
161.02287	20.0
163.03943	280.0
179.06265	20.0
193.00478	10.0
205.05362	60.0
217.05103	20.0
233.08403	30.0
235.06641	100.0
265.07413	120.0
289.06448	40.0
307.08145	240.0
323.10654	30.0
325.08542	30.0
341.09924	60.0
367.10663	20.0
487.14957	580.0

NAME:  NCGC00168892-03_C30H38O17_beta-D-Glucopyranoside, (1aS,1bS,2S,5aR,6S,6aS)-6-[[6-deoxy-3-O-[(2E)-3-(3,4-dihydroxyphenyl)-1-oxo-2-propen-1-yl]-alpha-L-mannopyranosyl]oxy]-1a,1b,2,5a,6,6a-hexahydro-1a-(hydroxymethyl)oxireno[4,5]cyclopenta[1,2-c]pyran-2-yl
PRECURSORMZ:  669.20362331183
PRECURSORTYPE:  [M-H]-
FORMULA:  C30H38O17
Ontology: Kingdom: Organic compounds;Superclass: Phenylpropanoids and polyketides;Class: Cinnamic acids and derivatives;Subclass: Hydroxycinnamic acids and derivatives
INCHIKEY:  MFIJTASICGGFJA-UHFFFAOYNA-N
SMILES:  CC1OC(OC2C3OC3(CO)C3C2C=COC3OC2OC(CO)C(O)C(O)C2O)C(O)C(OC(=O)C=CC2=CC(O)=C(O)C=C2)C1O
RETENTIONTIME:  
CCS:  257.9063131
IONMODE:  Negative
INSTRUMENTTYPE:  
INSTRUMENT:  Maxis II HD Q-TOF Bruker
COLLISIONENERGY:  
Comment:  DB#=CCMSLIB00000849500; origin=GNPS
Num Peaks:  13
132.02205	20.0
133.02782	100.0
134.0377	10.0
135.04466	110.0
151.03957	10.0
161.02319	850.0
163.03883	70.0
179.03426	40.0
203.03557	20.0
393.1217	10.0
507.1496	20.0
669.20435	1000.0
670.20752	20.0

NAME:  NCGC00380131-01_C22H26O7_7-Hydroxy-7-methyl-8-oxo-3-propyl-5,6,7,8-tetrahydro-1H-isochromen-6-yl 2-hydroxy-4-methoxy-6-methylbenzoate
PRECURSORMZ:  447.16605572483
PRECURSORTYPE:  [M+FA-H]-
FORMULA:  C22H26O7
Ontology: Kingdom: Organic compounds;Superclass: Organoheterocyclic compounds;Class: Azaphilones;
INCHIKEY:  PHCSXGHZIAKXHR-UHFFFAOYNA-N
SMILES:  CCCC1=CC2=C(CO1)C(=O)C(C)(O)C(C2)OC(=O)C1=C(O)C=C(OC)C=C1C
RETENTIONTIME:  
CCS:  -1
IONMODE:  Negative
INSTRUMENTTYPE:  
INSTRUMENT:  Maxis II HD Q-TOF Bruker
COLLISIONENERGY:  
Comment:  DB#=CCMSLIB00000850721; origin=GNPS
Num Peaks:  29
72.0382	40.0
79.19814	20.0
109.06435	30.0
122.28014	50.0
127.07304	20.0
135.04611	90.0
137.06198	730.0
149.05847	50.0
163.07616	20.0
174.95065	20.0
175.11549	20.0
177.0937	230.0
181.04758	1000.0
184.98087	20.0
189.05908	20.0
193.12035	30.0
218.18877	20.0
218.3752	20.0
219.10274	900.0
233.96727	30.0
237.11664	90.0
271.09229	20.0
283.02469	30.0
300.98694	20.0
303.03439	30.0
313.30948	40.0
321.00797	40.0
401.1597	560.0
1809.99365	40.0

NAME:  NCGC00169934-02_C25H32O13_2H-Pyran-4-acetic acid, 2-(beta-D-glucopyranosyloxy)-3,4-dihydro-3-(2-hydroxyethylidene)-5-(methoxycarbonyl)-, 2-(4-hydroxyphenyl)ethyl ester, (2S,3Z,4S)-
PRECURSORMZ:  539.17701463783
PRECURSORTYPE:  [M-H]-
FORMULA:  C25H32O13
Ontology: ;;;
INCHIKEY:  AHTRGGWSBFOEEG-UHFFFAOYNA-N
SMILES:  COC(=O)C1=COC(OC2OC(CO)C(O)C(O)C2O)C(=CCO)C1CC(=O)OCCC1=CC=C(O)C=C1
RETENTIONTIME:  
CCS:  214.5764754
IONMODE:  Negative
INSTRUMENTTYPE:  
INSTRUMENT:  Maxis II HD Q-TOF Bruker
COLLISIONENERGY:  
Comment:  DB#=CCMSLIB00000850234; origin=GNPS
Num Peaks:  49
83.05498	100.0
85.0316	120.0
93.03529	40.0
101.02322	420.0
113.02912	150.0
124.017	70.0
125.01976	40.0
127.03931	170.0
131.05167	60.0
135.04428	140.0
137.02193	230.0
137.06209	230.0
139.00264	230.0
143.03223	80.0
151.04175	80.0
151.28905	80.0
153.01558	130.0
155.03371	120.0
168.04903	60.0
169.05415	80.0
171.02637	50.0
177.01952	70.0
177.05469	70.0
179.02937	140.0
179.05499	40.0
189.01912	40.0
195.06639	270.0
197.04744	100.0
203.03375	70.0
205.04895	140.0
213.07048	170.0
220.02924	40.0
239.05785	100.0
249.04436	40.0
257.06381	70.0
275.09241	550.0
291.08643	1000.0
301.11349	50.0
317.0993	170.0
345.10489	90.0
351.08508	40.0
359.1145	30.0
373.1218	70.0
377.12003	660.0
377.16415	30.0
380.94675	30.0
401.10928	100.0
539.18219	70.0
539.20502	70.0

NAME:  NCGC00381203-01_C31H46N4O7_2H-Pyrido[1,2-a][1,4,7,10]tetraazacyclododecine-1,4,7,10(3H,12H)-tetrone, 3-(7,8-dihydroxy-6-oxooctyl)octahydro-9-(1-methylpropyl)-6-(phenylmethyl)-
PRECURSORMZ:  567.31880870483
PRECURSORTYPE:  [M-H2O-H]-
FORMULA:  C31H46N4O7
Ontology: Kingdom: Organic compounds;Superclass: Organic acids and derivatives;Class: Carboxylic acids and derivatives;Subclass: Amino acids
INCHIKEY:  YSNRSVKJRYQIIA-UHFFFAOYNA-N
SMILES:  CCC(C)C1N=C(O)C(CC2=CC=CC=C2)N=C(O)C(CCCCCC(=O)C(O)CO)N=C(O)C2CCCCN2C1=O
RETENTIONTIME:  
CCS:  -1
IONMODE:  Negative
INSTRUMENTTYPE:  
INSTRUMENT:  Maxis II HD Q-TOF Bruker
COLLISIONENERGY:  
Comment:  DB#=CCMSLIB00000851075; origin=GNPS
Num Peaks:  27
140.0726	110.0
153.07698	80.0
180.13765	80.0
184.11275	150.0
223.13892	190.0
252.17242	100.0
269.40851	90.0
270.99365	80.0
281.00439	110.0
306.19193	70.0
307.22763	60.0
312.00714	110.0
323.47287	80.0
324.19336	320.0
327.05457	160.0
336.99683	80.0
380.99973	50.0
402.9921	110.0
439.22565	50.0
452.24701	60.0
461.01532	110.0
499.23187	140.0
550.77411	60.0
564.75146	30.0
566.59912	30.0
567.31744	1000.0
581.96558	90.0

NAME:  4-methoxy-kaempferol-3-O-hexoside
PRECURSORMZ:  461.10893507583
PRECURSORTYPE:  [M-H]-
FORMULA:  C22H22O11
Ontology: Kingdom: Organic compounds;Superclass: Phenylpropanoids and polyketides;Class: Flavonoids;Subclass: Flavonoid glycosides
INCHIKEY:  MQVRGDZCYDEQML-UHFFFAOYNA-N
SMILES:  COC1=CC=C(C=C1)C1=C(OC2OC(CO)C(O)C(O)C2O)C(=O)C2=C(O)C=C(O)C=C2O1
RETENTIONTIME:  
CCS:  214.4382258
IONMODE:  Negative
INSTRUMENTTYPE:  
INSTRUMENT:  qTof
COLLISIONENERGY:  
Comment:  DB#=CCMSLIB00004678851; origin=GNPS
Num Peaks:  98
128.00508	20.0
145.03902	20.0
147.08643	20.0
149.09807	20.0
163.08528	20.0
164.02798	10.0
166.02461	20.0
171.63846	50.0
179.99828	10.0
184.98688	10.0
187.09975	10.0
192.00818	10.0
198.91499	10.0
204.98148	10.0
207.03001	20.0
207.09952	10.0
214.86575	10.0
227.03371	10.0
230.07281	10.0
231.10109	20.0
235.06693	20.0
248.13237	30.0
249.11041	20.0
255.02844	240.0
255.6862	10.0
256.03192	20.0
266.08221	20.0
268.03827	30.0
269.04489	80.0
271.01419	10.0
271.40106	10.0
272.90366	10.0
283.02338	460.0
283.14566	30.0
283.26559	20.0
284.03363	350.0
284.1488	10.0
285.0379	40.0
285.10086	10.0
287.44247	20.0
289.07547	20.0
297.04315	170.0
297.18753	10.0
298.04733	830.0
298.19446	20.0
298.28442	10.0
298.33121	10.0
298.5448	10.0
298.73273	10.0
299.0556	1000.0
299.23584	30.0
299.31857	10.0
299.42273	10.0
299.54758	10.0
300.05554	230.0
300.19473	10.0
301.04184	50.0
302.05115	10.0
303.39102	10.0
309.06863	20.0
310.58237	20.0
313.05411	20.0
314.03976	10.0
317.07535	40.0
324.00211	10.0
338.04437	10.0
340.10861	10.0
341.06158	30.0
343.03915	20.0
354.05823	20.0
373.75677	10.0
387.01108	20.0
395.07407	20.0
446.08615	550.0
446.2612	20.0
446.38165	20.0
447.09457	60.0
453.27878	10.0
461.11182	990.0
461.36441	20.0
462.01035	10.0
462.11072	230.0
462.28384	30.0
463.11298	40.0
465.19086	10.0
465.53448	10.0
465.80322	10.0
467.2251	20.0
496.06345	20.0
509.92926	10.0
612.18292	10.0
634.31836	10.0
656.18024	30.0
664.03656	20.0
839.0611	10.0
855.74463	10.0
886.67322	20.0
920.81787	20.0

NAME:  NCGC00380890-01_C26H34O9_12H-3,5a-Epoxy-5H-furo[3,4-i]oxepino[4,3-a]xanthen-12-one, 1,2,3,6,7,7a,10,14,14a,14b-decahydro-6-hydroxy-5-(hydroxymethyl)-3,13-dimethoxy-5,7a,9,14b-tetramethyl-
PRECURSORMZ:  489.21300622283
PRECURSORTYPE:  [M-H]-
FORMULA:  C26H34O9
Ontology: Kingdom: Organic compounds;Superclass: Organoheterocyclic compounds;Class: Benzopyrans;
INCHIKEY:  LCDHGZGHZZLGHK-UHFFFAOYNA-N
SMILES:  COC1=C2C(=O)OCC2=C(C)C2=C1CC1C(C)(CC(O)C34OC(CCC13C)(OC)OC4(C)CO)O2
RETENTIONTIME:  
CCS:  -1
IONMODE:  Negative
INSTRUMENTTYPE:  
INSTRUMENT:  Maxis II HD Q-TOF Bruker
COLLISIONENERGY:  
Comment:  DB#=CCMSLIB00000850058; origin=GNPS
Num Peaks:  18
191.03247	50.0
193.04559	20.0
206.06232	20.0
209.04385	10.0
229.64645	20.0
238.04459	10.0
240.27885	20.0
247.03624	10.0
273.07327	20.0
353.18216	10.0
371.2009	20.0
385.17227	20.0
399.23141	20.0
425.19672	10.0
441.55811	10.0
441.60623	20.0
443.20889	1000.0
489.2081	80.0

NAME:  NCGC00380703-01_C29H48ClN5O8_Pyrrolo[1,2-d][1,4,7,10,13,16]oxapentaazacyclononadecine-1,4,7,10,14,17(11H,16H)-hexone, 16-(3-chloro-2-hydroxypropyl)dodecahydro-5,8,9-trimethyl-6-(1-methylethyl)-3-(1-methylpropyl)-
PRECURSORMZ:  674.31734374783
PRECURSORTYPE:  [M+FA-H]-
FORMULA:  C29H48ClN5O8
Ontology: Kingdom: Organic compounds;Superclass: Organic acids and derivatives;Class: Peptidomimetics;Subclass: Depsipeptides
INCHIKEY:  WUTLOXOGFQPKLT-UHFFFAOYNA-N
SMILES:  CCC(C)C1N=C(O)C2CCCN2C(=O)C(CC(O)CCl)OC(=O)CCN=C(O)C(C)N(C)C(=O)C(C(C)C)N(C)C1=O
RETENTIONTIME:  
CCS:  -1
IONMODE:  Negative
INSTRUMENTTYPE:  
INSTRUMENT:  Maxis II HD Q-TOF Bruker
COLLISIONENERGY:  
Comment:  DB#=CCMSLIB00000849629; origin=GNPS
Num Peaks:  39
101.06892	20.0
129.10263	20.0
153.04184	10.0
154.12965	20.0
168.09457	10.0
173.08891	30.0
207.07899	20.0
210.14096	10.0
214.14827	10.0
220.10233	20.0
225.16325	40.0
238.10974	10.0
249.0163	10.0
263.14017	20.0
284.90344	10.0
286.1936	20.0
288.87491	10.0
376.2207	10.0
392.25241	20.0
399.25034	20.0
406.28	30.0
408.20602	10.0
423.26559	20.0
424.29108	40.0
450.27789	20.0
467.29874	10.0
478.30429	10.0
496.31906	50.0
502.29733	20.0
508.31137	20.0
520.32013	20.0
539.26202	10.0
548.32513	20.0
574.31415	10.0
580.04095	20.0
592.33856	1000.0
593.35406	40.0
596.62048	10.0
628.31488	250.0

NAME:  NCGC00380353-01_C15H18O6_Pentaleno[1,6a-c]pyran-9-carboxylic acid, 1,3,4,7,7a,9a-hexahydro-4-hydroxy-4-(hydroxymethyl)-6,7-dimethyl-3-oxo-, (4R,7S,7aR,9aR)-
PRECURSORMZ:  339.10854084783
PRECURSORTYPE:  [M+FA-H]-
FORMULA:  C15H18O6
Ontology: Kingdom: Organic compounds;Superclass: Lipids and lipid;Class: Prenol lipids;Subclass: Terpene lactones
INCHIKEY:  FWDDYLWFBHUEKH-UHFFFAOYNA-N
SMILES:  CC1C2C=C(C3COC(=O)C(O)(CO)C23C=C1C)C(O)=O
RETENTIONTIME:  
CCS:  -1
IONMODE:  Negative
INSTRUMENTTYPE:  
INSTRUMENT:  Maxis II HD Q-TOF Bruker
COLLISIONENERGY:  
Comment:  DB#=CCMSLIB00000850367; origin=GNPS
Num Peaks:  12
135.0847	60.0
145.106	60.0
147.11433	110.0
148.22273	30.0
189.08379	50.0
231.10049	50.0
249.11908	150.0
263.08603	50.0
281.10349	40.0
292.18753	20.0
293.10223	1000.0
294.10602	50.0

NAME:  NCGC00380895-01_C27H36O12_1-Cyclohexene-1-carboxylic acid, 4-[[6-O-[(2E)-3-(4-hydroxy-3,5-dimethoxyphenyl)-1-oxo-2-propen-1-yl]-beta-D-glucopyranosyl]oxy]-2,6,6-trimethyl-
PRECURSORMZ:  551.21340014683
PRECURSORTYPE:  [M-H]-
FORMULA:  C27H36O12
Ontology: Kingdom: Organic compounds;Superclass: Lipids and lipid;Class: Fatty Acyls;Subclass: Fatty acyl glycosides
INCHIKEY:  RNEQSBBQXWZUJN-UHFFFAOYNA-N
SMILES:  COC1=CC(C=CC(=O)OCC2OC(OC3CC(C)=C(C(O)=O)C(C)(C)C3)C(O)C(O)C2O)=CC(OC)=C1O
RETENTIONTIME:  
CCS:  254.4845017
IONMODE:  Negative
INSTRUMENTTYPE:  
INSTRUMENT:  Maxis II HD Q-TOF Bruker
COLLISIONENERGY:  
Comment:  DB#=CCMSLIB00000849845; origin=GNPS
Num Peaks:  59
90.77846	10.0
91.01698	20.0
101.70011	10.0
113.02719	20.0
117.07339	20.0
119.01475	20.0
121.10757	10.0
147.04364	20.0
149.02286	60.0
149.06372	20.0
150.03313	10.0
152.04196	10.0
158.82553	10.0
161.0262	10.0
163.03996	20.0
164.04813	90.0
165.09196	340.0
165.13217	10.0
166.03058	20.0
174.99792	60.0
176.00946	30.0
179.07263	70.0
181.04994	10.0
183.09959	20.0
188.0499	40.0
190.02623	170.0
191.03207	80.0
191.71773	10.0
193.01727	20.0
194.02376	20.0
195.07137	10.0
203.08278	20.0
205.05055	370.0
206.05699	50.0
207.03215	20.0
208.03862	50.0
209.05753	20.0
221.08328	110.0
222.05133	10.0
223.06235	720.0
235.02048	10.0
237.07745	140.0
247.05591	10.0
250.04758	60.0
252.54897	20.0
264.74469	10.0
265.07108	1000.0
277.08295	10.0
281.06625	10.0
295.08102	330.0
298.0961	10.0
311.07797	70.0
319.09235	10.0
325.09082	350.0
367.10486	20.0
371.07977	30.0
385.11734	130.0
533.20941	10.0
551.21625	630.0

NAME:  NCGC00380931-01_C26H42O10_
PRECURSORMZ:  513.27052109983
PRECURSORTYPE:  [M-H]-
FORMULA:  C26H42O10
Ontology: ;;;
INCHIKEY:  YKVWDRYOZQXKSV-UHFFFAOYNA-N
SMILES:  CC1(CCOC2OC(CO)C(O)C(O)C2O)CCC23OC2(C1)C(O)CC1C(C)(CCCC31C)C(O)=O
RETENTIONTIME:  
CCS:  -1
IONMODE:  Negative
INSTRUMENTTYPE:  
INSTRUMENT:  Maxis II HD Q-TOF Bruker
COLLISIONENERGY:  
Comment:  DB#=CCMSLIB00000851433; origin=GNPS
Num Peaks:  9
101.02601	30.0
109.07582	10.0
281.22464	10.0
351.2178	20.0
452.24533	10.0
512.71637	10.0
513.15643	10.0
513.27014	1000.0
513.52789	10.0

NAME:  NCGC00169476-02_C22H28O12_2(3H)-Furanone, 4-[2-[[6-O-[(2E)-3-(3,4-dihydroxyphenyl)-1-oxo-2-propen-1-yl]-beta-D-glucopyranosyl]oxy]-1-methylethyl]dihydro-4-hydroxy-
PRECURSORMZ:  483.15079988983
PRECURSORTYPE:  [M-H]-
FORMULA:  C22H28O12
Ontology: Kingdom: Organic compounds;Superclass: Phenylpropanoids and polyketides;Class: Cinnamic acids and derivatives;Subclass: Hydroxycinnamic acids and derivatives
INCHIKEY:  YNPOIPFNQJKGQJ-UHFFFAOYNA-N
SMILES:  CC(COC1OC(COC(=O)C=CC2=CC(O)=C(O)C=C2)C(O)C(O)C1O)C1(O)COC(=O)C1
RETENTIONTIME:  
CCS:  -1
IONMODE:  Negative
INSTRUMENTTYPE:  
INSTRUMENT:  Maxis II HD Q-TOF Bruker
COLLISIONENERGY:  
Comment:  DB#=CCMSLIB00000850222; origin=GNPS
Num Peaks:  31
100.5024	10.0
108.0254	10.0
113.05582	10.0
115.07216	20.0
132.02812	10.0
133.02878	130.0
135.04547	70.0
143.03926	10.0
160.56216	10.0
161.02386	840.0
177.05431	60.0
178.02765	10.0
179.03386	330.0
180.03368	10.0
199.22194	10.0
203.03049	20.0
221.0444	190.0
233.05743	20.0
235.20569	10.0
245.04124	10.0
251.05623	220.0
261.0834	10.0
264.10873	10.0
265.07156	20.0
281.06467	520.0
341.08981	310.0
464.5022	20.0
465.1434	160.0
483.01169	10.0
483.15082	1000.0
1192.38892	10.0

NAME:  NCGC00169917-02_C16H16O6_4-Hydroxy-2',6-dimethoxy-6'-methyl-3H,4'H-spiro[1-benzofuran-2,1'-cyclohex[2]ene]-3,4'-dione
PRECURSORMZ:  303.08741178283
PRECURSORTYPE:  [M-H]-
FORMULA:  C16H16O6
Ontology: Kingdom: Organic compounds;Superclass: Organoheterocyclic compounds;Class: Benzofurans;
INCHIKEY:  RFVMVHYMAGKNDK-UHFFFAOYNA-N
SMILES:  COC1=CC(O)=C2C(OC3(C(C)CC(=O)C=C3OC)C2=O)=C1
RETENTIONTIME:  
CCS:  -1
IONMODE:  Negative
INSTRUMENTTYPE:  
INSTRUMENT:  Maxis II HD Q-TOF Bruker
COLLISIONENERGY:  
Comment:  DB#=CCMSLIB00000850388; origin=GNPS
Num Peaks:  16
108.02188	50.0
149.01797	30.0
149.73846	40.0
165.01852	50.0
189.06464	40.0
197.03288	50.0
205.04649	240.0
210.01013	60.0
218.05774	50.0
229.04309	40.0
231.29811	10.0
242.04759	30.0
257.04019	40.0
273.04074	100.0
288.06116	180.0
303.08438	1000.0

NAME:  NCGC00380204-01_C26H38O6_Androsta-11,15-diene-14-carboxylic acid, 3,15,19-trihydroxy-4,4,8,12,16-pentamethyl-17-oxo-, methyl ester
PRECURSORMZ:  445.25956249183
PRECURSORTYPE:  [M-H]-
FORMULA:  C26H38O6
Ontology: Kingdom: Organic compounds;Superclass: Lipids and lipid;Class: Steroids and steroid derivatives;Subclass: Oxosteroids
INCHIKEY:  MSEOJWPNMYHKMI-UHFFFAOYNA-N
SMILES:  COC(=O)C12C(O)=C(C)C(=O)C1(C)C(C)=CC1C2(C)CCC2C(C)(C)C(O)CCC12CO
RETENTIONTIME:  
CCS:  -1
IONMODE:  Negative
INSTRUMENTTYPE:  
INSTRUMENT:  Maxis II HD Q-TOF Bruker
COLLISIONENERGY:  
Comment:  DB#=CCMSLIB00000850808; origin=GNPS
Num Peaks:  5
328.17679	10.0
413.22226	20.0
442.99399	10.0
444.29562	20.0
445.25906	1000.0

NAME:  quercetin-3-O-deoxyhexoside
PRECURSORMZ:  447.09328501183
PRECURSORTYPE:  [M-H]-
FORMULA:  C21H20O11
Ontology: ;;;
INCHIKEY:  OXGUCUVFOIWWQJ-UHFFFAOYNA-N
SMILES:  CC1OC(OC2=C(OC3=CC(O)=CC(O)=C3C2=O)C2=CC(O)=C(O)C=C2)C(O)C(O)C1O
RETENTIONTIME:  
CCS:  200.6827075
IONMODE:  Negative
INSTRUMENTTYPE:  
INSTRUMENT:  qTof
COLLISIONENERGY:  
Comment:  DB#=CCMSLIB00004678847; origin=GNPS
Num Peaks:  69
101.0238	10.0
104.57832	10.0
108.0113	20.0
111.00618	30.0
113.05769	20.0
122.04394	10.0
135.00345	10.0
140.94853	10.0
151.00363	50.0
161.04373	20.0
164.07156	20.0
171.10083	20.0
178.9949	30.0
179.08595	20.0
189.05176	10.0
211.03534	30.0
216.02321	10.0
216.47919	20.0
218.96381	20.0
221.05574	10.0
225.13538	20.0
226.05673	20.0
239.04472	10.0
240.03178	20.0
241.21996	10.0
242.00345	10.0
244.03168	10.0
253.04094	10.0
255.02654	60.0
255.15428	10.0
256.03363	40.0
270.01917	10.0
271.02191	110.0
272.0415	10.0
273.03079	20.0
281.32117	10.0
282.86646	10.0
283.02032	20.0
285.02988	30.0
286.0358	40.0
287.12982	30.0
300.02393	1000.0
300.18045	20.0
300.22162	20.0
300.26401	10.0
300.70874	10.0
300.931	10.0
301.03448	520.0
301.28003	10.0
302.03607	70.0
303.03839	40.0
304.90967	10.0
313.03317	10.0
314.04407	70.0
317.04276	20.0
324.18149	20.0
343.07587	20.0
355.03659	30.0
358.56293	20.0
393.81772	10.0
427.45682	10.0
446.18781	10.0
447.08951	120.0
448.09546	20.0
449.08463	10.0
449.22318	30.0
675.30731	10.0
708.81854	10.0
790.77655	10.0

NAME:  NCGC00347541-02_C42H66O15_beta-D-Glucopyranose, 1-O-[(3beta,5xi,9xi,18xi)-3-(beta-D-glucopyranuronosyloxy)-29-hydroxy-28-oxoolean-12-en-28-yl]-
PRECURSORMZ:  809.43289497283
PRECURSORTYPE:  [M-H]-
FORMULA:  C42H66O15
Ontology: ;;;
INCHIKEY:  IDUNGWJLADYQNW-UHFFFAOYNA-N
SMILES:  CC1(CO)CCC2(CCC3(C)C(=CCC4C5(C)CCC(OC6OC(C(O)C(O)C6O)C(O)=O)C(C)(C)C5CCC34C)C2C1)C(=O)OC1OC(CO)C(O)C(O)C1O
RETENTIONTIME:  
CCS:  283.9266068
IONMODE:  Negative
INSTRUMENTTYPE:  
INSTRUMENT:  Maxis II HD Q-TOF Bruker
COLLISIONENERGY:  
Comment:  DB#=CCMSLIB00000849812; origin=GNPS
Num Peaks:  11
75.00943	20.0
85.02924	30.0
113.0244	50.0
175.02679	10.0
471.34909	30.0
585.38202	80.0
629.37006	10.0
647.37976	110.0
689.39642	10.0
809.43524	1000.0
810.43707	150.0

NAME:  NCGC00380574-01_C39H44O18_beta-D-Glucopyranoside, (1aS,1bS,2S,5aR,6S,6aS)-6-[[6-deoxy-3,4-bis-O-[(2E)-3-(4-hydroxyphenyl)-1-oxo-2-propen-1-yl]-alpha-L-mannopyranosyl]oxy]-1a,1b,2,5a,6,6a-hexahydro-1a-(hydroxymethyl)oxireno[4,5]cyclopenta[1,2-c]pyran-2-yl
PRECURSORMZ:  845.25096712483
PRECURSORTYPE:  [M+FA-H]-
FORMULA:  C39H44O18
Ontology: Kingdom: Organic compounds;Superclass: Phenylpropanoids and polyketides;Class: Cinnamic acids and derivatives;Subclass: Hydroxycinnamic acids and derivatives
INCHIKEY:  BRXNFHGWRDJMSF-UHFFFAOYNA-N
SMILES:  CC1OC(OC2C3OC3(CO)C3C2C=COC3OC2OC(CO)C(O)C(O)C2O)C(O)C(OC(=O)C=CC2=CC=C(O)C=C2)C1OC(=O)C=CC1=CC=C(O)C=C1
RETENTIONTIME:  
CCS:  -1
IONMODE:  Negative
INSTRUMENTTYPE:  
INSTRUMENT:  Maxis II HD Q-TOF Bruker
COLLISIONENERGY:  
Comment:  DB#=CCMSLIB00000849541; origin=GNPS
Num Peaks:  19
117.03407	90.0
119.05043	310.0
145.02917	830.0
151.03735	10.0
163.03973	1000.0
164.04211	20.0
187.03746	10.0
249.0806	10.0
291.08719	30.0
359.1138	90.0
377.12497	20.0
455.13461	30.0
523.16034	80.0
635.20258	110.0
636.20142	10.0
637.18738	10.0
653.21045	30.0
799.24725	570.0
800.25238	90.0

NAME:  NCGC00380993-01_C23H28O12_Cyclopenta[c]pyran-4-carboxylic acid, 6-(benzoyloxy)-1-(hexopyranosyloxy)-1,4a,5,6,7,7a-hexahydro-5-hydroxy-7-methyl-
PRECURSORMZ:  495.15079988983
PRECURSORTYPE:  [M-H]-
FORMULA:  C23H28O12
Ontology: Kingdom: Organic compounds;Superclass: Lipids and lipid;Class: Prenol lipids;Subclass: Terpene glycosides
INCHIKEY:  VHNBSWKVDGABEV-UHFFFAOYNA-N
SMILES:  CC1C(OC(=O)C2=CC=CC=C2)C(O)C2C1C(OC1OC(CO)C(O)C(O)C1O)OC=C2C(O)=O
RETENTIONTIME:  
CCS:  -1
IONMODE:  Negative
INSTRUMENTTYPE:  
INSTRUMENT:  Maxis II HD Q-TOF Bruker
COLLISIONENERGY:  
Comment:  DB#=CCMSLIB00000850760; origin=GNPS
Num Peaks:  24
71.0163	10.0
83.01566	10.0
101.02883	20.0
113.02377	20.0
119.03601	30.0
119.45873	30.0
121.02946	270.0
121.067	30.0
123.04547	30.0
131.04947	50.0
143.03383	40.0
149.05745	140.0
153.01697	10.0
161.04643	10.0
167.0715	80.0
175.04128	30.0
179.05586	70.0
193.05267	60.0
211.05954	180.0
289.10803	70.0
333.10059	130.0
373.11832	70.0
495.15009	1000.0
1918.52466	10.0

NAME:  NCGC00169945-03_C21H30O4_4a(2H)-Phenanthrenecarboxylic acid, 1,3,4,9,10,10a-hexahydro-5-hydroxy-6-methoxy-1,1-dimethyl-7-(1-methylethyl)-, (4aR)-
PRECURSORMZ:  345.20713299383
PRECURSORTYPE:  [M-H]-
FORMULA:  C21H30O4
Ontology: Kingdom: Organic compounds;Superclass: Lipids and lipid;Class: Prenol lipids;Subclass: Diterpenoids
INCHIKEY:  QQNSARJGBPMQDI-UHFFFAOYNA-N
SMILES:  COC1=C(C=C2CCC3C(C)(C)CCCC3(C(O)=O)C2=C1O)C(C)C
RETENTIONTIME:  
CCS:  194.8415726
IONMODE:  Negative
INSTRUMENTTYPE:  
INSTRUMENT:  Maxis II HD Q-TOF Bruker
COLLISIONENERGY:  
Comment:  DB#=CCMSLIB00000850625; origin=GNPS
Num Peaks:  9
164.78273	30.0
216.11913	20.0
286.19174	510.0
299.38852	20.0
300.99219	10.0
301.21814	1000.0
345.20816	600.0
361.24121	10.0
392.58957	10.0

NAME:  NCGC00179866-03_C35H56O9_9,19-Cyclolanost-24-en-26-oic acid, 12,15-dihydroxy-3-(pentopyranosyloxy)-, (24E)-
PRECURSORMZ:  665.39063593083
PRECURSORTYPE:  [M+FA-H]-
FORMULA:  C35H56O9
Ontology: Kingdom: Organic compounds;Superclass: Lipids and lipid;Class: Steroids and steroid derivatives;Subclass: Steroidal glycosides
INCHIKEY:  LIFSGPPJRHEFEY-UHFFFAOYNA-N
SMILES:  CC(CCC=C(C)C(O)=O)C1CC(O)C2(C)C3CCC4C5(CC35CC(O)C12C)CCC(OC1OCC(O)C(O)C1O)C4(C)C
RETENTIONTIME:  
CCS:  -1
IONMODE:  Negative
INSTRUMENTTYPE:  
INSTRUMENT:  Maxis II HD Q-TOF Bruker
COLLISIONENERGY:  
Comment:  DB#=CCMSLIB00000849404; origin=GNPS
Num Peaks:  3
131.03455	20.0
619.38525	1000.0
620.39093	20.0

NAME:  NCGC00381118-01_C20H31NO6_Glutamic acid, 1-[5'-hydroxy-2,6'-dimethyl-5-(1-methylethenyl)spiro[cyclopentane-1,3'-[7]oxabicyclo[4.1.0]heptan]-2'-yl] ester
PRECURSORMZ:  426.21334026983
PRECURSORTYPE:  [M+FA-H]-
FORMULA:  C20H31NO6
Ontology: Kingdom: Organic compounds;Superclass: Organic acids and derivatives;Class: Carboxylic acids and derivatives;Subclass: Amino acids
INCHIKEY:  RMFZYEBIQCUWPE-UHFFFAOYNA-N
SMILES:  CC1CCC(C(C)=C)C11CC(O)C2(C)OC2C1OC(=O)C(N)CCC(O)=O
RETENTIONTIME:  
CCS:  -1
IONMODE:  Negative
INSTRUMENTTYPE:  
INSTRUMENT:  Maxis II HD Q-TOF Bruker
COLLISIONENERGY:  
Comment:  DB#=CCMSLIB00000851034; origin=GNPS
Num Peaks:  4
112.33	50.0
128.03572	1000.0
146.04829	30.0
1732.21155	10.0

NAME:  NCGC00380676-01_C24H30O12_(1S,4aS,5R,7S)-1-(beta-D-Glucopyranosyloxy)-4a,5-dihydroxy-7-methyl-1,4a,5,6,7,7a-hexahydrocyclopenta[c]pyran-7-yl (2Z)-3-(4-hydroxyphenyl)acrylate
PRECURSORMZ:  509.16644995383
PRECURSORTYPE:  [M-H]-
FORMULA:  C24H30O12
Ontology: Kingdom: Organic compounds;Superclass: Lipids and lipid;Class: Prenol lipids;Subclass: Terpene glycosides
INCHIKEY:  AZKQDXZMKREFDY-UHFFFAOYNA-N
SMILES:  CC1(CC(O)C2(O)C=COC(OC3OC(CO)C(O)C(O)C3O)C12)OC(=O)C=CC1=CC=C(O)C=C1
RETENTIONTIME:  
CCS:  217.5108928
IONMODE:  Negative
INSTRUMENTTYPE:  
INSTRUMENT:  Maxis II HD Q-TOF Bruker
COLLISIONENERGY:  
Comment:  DB#=CCMSLIB00000851464; origin=GNPS
Num Peaks:  9
117.03549	40.0
119.05117	80.0
139.04024	20.0
145.02911	390.0
163.0396	1000.0
183.06454	40.0
329.11133	20.0
345.1265	20.0
509.16797	420.0

NAME:  NCGC00380230-01_C26H40O9_2,4a,6-Trihydroxy-8-isopropyl-1,1-dimethyl-2,3,4,4a,5,10,11,11a-octahydro-1H-dibenzo[a,d][7]annulen-7-yl beta-D-glucopyranoside
PRECURSORMZ:  495.25995641583
PRECURSORTYPE:  [M-H]-
FORMULA:  C26H40O9
Ontology: Kingdom: Organic compounds;Superclass: Lipids and lipid;Class: Prenol lipids;Subclass: Terpene glycosides
INCHIKEY:  XQWLUDAZDUBMCD-UHFFFAOYNA-N
SMILES:  CC(C)C1=C(OC2OC(CO)C(O)C(O)C2O)C(O)=C2CC3(O)CCC(O)C(C)(C)C3CCC2=C1
RETENTIONTIME:  
CCS:  -1
IONMODE:  Negative
INSTRUMENTTYPE:  
INSTRUMENT:  Maxis II HD Q-TOF Bruker
COLLISIONENERGY:  
Comment:  DB#=CCMSLIB00000849238; origin=GNPS
Num Peaks:  8
80.66535	10.0
107.25439	10.0
167.82394	10.0
168.53748	10.0
179.10593	110.0
315.19714	50.0
333.20636	1000.0
495.25995	440.0

NAME:  NCGC00385224-01_C24H42O12_6-Hydroxy-2,6,10,10-tetramethyl-1-oxaspiro[4.5]dec-8-yl 6-O-[(2R,3R,4R)-3,4-dihydroxy-4-(hydroxymethyl)tetrahydro-2-furanyl]-beta-D-glucopyranoside
PRECURSORMZ:  567.26582933983
PRECURSORTYPE:  [M+FA-H]-
FORMULA:  C24H42O12
Ontology: Kingdom: Organic compounds;Superclass: Organic oxygen compounds;Class: Organooxygen compounds;Subclass: Carbohydrates and carbohydrate conjugates
INCHIKEY:  PXBJHMFLTVPWQM-UHFFFAOYNA-N
SMILES:  CC1CCC2(O1)C(C)(C)CC(CC2(C)O)OC1OC(COC2OCC(O)(CO)C2O)C(O)C(O)C1O
RETENTIONTIME:  
CCS:  -1
IONMODE:  Negative
INSTRUMENTTYPE:  
INSTRUMENT:  Maxis II HD Q-TOF Bruker
COLLISIONENERGY:  
Comment:  DB#=CCMSLIB00000850019; origin=GNPS
Num Peaks:  11
99.01144	10.0
101.02381	20.0
113.02545	30.0
119.03219	10.0
125.02483	10.0
131.03018	10.0
161.0441	40.0
233.06621	20.0
293.09543	20.0
389.2193	140.0
521.25946	1000.0

NAME:  NCGC00380379-01_C29H42O11_
PRECURSORMZ:  565.26543571983
PRECURSORTYPE:  [M-H]-
FORMULA:  C29H42O11
Ontology: ;;;
INCHIKEY:  TZPGGHIYBMWPBI-UHFFFAOYNA-N
SMILES:  CC1(COC2OC(COC(=O)CC(O)=O)C(O)C(O)C2O)CCCC2(C)C(CCC3=CCOC3=O)C(=C)CCC12
RETENTIONTIME:  
CCS:  -1
IONMODE:  Negative
INSTRUMENTTYPE:  
INSTRUMENT:  Maxis II HD Q-TOF Bruker
COLLISIONENERGY:  
Comment:  DB#=CCMSLIB00000849668; origin=GNPS
Num Peaks:  15
114.21246	30.0
143.03491	40.0
159.03932	80.0
161.0433	280.0
290.98846	100.0
312.97757	20.0
317.21146	460.0
350.20724	60.0
359.22244	40.0
371.21973	40.0
461.27902	90.0
479.26334	1000.0
523.25311	30.0
528.99115	50.0
790.36469	20.0

NAME:  NCGC00385738-01_C60H96O30_6-Deoxy-alpha-L-mannopyranosyl-(1->4)-beta-D-glucopyranosyl-(1->6)-[beta-D-glucopyranosyl-(1->2)]-1-O-[(2beta,3beta,5xi,9xi)-3-(beta-D-glucopyranosyloxy)-2,23-dihydroxy-23,28-dioxoolean-12-en-28-yl]-beta-D-glucopyranose
PRECURSORMZ:  1295.59136523883
PRECURSORTYPE:  [M-H]-
FORMULA:  C60H96O30
Ontology: Kingdom: Organic compounds;Superclass: Lipids and lipid;Class: Prenol lipids;Subclass: Terpene glycosides
INCHIKEY:  DBBUWABNIAWDBM-UHFFFAOYNA-N
SMILES:  CC1OC(OC2C(O)C(O)C(OCC3OC(OC(=O)C45CCC(C)(C)CC4C4=CCC6C7(C)CC(O)C(OC8OC(CO)C(O)C(O)C8O)C(C)(C7CCC6(C)C4(C)CC5)C(O)=O)C(OC4OC(CO)C(O)C(O)C4O)C(O)C3O)OC2CO)C(O)C(O)C1O
RETENTIONTIME:  
CCS:  -1
IONMODE:  Negative
INSTRUMENTTYPE:  
INSTRUMENT:  Maxis II HD Q-TOF Bruker
COLLISIONENERGY:  
Comment:  DB#=CCMSLIB00000849392; origin=GNPS
Num Peaks:  4
1295.59277	1000.0
1296.11633	10.0
1296.59253	300.0
1297.60156	20.0

NAME:  NCGC00347814-02_C29H37NO13_
PRECURSORMZ:  652.22469280283
PRECURSORTYPE:  [M+FA-H]-
FORMULA:  C29H37NO13
Ontology: Kingdom: Organic compounds;Superclass: Organoheterocyclic compounds;Class: Isoquinolines and derivatives;Subclass: Benzylisoquinolines
INCHIKEY:  CZSDLEOHLKBTSI-UHFFFAOYNA-N
SMILES:  CC(=O)N1CCC2=C(C1CC1=CC=C(O)C=C1)C(OC1OC(COC3OCC(O)(CO)C3O)C(O)C(O)C1O)=C(O)C=C2
RETENTIONTIME:  
CCS:  -1
IONMODE:  Negative
INSTRUMENTTYPE:  
INSTRUMENT:  Maxis II HD Q-TOF Bruker
COLLISIONENERGY:  
Comment:  DB#=CCMSLIB00000849869; origin=GNPS
Num Peaks:  6
162.05515	120.0
177.04155	10.0
205.06996	20.0
206.08179	30.0
312.12311	1000.0
606.22046	370.0

NAME:  NCGC00381066-01_C26H38O8_1H-Naphtho[1,2-c]pyran-7-propanoic acid, dodecahydro-8-(1-hydroxy-1-methylethyl)-3-(methoxycarbonyl)-3,4a,7,10a-tetramethyl-5-methylene-1,4-dioxo-
PRECURSORMZ:  523.25487073183
PRECURSORTYPE:  [M+FA-H]-
FORMULA:  C26H38O8
Ontology: Kingdom: Organic compounds;Superclass: Lipids and lipid;Class: Steroids and steroid derivatives;Subclass: Steroid acids
INCHIKEY:  JNZBACSLMIGXCA-UHFFFAOYNA-N
SMILES:  COC(=O)C1(C)OC(=O)C2C3(C)CCC(C(C)(C)O)C(C)(CCC(O)=O)C3CC(=C)C2(C)C1=O
RETENTIONTIME:  
CCS:  -1
IONMODE:  Negative
INSTRUMENTTYPE:  
INSTRUMENT:  Maxis II HD Q-TOF Bruker
COLLISIONENERGY:  
Comment:  DB#=CCMSLIB00000850961; origin=GNPS
Num Peaks:  12
283.17093	40.0
357.21405	20.0
359.22427	10.0
361.23981	80.0
383.22607	20.0
401.23395	20.0
415.25253	10.0
417.23074	10.0
433.26001	30.0
435.24332	30.0
477.25027	1000.0
478.2583	10.0

NAME:  NCGC00380833-01_C20H28O5_Gibbane-1,10-dicarboxylic acid, 2-hydroxy-1,4a-dimethyl-8-methylene-, (1alpha,2beta,4aalpha,4bbeta,10beta)-
PRECURSORMZ:  347.18639754983
PRECURSORTYPE:  [M-H]-
FORMULA:  C20H28O5
Ontology: Kingdom: Organic compounds;Superclass: Lipids and lipid;Class: Prenol lipids;Subclass: Diterpenoids
INCHIKEY:  NJEWNTGSXKRWKA-UHFFFAOYNA-N
SMILES:  [H]C12CC3(CC1=C)C(C1C(C)(CCC(O)C1(C)C(O)=O)C3CC2)C(O)=O
RETENTIONTIME:  
CCS:  186.0926062
IONMODE:  Negative
INSTRUMENTTYPE:  
INSTRUMENT:  Maxis II HD Q-TOF Bruker
COLLISIONENERGY:  
Comment:  DB#=CCMSLIB00000851223; origin=GNPS
Num Peaks:  7
165.02473	30.0
187.10945	10.0
267.17773	10.0
273.15326	20.0
303.19568	80.0
329.1774	50.0
347.18375	1000.0

NAME:  NCGC00385015-01_C27H32O15_2H-Pyran-4-acetic acid, 5-carboxy-2-(beta-D-glucopyranosyloxy)-3,4-dihydro-3-[2-[[(2E)-3-(4-hydroxy-3-methoxyphenyl)-1-oxo-2-propen-1-yl]oxy]ethylidene]-, alpha-methyl ester, (2S,3Z,4S)-
PRECURSORMZ:  633.12272552576
PRECURSORTYPE:  [M+K-2H]-
FORMULA:  C27H32O15
Ontology: ;;;
INCHIKEY:  HWTKLHMQRXNNDR-UHFFFAOYNA-N
SMILES:  COC(=O)CC1C(=CCOC(=O)C=CC2=CC(OC)=C(O)C=C2)C(OC2OC(CO)C(O)C(O)C2O)OC=C1C(O)=O
RETENTIONTIME:  
CCS:  -1
IONMODE:  Negative
INSTRUMENTTYPE:  
INSTRUMENT:  Maxis II HD Q-TOF Bruker
COLLISIONENERGY:  
Comment:  DB#=CCMSLIB00000850598; origin=GNPS
Num Peaks:  61
88.42242	40.0
109.9531	10.0
116.63974	30.0
121.02865	60.0
123.04671	100.0
127.03472	20.0
159.04367	60.0
162.03738	40.0
163.04007	190.0
167.03593	30.0
175.03648	20.0
177.05664	20.0
179.07179	20.0
181.04553	30.0
185.02373	160.0
195.06938	70.0
205.05339	30.0
209.06033	20.0
217.05046	10.0
223.0751	10.0
229.01718	40.0
237.08083	40.0
239.07826	60.0
240.10225	30.0
245.04193	40.0
247.02856	30.0
249.01083	10.0
255.06543	10.0
257.04633	20.0
261.05081	20.0
263.07144	60.0
265.03387	20.0
267.06512	100.0
281.08261	30.0
287.06427	30.0
289.03781	10.0
291.0477	20.0
295.90244	20.0
297.1059	20.0
303.06238	30.0
305.07593	40.0
307.0592	20.0
311.09372	20.0
319.09439	40.0
331.06186	20.0
334.07108	20.0
341.1059	50.0
342.11389	20.0
347.0694	40.0
349.07355	40.0
363.08228	20.0
391.06879	40.0
407.07254	60.0
409.08759	10.0
423.11017	50.0
425.0835	30.0
514.12604	20.0
541.04327	20.0
585.90167	10.0
587.14282	1000.0
588.37976	20.0

NAME:  NCGC00381187-01_C23H20N4O5_(2S,4R,9a'S)-1'-Hydroxy-2',2'-dimethyl-4-(4-oxo-3(4H)-quinazolinyl)-1',9a'-dihydro-3H-spiro[furan-2,9'-imidazo[1,2-a]indole]-3',5(2'H,4H)-dione
PRECURSORMZ:  431.13609330783
PRECURSORTYPE:  [M-H]-
FORMULA:  C23H20N4O5
Ontology: Kingdom: Organic compounds;Superclass: Organic acids and derivatives;Class: Carboxylic acids and derivatives;Subclass: Amino acids
INCHIKEY:  NRWLZYIHXSJKCU-UHFFFAOYNA-N
SMILES:  CC1(C)N(O)C2N(C1=O)C1=CC=CC=C1C21CC(N2C=NC3=CC=CC=C3C2=O)C(=O)O1
RETENTIONTIME:  
CCS:  211.2457409
IONMODE:  Negative
INSTRUMENTTYPE:  
INSTRUMENT:  Maxis II HD Q-TOF Bruker
COLLISIONENERGY:  
Comment:  DB#=CCMSLIB00000850432; origin=GNPS
Num Peaks:  28
125.02307	20.0
129.0519	20.0
131.03632	30.0
140.0246	30.0
140.04591	40.0
142.06367	20.0
145.04068	1000.0
159.05417	40.0
169.54698	20.0
171.09166	110.0
172.04414	20.0
185.04588	30.0
186.05948	40.0
200.855	20.0
201.81427	10.0
203.04819	10.0
213.0976	50.0
225.06378	20.0
226.07463	20.0
226.09251	20.0
241.11882	30.0
285.09109	20.0
286.09619	10.0
287.10364	60.0
343.15634	20.0
366.23193	10.0
401.14291	30.0
431.13385	10.0

NAME:  NCGC00381279-01_C46H74O17_(3beta,5xi,9xi)-23-Hydroxy-16-oxo-13,28-epoxyoleanan-3-yl beta-D-xylopyranosyl-(1->2)-beta-D-glucopyranosyl-(1->4)-alpha-L-arabinopyranoside
PRECURSORMZ:  943.49080347083
PRECURSORTYPE:  [M+FA-H]-
FORMULA:  C46H74O17
Ontology: Kingdom: Organic compounds;Superclass: Lipids and lipid;Class: Prenol lipids;Subclass: Triterpenoids
INCHIKEY:  IYIIGIDPFTYYCU-UHFFFAOYNA-N
SMILES:  CC1(C)CCC23COC4(CCC5C6(C)CCC(OC7OCC(OC8OC(CO)C(O)C(O)C8OC8OCC(O)C(O)C8O)C(O)C7O)C(C)(CO)C6CCC5(C)C4(C)CC2=O)C3C1
RETENTIONTIME:  
CCS:  -1
IONMODE:  Negative
INSTRUMENTTYPE:  
INSTRUMENT:  Maxis II HD Q-TOF Bruker
COLLISIONENERGY:  
Comment:  DB#=CCMSLIB00000850577; origin=GNPS
Num Peaks:  19
85.03011	20.0
89.02438	30.0
101.02443	50.0
113.02383	70.0
119.03445	10.0
131.03477	100.0
143.03496	20.0
149.04367	50.0
159.02937	20.0
161.04527	90.0
191.05441	40.0
471.34665	30.0
603.39233	240.0
604.3927	30.0
765.44366	470.0
766.45062	100.0
897.48694	1000.0
898.49078	220.0
899.48254	10.0

NAME:  NCGC00381251-01_C27H36O6_Benzoic acid, 4-hydroxy-, 1,2,3,3a,4,5,8,8a-octahydro-3-hydroxy-6,8a-dimethyl-3-(1-methylethyl)-8-[[(2E)-2-methyl-1-oxo-2-buten-1-yl]oxy]-4-azulenyl ester
PRECURSORMZ:  455.24391242683
PRECURSORTYPE:  [M-H]-
FORMULA:  C27H36O6
Ontology: Kingdom: Organic compounds;Superclass: Lipids and lipid;Class: Prenol lipids;Subclass: Sesquiterpenoids
INCHIKEY:  NUXKLJINNAOFAH-UHFFFAOYNA-N
SMILES:  CC=C(C)C(=O)OC1C=C(C)CC(OC(=O)C2=CC=C(O)C=C2)C2C1(C)CCC2(O)C(C)C
RETENTIONTIME:  
CCS:  219.6205469
IONMODE:  Negative
INSTRUMENTTYPE:  
INSTRUMENT:  Maxis II HD Q-TOF Bruker
COLLISIONENERGY:  
Comment:  DB#=CCMSLIB00000851448; origin=GNPS
Num Peaks:  15
92.02911	20.0
93.03387	60.0
99.0456	10.0
135.75075	10.0
136.01709	60.0
137.02455	310.0
217.15788	40.0
229.58925	10.0
299.04007	10.0
355.1918	530.0
415.59006	10.0
415.85938	10.0
447.48434	20.0
455.24664	1000.0
1502.26758	20.0

NAME:  NCGC00380653-01_C25H33NO6_(2R,2'R,4a'S,6'S,8a'S)-4,6'-Dihydroxy-2',5',5',8a'-tetramethyl-6-oxo-3,3',4',4a',5',6,6',7,7',8,8',8a'-dodecahydro-2'H-spiro[furo[2,3-e]isoindole-2,1'-naphthalen]-7'-yl acetate
PRECURSORMZ:  488.22899033483
PRECURSORTYPE:  [M+FA-H]-
FORMULA:  C25H33NO6
Ontology: Kingdom: Organic compounds;Superclass: Organoheterocyclic compounds;Class: Isoindoles and derivatives;Subclass: Isoindoles
INCHIKEY:  MLWSQMMSROWDTI-UHFFFAOYNA-N
SMILES:  CC1CCC2C(C)(C)C(O)C(CC2(C)C11CC2=C(O)C=C3C(O)=NCC3=C2O1)OC(C)=O
RETENTIONTIME:  
CCS:  -1
IONMODE:  Negative
INSTRUMENTTYPE:  
INSTRUMENT:  Maxis II HD Q-TOF Bruker
COLLISIONENERGY:  
Comment:  DB#=CCMSLIB00000850259; origin=GNPS
Num Peaks:  7
148.03993	10.0
176.03526	20.0
177.04276	40.0
209.03268	10.0
382.20389	100.0
400.21033	20.0
442.22473	1000.0

NAME:  NCGC00169132-02_C33H44O8_(4alpha,5alpha,6beta,8alpha,9beta,13alpha,14beta,16beta,17Z)-6,16-Diacetoxy-4,8,14-trimethyl-3,7-dioxo-18-norcholesta-1,17,24-trien-21-oic acid
PRECURSORMZ:  613.30182092483
PRECURSORTYPE:  [M+FA-H]-
FORMULA:  C33H44O8
Ontology: Kingdom: Organic compounds;Superclass: Lipids and lipid;Class: Steroids and steroid derivatives;Subclass: Steroid esters
INCHIKEY:  MDFZYGLOIJNNRM-UHFFFAOYNA-N
SMILES:  CC1C2C(OC(C)=O)C(=O)C3(C)C(CCC4C(C(CC34C)OC(C)=O)=C(CCC=C(C)C)C(O)=O)C2(C)C=CC1=O
RETENTIONTIME:  
CCS:  -1
IONMODE:  Negative
INSTRUMENTTYPE:  
INSTRUMENT:  Maxis II HD Q-TOF Bruker
COLLISIONENERGY:  
Comment:  DB#=CCMSLIB00000849428; origin=GNPS
Num Peaks:  78
113.06912	10.0
118.11189	10.0
119.05763	10.0
121.06384	80.0
131.08308	10.0
135.08034	110.0
139.11127	50.0
144.05542	10.0
151.07501	20.0
153.09175	30.0
160.9837	10.0
161.05763	40.0
161.09708	10.0
171.11221	20.0
173.13036	30.0
177.3103	10.0
179.06407	10.0
185.13516	10.0
187.07417	20.0
188.08345	30.0
189.11703	10.0
191.10901	30.0
199.14903	60.0
201.08984	30.0
202.10909	10.0
203.06633	10.0
203.1037	10.0
213.16818	10.0
217.1235	790.0
218.13484	20.0
219.09998	10.0
221.11301	20.0
231.1423	10.0
239.17937	30.0
247.16943	20.0
269.16946	10.0
279.18213	20.0
281.18942	50.0
309.18216	40.0
311.20496	30.0
320.17844	20.0
323.1665	80.0
324.17456	10.0
325.20993	20.0
335.19891	40.0
337.19308	20.0
341.17371	50.0
341.22913	10.0
345.19009	10.0
347.23822	20.0
367.24222	10.0
369.20276	30.0
369.2417	20.0
373.21964	20.0
379.21014	10.0
381.20547	40.0
388.2421	150.0
391.22266	10.0
402.25095	30.0
403.26297	870.0
404.25644	10.0
419.26736	10.0
421.27197	110.0
435.24948	20.0
439.29025	10.0
441.22388	30.0
447.2562	110.0
451.23718	10.0
463.2858	170.0
465.25485	30.0
481.29456	300.0
507.27484	1000.0
508.28625	10.0
523.30774	70.0
523.39099	10.0
525.28583	330.0
567.2962	910.0
568.30469	30.0

NAME:  NCGC00380358-01_C22H24O7_Benzoic acid, 2-hydroxy-4-methoxy-6-methyl-, 5,6,7,8-tetrahydro-7-hydroxy-7-methyl-8-oxo-3-[(1E)-1-propen-1-yl]-1H-2-benzopyran-6-yl ester
PRECURSORMZ:  399.14492666083
PRECURSORTYPE:  [M-H]-
FORMULA:  C22H24O7
Ontology: Kingdom: Organic compounds;Superclass: Organoheterocyclic compounds;Class: Azaphilones;
INCHIKEY:  VNQRSFQBEKLVHZ-UHFFFAOYNA-N
SMILES:  COC1=CC(O)=C(C(=O)OC2CC3=C(COC(C=CC)=C3)C(=O)C2(C)O)C(C)=C1
RETENTIONTIME:  
CCS:  -1
IONMODE:  Negative
INSTRUMENTTYPE:  
INSTRUMENT:  Maxis II HD Q-TOF Bruker
COLLISIONENERGY:  
Comment:  DB#=CCMSLIB00000849644; origin=GNPS
Num Peaks:  32
83.04798	40.0
84.77166	10.0
84.95956	20.0
106.0499	20.0
107.04919	90.0
127.84029	30.0
133.03137	40.0
135.04353	420.0
136.0509	90.0
137.05789	190.0
137.09279	40.0
145.02777	30.0
147.07994	20.0
149.06065	170.0
149.09868	130.0
150.07835	20.0
159.04575	30.0
161.05223	30.0
163.0432	20.0
163.06647	40.0
173.09671	30.0
174.07094	40.0
175.07539	210.0
180.04353	350.0
181.05249	180.0
187.07397	20.0
189.09196	160.0
191.11517	40.0
202.06354	20.0
216.75623	40.0
217.08562	1000.0
265.91394	20.0

NAME:  NCGC00385641-01_C53H84O24_beta-D-Glucopyranose, O-beta-D-glucopyranosyl-(1->3)-O-[beta-D-glucopyranosyl-(1->6)]-1-O-[(3beta,5xi,9xi)-23-hydroxy-23,28-dioxo-3-(beta-D-xylopyranosyloxy)olean-12-en-28-yl]-
PRECURSORMZ:  1149.53345613283
PRECURSORTYPE:  [M+FA-H]-
FORMULA:  C53H84O24
Ontology: Kingdom: Organic compounds;Superclass: Lipids and lipid;Class: Prenol lipids;Subclass: Terpene glycosides
INCHIKEY:  AQOMLMMSAVDODV-UHFFFAOYNA-N
SMILES:  CC1(C)CCC2(CCC3(C)C(=CCC4C5(C)CCC(OC6OCC(O)C(O)C6O)C(C)(C5CCC34C)C(O)=O)C2C1)C(=O)OC1OC(COC2OC(CO)C(O)C(O)C2O)C(O)C(OC2OC(CO)C(O)C(O)C2O)C1O
RETENTIONTIME:  
CCS:  -1
IONMODE:  Negative
INSTRUMENTTYPE:  
INSTRUMENT:  Maxis II HD Q-TOF Bruker
COLLISIONENERGY:  
Comment:  DB#=CCMSLIB00000849214; origin=GNPS
Num Peaks:  28
89.02448	20.0
101.02498	10.0
113.02397	20.0
119.03593	20.0
125.02422	20.0
131.03584	20.0
143.0343	10.0
149.04468	20.0
161.04536	30.0
179.0567	50.0
221.06708	30.0
305.08765	50.0
323.09979	30.0
423.32758	160.0
424.33273	20.0
485.15317	170.0
486.15399	20.0
617.37177	1000.0
618.37482	170.0
631.38239	10.0
683.38507	10.0
701.39185	50.0
702.40332	10.0
923.46808	110.0
924.47479	30.0
1103.52808	220.0
1104.53198	70.0
1105.5376	10.0

NAME:  NCGC00381237-01_C20H26O7_Butanoic acid, 2-methyl-, (3aS,6R,7S,8S,8aR)-octahydro-7-hydroxy-6-methyl-3-methylene-2,5-dioxo-7-[(2E)-1-oxo-2-buten-1-yl]-2H-cyclohepta[b]furan-8-yl ester
PRECURSORMZ:  423.16605572483
PRECURSORTYPE:  [M+FA-H]-
FORMULA:  C20H26O7
Ontology: Kingdom: Organic compounds;Superclass: Lipids and lipid;Class: Prenol lipids;Subclass: Terpene lactones
INCHIKEY:  DFGOIVFBKDWNBI-UHFFFAOYNA-N
SMILES:  CCC(C)C(=O)OC1C2OC(=O)C(=C)C2CC(=O)C(C)C1(O)C(=O)C=CC
RETENTIONTIME:  
CCS:  -1
IONMODE:  Negative
INSTRUMENTTYPE:  
INSTRUMENT:  Maxis II HD Q-TOF Bruker
COLLISIONENERGY:  
Comment:  DB#=CCMSLIB00000851331; origin=GNPS
Num Peaks:  45
85.0277	50.0
101.06361	320.0
102.1992	20.0
123.04189	70.0
133.06715	30.0
135.04376	50.0
135.08023	120.0
137.06104	90.0
137.09142	40.0
138.03874	40.0
139.04001	100.0
147.07727	30.0
149.05997	330.0
159.04272	20.0
161.06277	30.0
162.0663	50.0
163.07732	480.0
165.05605	30.0
170.07021	50.0
175.07806	140.0
181.09406	50.0
183.10577	60.0
185.11049	80.0
187.1132	220.0
190.06406	80.0
193.05037	340.0
193.08711	30.0
201.05257	50.0
201.09047	40.0
203.10797	250.0
205.08772	50.0
207.14214	50.0
213.08575	40.0
215.07082	50.0
222.06711	60.0
229.08614	70.0
231.10114	1000.0
244.18698	50.0
249.11552	70.0
275.09216	420.0
319.00186	30.0
333.17166	40.0
336.11487	30.0
359.14844	40.0
377.16513	120.0

NAME:  NCGC00180568-03_C36H58O11_1-O-[(2alpha,3beta,5xi,6beta,9xi,18xi)-2,3,6,23-Tetrahydroxy-28-oxoolean-12-en-28-yl]-beta-D-glucopyranose
PRECURSORMZ:  711.39611523583
PRECURSORTYPE:  [M+FA-H]-
FORMULA:  C36H58O11
Ontology: Kingdom: Organic compounds;Superclass: Lipids and lipid;Class: Prenol lipids;Subclass: Terpene glycosides
INCHIKEY:  DZVIFFMYEULLBY-UHFFFAOYNA-N
SMILES:  CC1(C)CCC2(CCC3(C)C(=CCC4C5(C)CC(O)C(O)C(C)(CO)C5C(O)CC34C)C2C1)C(=O)OC1OC(CO)C(O)C(O)C1O
RETENTIONTIME:  
CCS:  -1
IONMODE:  Negative
INSTRUMENTTYPE:  
INSTRUMENT:  Maxis II HD Q-TOF Bruker
COLLISIONENERGY:  
Comment:  DB#=CCMSLIB00000850520; origin=GNPS
Num Peaks:  5
207.0536	20.0
503.33664	1000.0
504.34497	30.0
711.39764	160.0
712.40106	20.0

NAME:  Pesticide3_Hexaflumuron_C16H8Cl2F6N2O3_
PRECURSORMZ:  458.97434004783
PRECURSORTYPE:  [M-H]-
FORMULA:  C16H8Cl2F6N2O3
Ontology: Kingdom: Organic compounds;Superclass: Benzenoids;Class: Benzene and substituted derivatives;Subclass: N
INCHIKEY:  RGNPBRKPHBKNKX-UHFFFAOYSA-N
SMILES:  FC(F)C(F)(F)OC1=C(Cl)C=C(NC(=O)NC(=O)C2=C(F)C=CC=C2F)C=C1Cl
RETENTIONTIME:  
CCS:  169.6137684
IONMODE:  Negative
INSTRUMENTTYPE:  
INSTRUMENT:  Maxis HD qTOF
COLLISIONENERGY:  
Comment:  DB#=CCMSLIB00001058291; origin=GNPS
Num Peaks:  35
96.99027	40.0
113.0197	30.0
156.02185	40.0
164.26768	10.0
166.01016	10.0
174.96013	570.0
185.95036	20.0
197.45514	20.0
199.95328	30.0
203.93556	20.0
213.44937	10.0
235.0197	20.0
255.95604	80.0
257.99182	20.0
261.92917	30.0
275.96307	890.0
284.9866	30.0
291.00574	30.0
293.97302	30.0
294.95865	20.0
295.27472	50.0
300.95581	170.0
301.95306	50.0
301.99057	80.0
320.96246	20.0
327.0033	20.0
337.96606	10.0
338.95395	30.0
395.95187	60.0
402.99304	130.0
414.93787	10.0
422.99393	70.0
438.96774	1000.0
442.23343	10.0
458.97141	10.0

NAME:  NCGC00381003-01_C48H78O17_(3beta,5xi,9xi,18xi)-22-Hydroxyolean-12-en-3-yl 6-deoxy-alpha-L-mannopyranosyl-(1->2)hexopyranosyl-(1->2)-beta-D-glucopyranosiduronic acid
PRECURSORMZ:  925.51662459983
PRECURSORTYPE:  [M-H]-
FORMULA:  C48H78O17
Ontology: Kingdom: Organic compounds;Superclass: Lipids and lipid;Class: Prenol lipids;Subclass: Terpene glycosides
INCHIKEY:  ISTWCKNDZOSMPU-UHFFFAOYNA-N
SMILES:  CC1OC(OC2C(O)C(O)C(CO)OC2OC2C(O)C(O)C(OC2OC2CCC3(C)C(CCC4(C)C3CC=C3C5CC(C)(C)CC(O)C5(C)CCC43C)C2(C)C)C(O)=O)C(O)C(O)C1O
RETENTIONTIME:  
CCS:  296.554599
IONMODE:  Negative
INSTRUMENTTYPE:  
INSTRUMENT:  Maxis II HD Q-TOF Bruker
COLLISIONENERGY:  
Comment:  DB#=CCMSLIB00000851262; origin=GNPS
Num Peaks:  22
85.03127	30.0
89.02467	10.0
99.00764	30.0
101.02358	30.0
113.02293	60.0
119.03616	10.0
131.03635	30.0
143.03444	50.0
145.04811	10.0
157.01482	20.0
161.04596	20.0
163.06075	40.0
205.07127	90.0
247.08246	20.0
307.10571	10.0
439.35422	30.0
459.38269	10.0
509.39645	40.0
599.39594	20.0
907.5061	30.0
925.51801	1000.0
926.52045	250.0

NAME:  NCGC00380365-01_C19H28O13_4-Hydroxy-3,5-dimethoxyphenyl 6-O-[(2S,3R,4R)-3,4-dihydroxy-4-(hydroxymethyl)tetrahydro-2-furanyl]-beta-D-glucopyranoside
PRECURSORMZ:  509.15119350983
PRECURSORTYPE:  [M+FA-H]-
FORMULA:  C19H28O13
Ontology: Kingdom: Organic compounds;Superclass: Organic oxygen compounds;Class: Organooxygen compounds;Subclass: Carbohydrates and carbohydrate conjugates
INCHIKEY:  BPSJMBKZSUTYNF-UHFFFAOYNA-N
SMILES:  COC1=CC(OC2OC(COC3OCC(O)(CO)C3O)C(O)C(O)C2O)=CC(OC)=C1O
RETENTIONTIME:  
CCS:  -1
IONMODE:  Negative
INSTRUMENTTYPE:  
INSTRUMENT:  Maxis II HD Q-TOF Bruker
COLLISIONENERGY:  
Comment:  DB#=CCMSLIB00000849652; origin=GNPS
Num Peaks:  38
113.02297	40.0
115.04234	50.0
120.40109	30.0
125.02357	360.0
127.03648	40.0
131.03001	40.0
139.00558	80.0
143.03696	80.0
143.97964	10.0
144.36603	40.0
149.04477	130.0
152.01213	100.0
153.01935	360.0
154.02745	150.0
155.03322	20.0
161.04211	20.0
167.0312	30.0
168.04387	110.0
169.04979	150.0
173.0407	90.0
179.03169	40.0
181.00859	30.0
191.05424	250.0
197.05153	40.0
211.05478	50.0
218.99501	10.0
221.04843	30.0
226.77698	20.0
233.06607	820.0
263.83365	30.0
293.08734	900.0
297.56915	20.0
323.09274	90.0
431.1236	30.0
463.1481	1000.0
463.25586	30.0
466.8902	20.0
1694.09509	60.0

NAME:  NCGC00347623-02_C36H56O14_Card-20(22)-enolide, 3-[[(1R)-4-O-(6-deoxy-3-O-methylhexopyranosyl)hexopyranosyl]oxy]-1,14-dihydroxy-, (1beta,3beta,8xi,9xi)-
PRECURSORMZ:  757.36520903083
PRECURSORTYPE:  [M+FA-H]-
FORMULA:  C36H56O14
Ontology: Kingdom: Organic compounds;Superclass: Lipids and lipid;Class: Steroids and steroid derivatives;Subclass: Steroid lactones
INCHIKEY:  DQIYJLQYJNLYLJ-UHFFFAOYNA-N
SMILES:  COC1C(O)C(C)OC(OC2C(CO)OC(OC3CC(O)C4(C)C(CCC5C4CCC4(C)C(CCC54O)C4=CC(=O)OC4)C3)C(O)C2O)C1O
RETENTIONTIME:  
CCS:  -1
IONMODE:  Negative
INSTRUMENTTYPE:  
INSTRUMENT:  Maxis II HD Q-TOF Bruker
COLLISIONENERGY:  
Comment:  DB#=CCMSLIB00000849347; origin=GNPS
Num Peaks:  44
83.01187	10.0
85.02828	10.0
93.30813	10.0
99.01129	20.0
100.01148	20.0
101.02164	40.0
113.02541	110.0
115.04128	30.0
127.0397	20.0
131.03355	20.0
143.03201	30.0
145.02896	20.0
159.02972	30.0
161.0466	390.0
169.05058	20.0
179.05377	160.0
199.06052	10.0
245.06436	50.0
267.16916	20.0
277.10669	20.0
315.21991	10.0
327.23468	50.0
345.24344	60.0
362.17636	10.0
369.20874	10.0
371.22412	10.0
389.23172	380.0
390.23306	10.0
422.86075	10.0
445.29431	20.0
517.18207	20.0
518.28217	10.0
549.30603	720.0
549.77209	20.0
550.3089	60.0
619.09521	10.0
625.46008	20.0
711.2486	10.0
711.36188	990.0
712.36713	140.0
755.37061	10.0
757.36621	1000.0
758.37183	120.0
1343.96082	20.0

NAME:  NCGC00380639-01_C38H62O10_
PRECURSORMZ:  723.43250074383
PRECURSORTYPE:  [M+FA-H]-
FORMULA:  C38H62O10
Ontology: Kingdom: Organic compounds;Superclass: Lipids and lipid;Class: Prenol lipids;Subclass: Triterpenoids
INCHIKEY:  IFFDZLRWLNUFOX-UHFFFAOYNA-N
SMILES:  CC(C)C1C(O)C(O)C2C1(C)CCC1(C)C3CCC4C(C)(C)C(OC5OC(CO)C(O)C(O)C5O)C(CC4(C)C3=CCC21C)OC(C)=O
RETENTIONTIME:  
CCS:  -1
IONMODE:  Negative
INSTRUMENTTYPE:  
INSTRUMENT:  Maxis II HD Q-TOF Bruker
COLLISIONENERGY:  
Comment:  DB#=CCMSLIB00000850865; origin=GNPS
Num Peaks:  16
113.02339	100.0
161.04646	200.0
220.67848	80.0
246.02341	60.0
279.23102	50.0
329.35742	40.0
343.00806	90.0
456.99142	70.0
473.36319	140.0
519.20166	170.0
635.41132	380.0
677.45007	60.0
723.43042	1000.0
724.38977	120.0
724.43555	100.0
755.69977	40.0

NAME:  Pesticide5_Ethiprole_C13H9Cl2F3N4OS_1H-Pyrazole-3-carbonitrile, 5-amino-1-[2,6-dichloro-4-(trifluoromethyl)phenyl]-4-(ethylsulfinyl)-
PRECURSORMZ:  394.97534554783
PRECURSORTYPE:  [M-H]-
FORMULA:  C13H9Cl2F3N4OS
Ontology: Kingdom: Organic compounds;Superclass: Organoheterocyclic compounds;Class: Azoles;Subclass: Pyrazoles
INCHIKEY:  FNELVJVBIYMIMC-UHFFFAOYNA-N
SMILES:  CCS(=O)C1=C(N)N(N=C1C#N)C1=C(Cl)C=C(C=C1Cl)C(F)(F)F
RETENTIONTIME:  
CCS:  171.0328183
IONMODE:  Negative
INSTRUMENTTYPE:  
INSTRUMENT:  Q-Exactive Plus Orbitrap Res 70k
COLLISIONENERGY:  
Comment:  DB#=CCMSLIB00001058442; origin=GNPS
Num Peaks:  27
150.00385	30.0
163.0119	30.0
170.01007	170.0
182.01003	70.0
183.01791	400.0
217.98698	310.0
218.99483	60.0
233.98132	50.0
243.98953	120.0
245.98166	20.0
246.98946	40.0
249.95863	970.0
253.98677	20.0
261.95853	380.0
267.98962	70.0
271.98489	20.0
277.95386	410.0
278.9621	30.0
281.99295	70.0
283.00082	20.0
287.96237	50.0
303.95746	30.0
313.96478	290.0
317.96936	110.0
329.96075	1000.0
330.96793	850.0
365.93625	20.0

NAME:  NCGC00381237-01_C20H26O7_Butanoic acid, 2-methyl-, (3aS,6R,7S,8S,8aR)-octahydro-7-hydroxy-6-methyl-3-methylene-2,5-dioxo-7-[(2E)-1-oxo-2-buten-1-yl]-2H-cyclohepta[b]furan-8-yl ester
PRECURSORMZ:  377.16057672483
PRECURSORTYPE:  [M-H]-
FORMULA:  C20H26O7
Ontology: Kingdom: Organic compounds;Superclass: Lipids and lipid;Class: Prenol lipids;Subclass: Terpene lactones
INCHIKEY:  DFGOIVFBKDWNBI-UHFFFAOYNA-N
SMILES:  CCC(C)C(=O)OC1C2OC(=O)C(=C)C2CC(=O)C(C)C1(O)C(=O)C=CC
RETENTIONTIME:  
CCS:  198.9062359
IONMODE:  Negative
INSTRUMENTTYPE:  
INSTRUMENT:  Maxis II HD Q-TOF Bruker
COLLISIONENERGY:  
Comment:  DB#=CCMSLIB00000851327; origin=GNPS
Num Peaks:  38
72.81986	170.0
91.30067	280.0
97.06882	110.0
101.06215	160.0
109.07302	160.0
123.04631	360.0
123.078	90.0
137.026	190.0
137.05847	160.0
144.05858	60.0
147.08057	120.0
148.37691	110.0
148.71193	100.0
149.06406	150.0
151.08224	190.0
157.07797	200.0
158.06483	170.0
159.04742	340.0
161.06566	130.0
161.093	100.0
163.07452	690.0
165.02083	90.0
165.0544	110.0
175.03535	90.0
175.07574	130.0
179.0704	180.0
187.11594	160.0
189.08929	90.0
192.03806	160.0
193.04657	170.0
203.11003	230.0
203.13754	130.0
207.06427	50.0
207.09653	150.0
213.09045	160.0
231.10379	1000.0
251.05679	130.0
377.16367	120.0

NAME:  NCGC00380817-01_C15H20O9_
PRECURSORMZ:  343.10345577183
PRECURSORTYPE:  [M-H]-
FORMULA:  C15H20O9
Ontology: Kingdom: Organic compounds;Superclass: Organic oxygen compounds;Class: Organooxygen compounds;Subclass: Carbohydrates and carbohydrate conjugates
INCHIKEY:  JDNUVLAJLPVYNP-UHFFFAOYNA-N
SMILES:  OCC1OC(OC2=CC=CC(CCC(O)=O)=C2O)C(O)C(O)C1O
RETENTIONTIME:  
CCS:  -1
IONMODE:  Negative
INSTRUMENTTYPE:  
INSTRUMENT:  Maxis II HD Q-TOF Bruker
COLLISIONENERGY:  
Comment:  DB#=CCMSLIB00000849890; origin=GNPS
Num Peaks:  7
93.74715	10.0
122.03613	30.0
137.05862	240.0
163.03993	170.0
181.05017	1000.0
342.64502	10.0
343.10318	350.0

NAME:  Pesticide4_Tebufenozide_C22H28N2O2_Benzoic acid, 3,5-dimethyl-, 1-(1,1-dimethylethyl)-2-(4-ethylbenzoyl)hydrazide
PRECURSORMZ:  387.1844794099
PRECURSORTYPE:  [M+Cl]-
FORMULA:  C22H28N2O2
Ontology: Kingdom: Organic compounds;Superclass: Benzenoids;Class: Benzene and substituted derivatives;Subclass: Benzoic acids and derivatives
INCHIKEY:  QYPNKSZPJQQLRK-UHFFFAOYSA-N
SMILES:  CCC1=CC=C(C=C1)C(=O)NN(C(=O)C1=CC(C)=CC(C)=C1)C(C)(C)C
RETENTIONTIME:  
CCS:  -1
IONMODE:  Negative
INSTRUMENTTYPE:  
INSTRUMENT:  Q-Exactive Plus Orbitrap Res 70k
COLLISIONENERGY:  
Comment:  DB#=CCMSLIB00001058383; origin=GNPS
Num Peaks:  34
70.46684	20.0
70.8522	10.0
72.10329	10.0
73.54866	10.0
75.93324	10.0
77.00273	10.0
85.79512	10.0
89.60319	10.0
90.09171	10.0
95.20187	10.0
105.07111	70.0
123.58843	10.0
149.06116	1000.0
161.19034	20.0
175.45331	10.0
186.59224	10.0
203.41455	10.0
216.98915	20.0
219.49989	20.0
227.59537	10.0
242.98679	20.0
263.01138	20.0
278.98645	20.0
286.9454	10.0
306.98212	20.0
313.54309	10.0
335.50754	20.0
341.02011	10.0
346.85382	10.0
349.62302	10.0
351.20792	670.0
359.543	20.0
395.77921	10.0
408.40594	10.0

NAME:  NCGC00381086-01_C47H74O17_
PRECURSORMZ:  909.48532447083
PRECURSORTYPE:  [M-H]-
FORMULA:  C47H74O17
Ontology: Kingdom: Organic compounds;Superclass: Lipids and lipid;Class: Prenol lipids;Subclass: Terpene glycosides
INCHIKEY:  KHQMXKRETWUVJU-UHFFFAOYNA-N
SMILES:  CC1OC(OC2C(O)C(O)COC2OC2C(O)C(O)C(OC2OC2CCC3(C)C(CCC4(C)C3C(=O)CC3=C5CC(C)(C)CC(O)C5(C)CCC43C)C2(C)C)C(O)=O)C(O)C(O)C1O
RETENTIONTIME:  
CCS:  307.9374012
IONMODE:  Negative
INSTRUMENTTYPE:  
INSTRUMENT:  Maxis II HD Q-TOF Bruker
COLLISIONENERGY:  
Comment:  DB#=CCMSLIB00000849605; origin=GNPS
Num Peaks:  27
85.02915	20.0
95.01328	20.0
99.00887	30.0
113.02443	50.0
115.04139	40.0
131.03453	60.0
143.03435	40.0
157.01509	10.0
163.06291	30.0
205.07266	70.0
247.07893	10.0
439.32425	30.0
453.33737	20.0
455.35172	60.0
481.34183	10.0
497.36154	10.0
523.38135	30.0
551.36749	10.0
553.35645	30.0
569.3855	150.0
570.38208	20.0
587.3949	30.0
613.37457	30.0
763.42609	10.0
891.47748	20.0
909.48651	1000.0
910.48712	240.0

NAME:  NCGC00380554-01_C22H38O10_2-(4-Methyl-3-cyclohexen-1-yl)-2-propanyl 6-O-(6-deoxy-alpha-L-mannopyranosyl)-beta-D-glucopyranoside
PRECURSORMZ:  507.24469997183
PRECURSORTYPE:  [M+FA-H]-
FORMULA:  C22H38O10
Ontology: Kingdom: Organic compounds;Superclass: Organic oxygen compounds;Class: Organooxygen compounds;Subclass: Carbohydrates and carbohydrate conjugates
INCHIKEY:  JIDXOGPQCVBGSC-UHFFFAOYNA-N
SMILES:  CC1OC(OCC2OC(OC(C)(C)C3CCC(C)=CC3)C(O)C(O)C2O)C(O)C(O)C1O
RETENTIONTIME:  
CCS:  -1
IONMODE:  Negative
INSTRUMENTTYPE:  
INSTRUMENT:  Maxis II HD Q-TOF Bruker
COLLISIONENERGY:  
Comment:  DB#=CCMSLIB00000850977; origin=GNPS
Num Peaks:  24
83.01413	20.0
85.02722	20.0
87.74892	20.0
89.02207	30.0
89.84982	10.0
101.02253	90.0
113.0236	130.0
115.0383	20.0
125.02401	20.0
143.03427	90.0
145.0489	40.0
159.02777	40.0
161.0451	320.0
163.06551	80.0
205.06915	60.0
229.95183	20.0
247.08017	50.0
265.09827	20.0
294.32193	20.0
315.18314	540.0
333.22635	20.0
359.17801	10.0
461.23837	1000.0
507.2623	20.0

NAME:  NCGC00380805-01_C28H35N3O4_(1R,3S,5R,7S,12S)-4,4,4',4',12,14-Hexamethyl-4'H,13H-spiro[9,14-diazatetracyclo[5.5.2.0~1,9~.0~3,7~]tetradecane-5,8'-[1,4]dioxepino[2,3-g]indole]-9',13(10'H)-dione
PRECURSORMZ:  476.25548016683
PRECURSORTYPE:  [M-H]-
FORMULA:  C28H35N3O4
Ontology: Kingdom: Organic compounds;Superclass: Organoheterocyclic compounds;Class: Azaspirodecane derivatives;
INCHIKEY:  XNXXZRQPTAQILV-UHFFFAOYNA-N
SMILES:  CC1CCN2CC34CC5(C(O)=NC6=C5C=CC5=C6OC=CC(C)(C)O5)C(C)(C)C3CC12C(=O)N4C
RETENTIONTIME:  
CCS:  220.546296
IONMODE:  Negative
INSTRUMENTTYPE:  
INSTRUMENT:  Maxis II HD Q-TOF Bruker
COLLISIONENERGY:  
Comment:  DB#=CCMSLIB00000850998; origin=GNPS
Num Peaks:  22
175.02377	50.0
210.04118	40.0
226.04854	10.0
256.81076	50.0
335.13403	30.0
336.16431	30.0
351.15533	40.0
362.18884	20.0
367.20453	40.0
376.22232	40.0
379.14798	20.0
394.17209	20.0
402.21542	30.0
409.21594	20.0
420.22372	40.0
421.19907	50.0
433.224	30.0
448.26385	30.0
475.54156	20.0
476.15833	30.0
476.25507	1000.0
1812.05029	30.0

NAME:  NCGC00380770-01_C20H22N2O10_Uridine, 2'-acetate 3'-(4-hydroxy-2-methoxy-6-methylbenzoate)
PRECURSORMZ:  449.12016846383
PRECURSORTYPE:  [M-H]-
FORMULA:  C20H22N2O10
Ontology: Kingdom: Organic compounds;Superclass: Nucleosides;Class: Pyrimidine nucleosides;
INCHIKEY:  ULPUBSPPYRXUOZ-UHFFFAOYNA-N
SMILES:  COC1=C(C(=O)OC2C(CO)OC(C2OC(C)=O)N2C=CC(O)=NC2=O)C(C)=CC(O)=C1
RETENTIONTIME:  
CCS:  -1
IONMODE:  Negative
INSTRUMENTTYPE:  
INSTRUMENT:  Maxis II HD Q-TOF Bruker
COLLISIONENERGY:  
Comment:  DB#=CCMSLIB00000851370; origin=GNPS
Num Peaks:  52
110.02408	20.0
110.05874	10.0
111.01875	830.0
122.03741	40.0
127.03811	40.0
137.0591	570.0
139.23817	10.0
152.03233	250.0
153.03008	70.0
154.04926	40.0
160.0531	10.0
163.04402	30.0
164.03519	50.0
165.01564	30.0
170.03549	10.0
179.08228	20.0
181.00467	30.0
181.0507	1000.0
182.04723	390.0
194.04395	90.0
200.05698	180.0
205.08356	30.0
208.25505	10.0
210.04868	30.0
214.05391	20.0
215.57466	20.0
219.07285	30.0
224.05528	40.0
225.05266	180.0
226.04623	20.0
229.79071	20.0
233.0784	40.0
235.06332	30.0
242.06671	40.0
243.06207	150.0
248.0918	40.0
253.07411	10.0
254.07585	20.0
275.0571	10.0
302.10736	30.0
314.06458	20.0
318.12506	20.0
320.10468	20.0
345.11432	30.0
346.09375	440.0
364.09729	20.0
388.64822	10.0
389.10297	190.0
405.09357	20.0
406.11667	670.0
407.59763	20.0
449.12372	160.0

NAME:  NCGC00169467-03_C42H66O14_Hexopyranose, 1-O-[3-[(6-deoxyhexopyranosyl)oxy]-27-hydroxy-27,28-dioxours-12-en-28-yl]-
PRECURSORMZ:  793.43798035283
PRECURSORTYPE:  [M-H]-
FORMULA:  C42H66O14
Ontology: Kingdom: Organic compounds;Superclass: Lipids and lipid;Class: Prenol lipids;Subclass: Terpene glycosides
INCHIKEY:  AQLCKWUMMOZIEY-UHFFFAOYNA-N
SMILES:  CC1CCC2(CCC3(C(O)=O)C(=CCC4C5(C)CCC(OC6OC(C)C(O)C(O)C6O)C(C)(C)C5CCC34C)C2C1C)C(=O)OC1OC(CO)C(O)C(O)C1O
RETENTIONTIME:  
CCS:  269.6880295
IONMODE:  Negative
INSTRUMENTTYPE:  
INSTRUMENT:  Maxis II HD Q-TOF Bruker
COLLISIONENERGY:  
Comment:  DB#=CCMSLIB00000850832; origin=GNPS
Num Peaks:  12
113.02359	20.0
119.03439	30.0
161.04541	20.0
179.05646	50.0
587.39667	1000.0
588.3996	100.0
601.41345	10.0
629.40601	20.0
749.45105	40.0
750.45892	10.0
793.44086	230.0
794.44446	40.0

NAME:  NCGC00381017-01_C48H78O18_beta-D-Glucopyranose, 1-O-[(3beta,5xi,9xi)-3-[(6-deoxy-3-O-beta-D-glucopyranosyl-alpha-L-mannopyranosyl)oxy]-23-hydroxy-28-oxoolean-12-en-28-yl]-
PRECURSORMZ:  987.51701821983
PRECURSORTYPE:  [M+FA-H]-
FORMULA:  C48H78O18
Ontology: Kingdom: Organic compounds;Superclass: Lipids and lipid;Class: Prenol lipids;Subclass: Terpene glycosides
INCHIKEY:  HEZIERXQNQUEDU-UHFFFAOYNA-N
SMILES:  CC1OC(OC2CCC3(C)C(CCC4(C)C3CC=C3C5CC(C)(C)CCC5(CCC43C)C(=O)OC3OC(CO)C(O)C(O)C3O)C2(C)CO)C(O)C(OC2OC(CO)C(O)C(O)C2O)C1O
RETENTIONTIME:  
CCS:  -1
IONMODE:  Negative
INSTRUMENTTYPE:  
INSTRUMENT:  Maxis II HD Q-TOF Bruker
COLLISIONENERGY:  
Comment:  DB#=CCMSLIB00000849740; origin=GNPS
Num Peaks:  23
101.025	50.0
113.02525	20.0
115.0407	10.0
125.02419	30.0
131.0347	10.0
143.03549	40.0
145.05035	10.0
161.04506	80.0
163.06195	30.0
205.07169	50.0
221.06639	20.0
247.0826	80.0
265.09381	20.0
323.09933	30.0
325.1149	10.0
367.12448	50.0
409.14075	20.0
469.15656	290.0
470.16046	30.0
471.34897	1000.0
472.35175	80.0
941.51398	70.0
942.51691	20.0

NAME:  NCGC00380497-01_C27H36O6_1-Naphthalenecarboxylic acid, 8-(benzoyloxy)decahydro-7-hydroxy-5-[(3Z)-5-hydroxy-3-methyl-3-penten-1-yl]-1,4a-dimethyl-6-methylene-
PRECURSORMZ:  455.24391242683
PRECURSORTYPE:  [M-H]-
FORMULA:  C27H36O6
Ontology: ;;;
INCHIKEY:  ZBHRERABGSTQPS-UHFFFAOYNA-N
SMILES:  CC(CCC1C(=C)C(O)C(OC(=O)C2=CC=CC=C2)C2C1(C)CCCC2(C)C(O)=O)=CCO
RETENTIONTIME:  
CCS:  -1
IONMODE:  Negative
INSTRUMENTTYPE:  
INSTRUMENT:  Maxis II HD Q-TOF Bruker
COLLISIONENERGY:  
Comment:  DB#=CCMSLIB00000849310; origin=GNPS
Num Peaks:  26
119.08524	20.0
121.02946	170.0
127.69278	20.0
150.57368	20.0
155.07753	30.0
157.11096	10.0
169.09952	30.0
173.1333	310.0
211.11528	20.0
219.12924	10.0
223.15175	20.0
227.14156	30.0
235.15112	80.0
237.16469	110.0
239.17888	20.0
241.19868	30.0
249.16798	30.0
251.14352	10.0
253.19597	1000.0
257.47485	10.0
271.20267	110.0
273.33316	20.0
303.19281	20.0
309.02466	10.0
388.99579	20.0
394.97214	10.0

