MSID: 8925
ID: 162
RETENTIONTIME: 27.27688
PRECURSORMZ: 315.0857
AREA: 55857312.0
PRECURSORTYPE: [M+H]+
SMILES: COC1=CC2=C(C(=O)C=C(O2)C2=CC=C(O)C=C2)C(O)=C1OC
NAME: salvigenin
FORMULA: C17H14O6
INCHIKEY: ZIIAJIWLQUVGHB-UHFFFAOYSA-N
CAS: 6601-62-3
Molecular Weight: 314.295
Number of References: 742
Class: Flavones
Superclass: Flavonoids
Pathway: Shikimates and Phenylpropanoids
ppm: -1.165000000071359
CMID: CM243
IONMODE: Positive
COLLISIONENERGY: 40±20eV
INSTRUMENTTYPE: AB SCIEX
INSTRUMENT: Q-TOF
Comment:  
Num Peaks: 329
315.08978	218139.0
300.06326	146816.0
168.00439	65735.0
272.0687	51552.0
229.04939	21897.0
140.01068	19065.0
257.04507	15058.0
183.02885	9300.0
135.04454	8978.0
133.0658	7886.0
112.01559	7263.0
84.02053	5418.0
68.99737	2727.0
285.03998	2611.0
299.05637	2604.0
283.06085	2528.0
56.02599	2459.0
155.04929	2126.0
123.00739	2096.0
132.05658	1833.0
254.05782	1201.0
201.05467	1187.0
131.05008	1183.0
159.04424	1169.0
174.06642	1110.0
226.06357	1053.0
55.01818	910.0
77.03854	889.0
161.06015	841.0
71.01315	823.0
198.06763	795.0
271.06	744.0
70.00491	713.0
227.07045	705.0
107.04975	639.0
127.05375	562.0
211.03827	534.0
243.06612	529.0
95.01166	523.0
145.06531	497.0
66.0106	489.0
269.04654	475.0
118.04127	474.0
228.04257	468.0
103.0547	458.0
185.05905	432.0
171.08026	428.0
139.00311	424.0
213.05487	415.0
269.08029	400.0
79.05361	379.0
173.06001	379.0
134.07205	376.0
137.02298	368.0
157.06557	362.0
187.03882	359.0
282.0517	353.0
240.04309	342.0
184.05052	339.0
128.06143	331.0
165.01808	309.0
209.05817	307.0
255.06728	305.0
121.99928	295.0
94.00432	292.0
284.03058	291.0
170.07486	283.0
230.05695	276.0
314.04929	266.0
200.04636	253.0
89.03893	244.0
268.03705	239.0
241.05019	232.0
199.0751	232.0
212.0468	225.0
169.06351	224.0
105.06983	220.0
117.03362	214.0
239.03357	212.0
215.06956	207.0
156.05702	206.0
256.03796	206.0
151.00282	201.0
141.06956	196.0
244.07187	194.0
216.07616	191.0
90.04633	191.0
181.0652	190.0
144.05731	189.0
115.05334	189.0
91.05471	185.0
160.05122	174.0
175.07576	167.0
139.05392	162.0
287.09238	162.0
143.05051	162.0
297.07468	160.0
171.04568	149.0
153.01816	142.0
92.02643	141.0
147.07875	132.0
202.06415	129.0
158.07367	125.0
119.0511	124.0
97.99993	121.0
197.05858	116.0
225.056	111.0
283.03448	110.0
166.04251	109.0
157.02753	108.0
146.07326	102.0
152.06256	101.0
187.07632	100.0
241.08365	99.0
172.05008	98.0
129.06865	94.0
109.02974	94.0
203.06917	92.0
136.01369	92.0
188.08235	92.0
51.02314	88.0
142.04254	87.0
99.04399	85.0
108.01966	84.0
83.01361	83.0
180.04266	82.0
126.04784	81.0
117.06965	79.0
167.04733	79.0
253.05193	78.0
166.9967	75.0
269.06583	70.0
267.02783	68.0
195.04547	67.0
182.07082	66.0
159.07883	63.0
299.02927	62.0
237.0601	62.0
199.03918	62.0
242.05939	61.0
186.03293	61.0
177.05627	61.0
223.03737	61.0
108.05733	61.0
215.03653	60.0
284.02563	60.0
150.99802	59.0
102.04704	59.0
121.02979	58.0
213.09489	57.0
271.17126	55.0
212.03967	55.0
92.99669	55.0
188.07967	54.0
134.06299	54.0
111.00723	54.0
284.06854	53.0
138.04523	53.0
155.02368	53.0
196.05348	52.0
164.00685	52.0
314.0788	52.0
63.02303	52.0
182.01796	52.0
180.05711	51.0
81.03297	50.0
125.02293	49.0
246.05119	49.0
230.0421	48.0
258.04941	47.0
67.01621	47.0
121.06642	46.0
273.07605	46.0
167.46278	46.0
169.01004	45.0
105.0337	45.0
66.00503	45.0
145.02992	44.0
200.08098	44.0
144.0197	43.0
153.06783	43.0
211.07384	42.0
174.04834	42.0
129.06087	42.0
314.09442	41.0
226.04149	41.0
251.03062	40.0
50.01448	40.0
145.05351	38.0
186.06499	38.0
244.03668	38.0
53.00077	38.0
214.0596	38.0
152.00943	37.0
299.77832	37.0
55.01382	37.0
139.99792	37.0
151.05338	37.0
300.71509	36.0
53.03928	36.0
69.03154	36.0
271.04224	36.0
231.06374	35.0
208.04831	35.0
154.04359	35.0
244.05656	34.0
160.08841	34.0
272.92719	34.0
85.0272	34.0
127.04271	33.0
223.07539	33.0
299.56299	33.0
59.01247	32.0
240.03096	32.0
181.01512	32.0
78.04412	32.0
210.0648	32.0
64.03001	31.0
198.04419	31.0
314.81342	31.0
314.51633	30.0
147.04906	30.0
233.04202	30.0
211.02689	30.0
228.30739	30.0
154.02658	30.0
227.04536	30.0
142.0764	30.0
182.03645	30.0
271.19867	30.0
299.68338	30.0
163.07626	29.0
268.07391	29.0
224.04335	29.0
281.04266	29.0
300.64886	29.0
242.02434	28.0
56.01719	28.0
144.04674	28.0
307.67233	28.0
65.03786	28.0
151.04254	27.0
137.03789	27.0
283.99756	27.0
124.0153	27.0
313.992	27.0
307.13489	27.0
273.75137	26.0
274.83813	26.0
301.32852	26.0
302.14511	26.0
300.97501	26.0
300.80002	26.0
302.6731	26.0
313.97464	26.0
301.07187	25.0
300.99539	25.0
259.06677	25.0
156.04478	25.0
170.03911	25.0
185.04306	25.0
200.02142	25.0
128.04924	25.0
152.0529	25.0
167.4425	25.0
135.61992	25.0
168.59648	25.0
149.99837	25.0
228.26892	25.0
133.04094	24.0
202.04187	24.0
113.02228	24.0
222.05116	24.0
301.21631	24.0
107.02341	24.0
195.08788	24.0
271.15997	24.0
186.01956	24.0
188.04475	24.0
314.11697	24.0
259.0983	24.0
153.00847	24.0
300.90704	24.0
103.04079	23.0
270.04187	23.0
226.02676	23.0
143.0833	23.0
99.00793	23.0
185.09769	23.0
180.02953	23.0
158.03058	23.0
297.15909	22.0
301.03278	22.0
302.32559	22.0
313.0365	22.0
161.03778	22.0
299.62912	22.0
228.01596	22.0
109.99931	22.0
111.99901	22.0
257.62796	22.0
286.07104	22.0
314.20724	21.0
237.65762	21.0
146.03183	21.0
79.01617	21.0
138.03487	21.0
298.992	21.0
139.54288	21.0
204.08087	20.0
159.06894	20.0
241.03194	20.0
168.88528	20.0
57.03111	19.0
140.29938	18.0
166.02611	18.0
256.01917	18.0
286.03958	18.0
195.0359	18.0
218.01828	18.0
130.03961	18.0
253.97353	18.0
80.04944	17.0
190.05794	17.0
251.26033	16.0
75.02232	13.0
101.03448	13.0
101.0394	13.0
71.07341	12.0

MSID: 8926
ID: 358
RETENTIONTIME: 31.60367
PRECURSORMZ: 331.1901
AREA: 52142632.0
PRECURSORTYPE: [M+H]+
SMILES: [H][C@@]12C[C@@H]3OC(=O)[C@@]1(CCCC2(C)C)C1=C3C=C(C(C)C)C(O)=C1O
NAME: carnosol
FORMULA: C20H26O4
INCHIKEY: XUSYGBPHQBWGAD-PJSUUKDQSA-N
CAS: 5957-80-2
Molecular Weight: 330.424
Number of References: 182
Class: Abietane diterpenoids
Superclass: Diterpenoids
Pathway: Terpenoids
ppm: -0.8350000000518776
CMID: CM243
IONMODE: Positive
COLLISIONENERGY: 40±20eV
INSTRUMENTTYPE: AB SCIEX
INSTRUMENT: Q-TOF
Comment:  
Num Peaks: 525
285.18539	125660.0
215.10683	102723.0
267.17499	76154.0
331.18872	37433.0
197.097	35327.0
225.12791	35250.0
243.13779	33344.0
191.10707	32711.0
173.05995	31010.0
200.08368	23428.0
229.12195	19996.0
149.05939	15268.0
205.12167	14052.0
217.12253	12874.0
303.19461	12713.0
203.10678	11652.0
183.08046	11263.0
145.06525	10443.0
289.14203	9779.0
169.10039	9595.0
141.0695	9377.0
313.18024	9099.0
187.07626	9032.0
157.06429	8773.0
154.07758	8186.0
245.15321	7999.0
153.07021	7941.0
211.11076	7663.0
155.08582	7478.0
185.09628	7002.0
131.0489	6938.0
182.07207	6569.0
69.06976	6464.0
181.06514	6169.0
165.09099	6041.0
163.07495	5919.0
242.13092	5657.0
129.06972	5462.0
81.06998	5286.0
128.0625	5127.0
257.19104	5070.0
227.10725	5000.0
175.0757	4952.0
55.05449	4861.0
161.06009	4808.0
275.12714	4323.0
165.07211	4111.0
209.09633	4054.0
201.09071	4011.0
171.0802	3943.0
167.08525	3806.0
152.0625	3743.0
189.091	3611.0
143.04927	3106.0
159.08	2901.0
199.11096	2894.0
195.08096	2892.0
95.0861	2828.0
263.12903	2819.0
172.08728	2619.0
239.17886	2501.0
169.06599	2499.0
169.07874	2468.0
179.08717	2435.0
271.16794	2415.0
271.13568	2359.0
261.11209	2299.0
249.1116	2210.0
196.08769	2080.0
103.05367	1947.0
179.10551	1889.0
199.07503	1877.0
115.05435	1875.0
142.07751	1833.0
239.14403	1805.0
127.05481	1788.0
168.09193	1780.0
241.12309	1745.0
143.08676	1732.0
213.09053	1707.0
228.07799	1607.0
233.08081	1575.0
207.11693	1549.0
123.04429	1488.0
202.09888	1474.0
210.10304	1388.0
117.0696	1360.0
83.08498	1356.0
85.0651	1332.0
227.14268	1323.0
187.11243	1321.0
184.08899	1258.0
214.09822	1253.0
177.09009	1249.0
166.07906	1229.0
224.12097	1225.0
147.04425	1215.0
233.15408	1206.0
255.13757	1193.0
170.07353	1152.0
137.05963	1124.0
256.14603	1110.0
158.07362	1066.0
231.13809	1055.0
133.1019	1041.0
178.07677	1037.0
270.16089	986.0
156.09367	956.0
223.11043	950.0
91.05467	949.0
188.08229	918.0
207.10565	894.0
57.06956	885.0
144.05727	863.0
181.10072	847.0
174.06766	822.0
183.11491	806.0
182.10774	806.0
79.05445	774.0
71.04862	765.0
201.05739	758.0
224.15616	749.0
287.20346	744.0
257.15491	702.0
219.13747	699.0
257.11722	668.0
253.1235	661.0
201.08238	654.0
186.06758	631.0
151.05452	631.0
59.04857	626.0
157.09866	624.0
269.18945	609.0
67.05388	596.0
261.1485	584.0
219.06354	584.0
193.09979	580.0
243.10268	570.0
230.09697	569.0
143.06216	547.0
216.11494	532.0
181.08621	516.0
221.11949	514.0
237.12637	496.0
105.06979	494.0
192.09399	487.0
168.05766	456.0
295.16843	452.0
194.07138	425.0
213.12914	425.0
160.05118	424.0
209.13173	421.0
235.11125	414.0
211.07945	412.0
228.11497	403.0
185.06032	399.0
252.15213	394.0
77.03765	389.0
258.12485	379.0
179.07669	377.0
107.08518	366.0
147.08107	359.0
93.07034	358.0
221.0787	356.0
207.06477	349.0
201.12683	344.0
139.05504	342.0
186.10233	342.0
171.11736	337.0
180.09253	336.0
57.03331	334.0
195.11653	325.0
185.07764	321.0
196.12473	314.0
162.06845	312.0
259.17072	311.0
212.11804	305.0
235.09624	296.0
267.16058	286.0
133.06575	270.0
109.06447	269.0
155.048	262.0
151.07619	261.0
191.08946	260.0
55.01816	257.0
224.1371	255.0
177.06924	254.0
119.08525	247.0
201.11154	243.0
131.08591	238.0
231.10086	233.0
212.08238	231.0
198.06755	231.0
148.0519	229.0
99.08099	229.0
164.06198	222.0
197.13275	221.0
177.08487	220.0
116.0619	220.0
249.16261	217.0
207.08168	214.0
126.04449	210.0
205.10484	199.0
135.08092	199.0
194.10959	198.0
238.13187	197.0
193.06305	194.0
193.12157	189.0
153.09081	189.0
130.07866	188.0
208.09061	182.0
159.04543	182.0
272.14453	180.0
213.12341	180.0
226.13565	178.0
198.10477	173.0
159.1183	172.0
219.08093	170.0
247.13538	165.0
156.05452	163.0
119.04999	162.0
53.03926	161.0
144.0937	160.0
171.10197	160.0
172.0526	159.0
150.0679	153.0
256.10999	153.0
170.10928	149.0
121.10086	138.0
161.09615	137.0
168.07416	134.0
219.10413	133.0
196.10689	132.0
225.10588	128.0
259.13602	128.0
109.10232	127.0
203.07607	126.0
231.11873	125.0
145.10182	124.0
150.0451	123.0
146.07201	123.0
284.25003	123.0
159.09607	122.0
206.11035	122.0
140.06277	122.0
213.08052	121.0
219.11717	120.0
277.15988	120.0
220.08958	117.0
155.06142	117.0
216.07895	117.0
190.09703	116.0
154.06299	115.0
210.13995	114.0
237.08867	114.0
189.05464	113.0
229.08934	112.0
157.05324	112.0
97.10126	108.0
176.08275	108.0
252.11325	107.0
202.07939	107.0
244.14369	106.0
255.10472	106.0
241.15656	106.0
217.09656	105.0
256.13348	103.0
209.07791	103.0
65.03941	102.0
240.11433	101.0
234.14064	100.0
269.1525	99.0
269.12036	99.0
107.0487	99.0
135.04449	99.0
273.14719	99.0
159.06519	98.0
197.08463	98.0
223.09579	97.0
171.04434	97.0
239.10768	96.0
176.06326	96.0
205.09644	93.0
204.11719	92.0
165.0545	92.0
210.06898	92.0
255.12036	91.0
186.08496	91.0
192.07635	91.0
214.06239	91.0
239.12132	89.0
121.06422	88.0
190.07947	87.0
247.09688	86.0
217.08646	85.0
171.06099	83.0
160.08711	83.0
214.40643	83.0
253.15779	83.0
177.0536	81.0
163.0912	81.0
270.12546	79.0
251.10812	79.0
216.09335	77.0
199.1469	77.0
113.09825	76.0
226.09589	76.0
245.11948	76.0
83.05017	75.0
283.12997	74.0
189.12872	74.0
242.33823	73.0
109.02765	72.0
280.14352	72.0
131.07582	71.0
218.1339	71.0
241.08659	71.0
242.16444	69.0
224.08138	69.0
193.04944	69.0
210.12718	68.0
219.05194	67.0
163.03868	67.0
298.15759	66.0
188.07019	66.0
257.1015	65.0
266.29684	64.0
283.16623	64.0
303.17413	64.0
167.06119	64.0
251.14226	64.0
241.10332	63.0
234.10318	63.0
97.06555	63.0
130.04068	62.0
210.08034	62.0
205.06277	61.0
130.07196	60.0
223.14992	59.0
238.0956	58.0
222.10362	58.0
213.05479	57.0
175.1068	57.0
265.12183	56.0
180.05836	56.0
145.09003	56.0
223.07092	55.0
184.12088	55.0
51.02382	55.0
125.09737	54.0
223.13237	54.0
249.13634	53.0
153.05687	52.0
284.21042	52.0
266.31281	51.0
275.1109	51.0
147.03119	50.0
204.0934	50.0
173.09731	49.0
208.12311	48.0
167.04474	48.0
218.0905	48.0
133.05785	48.0
69.03477	47.0
95.04694	47.0
198.13785	47.0
197.05988	47.0
180.47389	47.0
102.04502	47.0
284.13779	46.0
137.04358	46.0
218.07605	46.0
227.07184	46.0
241.19305	46.0
158.10933	45.0
249.0946	44.0
147.06801	44.0
235.13528	44.0
144.04903	44.0
247.08919	43.0
125.05794	43.0
191.07051	43.0
65.03467	42.0
178.05194	41.0
266.27286	41.0
128.04587	41.0
85.10123	41.0
187.03741	40.0
220.12737	40.0
266.12744	40.0
270.1142	40.0
284.22198	39.0
148.57431	39.0
233.05241	39.0
133.08156	39.0
123.08014	39.0
295.13815	38.0
174.09996	38.0
111.0815	38.0
123.02799	37.0
285.15894	37.0
137.09288	36.0
161.02902	36.0
142.06	36.0
273.1326	36.0
330.09525	36.0
196.45679	36.0
202.06268	35.0
151.10989	35.0
139.11047	34.0
269.13641	34.0
148.04593	34.0
164.08707	34.0
245.11028	33.0
254.12798	33.0
235.07523	33.0
286.31119	33.0
224.3923	32.0
228.37982	32.0
105.03065	32.0
99.07124	32.0
185.13359	31.0
172.4948	31.0
183.05263	31.0
214.13118	31.0
80.06255	30.0
241.06834	30.0
172.50252	30.0
207.14088	29.0
196.44992	29.0
250.10344	29.0
252.09148	29.0
216.14806	28.0
286.37747	28.0
279.13956	28.0
239.09557	27.0
161.0862	27.0
160.03383	27.0
172.48065	27.0
297.15222	26.0
260.13812	26.0
286.13885	26.0
308.34085	26.0
168.54938	26.0
182.05356	26.0
193.44154	26.0
201.26297	26.0
221.06123	26.0
216.282	26.0
215.75803	26.0
228.36502	26.0
216.63069	26.0
196.78912	26.0
248.12328	26.0
149.09407	25.0
190.05112	25.0
262.13547	25.0
215.59981	25.0
199.42894	25.0
153.56862	25.0
209.1714	25.0
275.66348	25.0
216.42029	25.0
101.03739	25.0
59.04104	25.0
261.07727	25.0
127.64943	25.0
155.81848	25.0
166.06139	25.0
117.66378	25.0
237.08113	25.0
117.04947	25.0
238.082	25.0
240.15076	25.0
146.03769	25.0
288.05887	24.0
182.61429	24.0
182.48462	24.0
191.35628	24.0
284.68945	24.0
51.99664	24.0
51.02032	24.0
169.05327	24.0
218.05724	24.0
73.06547	24.0
216.19846	24.0
268.31921	24.0
208.07225	23.0
136.04791	23.0
167.87741	23.0
317.87216	23.0
232.43831	23.0
172.03975	23.0
176.04637	23.0
302.19949	23.0
286.1687	23.0
151.03767	23.0
203.85001	23.0
251.41705	23.0
71.06844	23.0
147.11552	23.0
148.39291	22.0
275.20673	22.0
121.09332	22.0
94.77788	22.0
184.46657	22.0
66.04639	21.0
299.3934	21.0
229.15457	21.0
209.41226	21.0
214.95747	21.0
79.04227	21.0
198.46333	21.0
276.82574	20.0
200.43988	20.0
154.58128	20.0
283.11349	20.0
142.09853	20.0
69.39655	20.0
137.02408	20.0
138.04402	19.0
127.46249	19.0
199.28236	17.0
305.74603	17.0
231.15744	13.0

MSID: 8927
ID: 113
RETENTIONTIME: 22.05897
PRECURSORMZ: 301.0716
AREA: 50003448.0
PRECURSORTYPE: [M+H]+
SMILES: COC1=C(O)C2=C(OC(=CC2=O)C2=CC=C(O)C=C2)C=C1O
NAME: hispidulin
FORMULA: C16H12O6
INCHIKEY: IHFBPDAQLQOCBX-UHFFFAOYSA-N
CAS: 1447-88-7
Molecular Weight: 300.268
Number of References: 1238
Class: Flavones
Superclass: Flavonoids
Pathway: Shikimates and Phenylpropanoids
ppm: 0.38499999993746314
CMID: CM243
IONMODE: Positive
COLLISIONENERGY: 40±20eV
INSTRUMENTTYPE: AB SCIEX
INSTRUMENT: Q-TOF
Comment:  
Num Peaks: 421
286.04828	253963.0
301.07397	119320.0
168.00591	98176.0
140.01088	29562.0
112.01472	11429.0
84.02065	8902.0
121.02888	8859.0
258.05292	6116.0
68.99746	5333.0
285.04037	4805.0
56.02534	4736.0
119.04913	2646.0
169.01408	2151.0
160.05145	2002.0
184.05211	1810.0
240.04192	1677.0
55.01754	1509.0
70.005	1464.0
257.04544	1415.0
212.0471	1369.0
66.0099	1358.0
71.01243	1333.0
255.06607	1227.0
229.04971	1124.0
93.03365	1115.0
128.06161	1072.0
213.05518	979.0
94.0054	767.0
187.03908	692.0
147.04332	680.0
156.05725	636.0
91.0539	626.0
131.04913	594.0
144.05751	572.0
65.03795	564.0
157.06456	562.0
283.0596	561.0
268.03741	546.0
139.00331	539.0
201.05357	528.0
121.99945	520.0
202.06303	512.0
171.04463	502.0
155.0495	493.0
120.05682	470.0
118.04037	447.0
216.04335	427.0
269.04532	406.0
137.02432	337.0
214.02695	335.0
241.05052	334.0
95.01179	328.0
185.05931	327.0
173.06026	326.0
143.04953	267.0
174.06796	243.0
132.05676	239.0
211.03999	234.0
145.06551	229.0
230.05876	226.0
215.03253	222.0
195.04439	206.0
165.01831	202.0
186.02917	202.0
127.05393	201.0
161.05914	197.0
285.10818	178.0
133.06485	171.0
158.03574	167.0
139.05412	162.0
98.00104	156.0
159.04446	151.0
167.04883	144.0
188.0477	142.0
239.03542	130.0
183.04369	126.0
111.00842	122.0
300.08743	121.0
121.02026	117.0
129.06883	108.0
107.04889	95.0
81.03309	94.0
170.03551	90.0
115.05245	90.0
167.45288	86.0
181.06413	86.0
116.06105	82.0
163.04022	76.0
142.04041	74.0
67.01711	74.0
300.08066	73.0
152.06157	72.0
189.05632	68.0
53.00298	68.0
123.00974	66.0
130.03979	64.0
145.02895	64.0
183.02646	63.0
146.07227	61.0
94.04054	59.0
136.01503	59.0
267.0314	57.0
141.06976	55.0
212.02571	54.0
269.02765	52.0
227.07077	51.0
240.01764	50.0
89.03813	49.0
109.02785	46.0
126.04692	45.0
103.05386	43.0
244.03854	42.0
105.06898	42.0
227.03239	42.0
257.02029	41.0
169.06375	40.0
158.0739	40.0
83.01195	39.0
286.02341	38.0
54.01024	38.0
166.9982	36.0
223.0406	36.0
259.06082	36.0
146.03676	36.0
138.04771	34.0
108.01981	34.0
131.03569	33.0
153.07169	33.0
200.04802	33.0
287.0878	33.0
171.02286	33.0
166.03896	32.0
137.01286	32.0
285.72534	31.0
176.04668	31.0
117.06876	30.0
134.03822	29.0
99.0071	29.0
287.05792	28.0
167.44653	28.0
104.06148	27.0
173.02419	27.0
157.04861	27.0
287.06955	26.0
268.01016	26.0
285.81805	26.0
286.8439	26.0
211.02861	25.0
139.55696	25.0
51.02181	25.0
287.14752	25.0
301.04678	25.0
53.03793	25.0
93.99401	25.0
287.29694	24.0
67.0155	24.0
195.0307	24.0
109.99741	24.0
286.79416	24.0
172.05032	24.0
106.04301	24.0
77.03779	24.0
286.87543	23.0
213.03087	23.0
285.55487	23.0
197.0451	23.0
286.91357	22.0
286.83063	22.0
255.03009	22.0
166.02634	22.0
124.01329	22.0
65.0332	22.0
285.53168	22.0
287.81342	21.0
148.05096	21.0
182.01953	21.0
138.98946	21.0
187.01631	21.0
143.03665	21.0
230.04092	21.0
286.99155	21.0
113.02348	20.0
69.03326	20.0
287.89154	20.0
287.50281	19.0
287.76193	19.0
289.06592	19.0
82.00401	19.0
164.00833	19.0
284.99243	19.0
146.06873	19.0
187.07257	18.0
111.99088	18.0
285.75681	18.0
285.61115	18.0
197.06023	18.0
270.05673	18.0
237.0529	18.0
287.51608	18.0
287.37164	18.0
167.43767	18.0
92.99587	17.0
286.78088	17.0
286.96667	17.0
287.65393	17.0
287.11932	17.0
287.16745	17.0
97.99037	17.0
269.00677	17.0
87.00838	17.0
171.07794	17.0
288.4751	17.0
209.05563	17.0
286.92023	16.0
287.42477	16.0
167.48329	16.0
300.7291	16.0
239.07176	16.0
287.67056	16.0
287.84335	16.0
170.02657	16.0
287.34506	16.0
149.99138	16.0
287.57755	16.0
287.25046	15.0
94.02724	15.0
283.01678	15.0
284.48508	15.0
287.79846	15.0
300.04333	15.0
288.01617	15.0
151.00183	15.0
288.45016	15.0
300.69513	15.0
109.02273	15.0
300.75967	15.0
288.71136	15.0
255.00507	15.0
288.74466	15.0
169.27394	15.0
114.04617	15.0
285.65417	15.0
80.02326	15.0
267.98932	15.0
111.64704	15.0
141.02324	15.0
287.45963	15.0
286.65817	14.0
151.05359	14.0
90.04552	14.0
85.02641	14.0
287.22556	14.0
286.75601	14.0
287.26373	14.0
158.01726	14.0
139.03911	14.0
116.0505	14.0
285.44067	14.0
300.58646	14.0
300.55588	13.0
288.92108	13.0
300.38101	13.0
275.62982	13.0
282.99042	13.0
283.16837	13.0
284.09702	13.0
295.60324	13.0
293.32095	13.0
285.48038	13.0
291.70453	13.0
288.62485	13.0
285.77502	13.0
291.41354	13.0
290.76688	13.0
300.81741	13.0
287.88321	13.0
188.01279	13.0
141.03255	13.0
170.48663	13.0
168.62469	13.0
133.05356	13.0
199.04361	13.0
242.78558	13.0
196.05238	13.0
83.74617	13.0
57.03193	13.0
231.06406	13.0
165.00195	12.0
285.26532	12.0
126.99763	12.0
288.33539	12.0
168.80025	12.0
288.19739	12.0
186.0038	12.0
190.05551	12.0
127.03737	12.0
78.04423	12.0
285.98697	12.0
128.04277	12.0
171.82173	12.0
287.55096	12.0
292.00235	12.0
293.00571	12.0
138.03391	12.0
292.36563	12.0
285.17267	12.0
284.90149	12.0
293.52396	12.0
287.32846	12.0
257.07526	12.0
165.06863	12.0
253.29382	12.0
259.7691	12.0
112.47334	12.0
252.18213	12.0
289.49902	12.0
55.84441	12.0
241.02467	12.0
167.03745	12.0
167.68742	12.0
212.00574	12.0
168.45813	12.0
271.46524	12.0
226.74915	12.0
288.86115	12.0
120.03857	12.0
120.63055	12.0
298.35434	12.0
287.59415	12.0
292.43933	12.0
155.0312	11.0
293.62296	11.0
257.01089	11.0
287.61575	11.0
134.02348	11.0
128.98428	11.0
288.04776	11.0
256.77228	11.0
288.52835	11.0
288.56992	11.0
123.0445	11.0
288.68472	11.0
117.06133	11.0
289.02264	11.0
115.42674	11.0
289.10757	11.0
289.32242	11.0
290.06421	11.0
288.2406	11.0
169.41924	11.0
287.194	11.0
300.32162	11.0
202.03659	11.0
285.31161	11.0
205.02948	11.0
69.99271	11.0
284.61392	11.0
214.00116	11.0
217.05077	11.0
221.43893	11.0
223.01866	11.0
230.01717	11.0
58.00571	11.0
233.11861	11.0
269.47763	11.0
239.55508	11.0
251.03873	11.0
267.01379	11.0
254.06911	11.0
197.02449	11.0
84.37293	11.0
291.22299	11.0
168.87788	11.0
185.03799	11.0
286.48074	11.0
84.57727	11.0
286.625	11.0
170.90504	11.0
286.72284	11.0
170.43932	11.0
189.02536	11.0
169.44983	11.0
168.6743	11.0
169.22043	11.0
293.94864	10.0
296.31427	10.0
94.99651	10.0
102.0452	10.0
291.11435	10.0
93.99021	10.0
111.65946	10.0
92.02656	10.0
163.02145	10.0
168.65013	10.0
142.15016	10.0
195.27835	10.0
286.58356	10.0
170.34471	10.0
169.5123	10.0
290.5231	10.0
242.05667	10.0
168.5573	10.0
284.6701	10.0
150.04897	10.0
141.27107	10.0
140.68964	10.0
140.56653	10.0
140.48293	10.0
139.8093	10.0
130.07777	10.0
126.03703	10.0
289.65237	10.0
235.09966	9.0
271.06198	9.0
63.02156	9.0
112.92666	9.0
203.06805	9.0
194.48126	9.0
193.02121	9.0
168.61325	9.0
51.02041	9.0

MSID: 8928
ID: 68
RETENTIONTIME: 15.24332
PRECURSORMZ: 463.1224
AREA: 42601456.0
PRECURSORTYPE: [M+H]+
SMILES: COC1=CC(=CC=C1O)C1=CC(=O)C2=C(O1)C=C(O[C@@H]1O[C@H](CO)[C@@H](O)[C@H](O)[C@H]1O)C=C2O
NAME: chrysoeriol 7-O-glucoside
FORMULA: C22H22O11
INCHIKEY: GAMYVSCDDLXAQW-MIUGBVLSSA-N
CAS: nan
Molecular Weight: 462.41
Number of References: 83
Class: Flavones
Superclass: Flavonoids
Pathway: Shikimates and Phenylpropanoids
ppm: -1.6400000000089676
CMID: CM243
IONMODE: Positive
COLLISIONENERGY: 40±20eV
INSTRUMENTTYPE: AB SCIEX
INSTRUMENT: Q-TOF
Comment:  
Num Peaks: 713
301.07565	395148.0
286.0499	311311.0
168.00589	25919.0
463.1257	11563.0
140.01086	2887.0
258.05292	2459.0
255.06448	1852.0
285.04037	1408.0
283.0596	1129.0
121.02779	868.0
240.0419	747.0
257.04541	629.0
169.01408	484.0
160.05269	380.0
300.08572	378.0
119.04913	375.0
212.04709	342.0
213.05516	312.0
184.05209	303.0
229.04971	292.0
268.039	284.0
241.05052	235.0
216.04333	212.0
165.02081	200.0
269.04691	200.0
137.02318	196.0
112.01471	195.0
85.02912	174.0
202.06442	167.0
187.04175	158.0
201.05495	152.0
285.11313	150.0
300.06369	145.0
147.04451	111.0
285.08667	100.0
84.02065	100.0
230.05727	95.0
157.06578	95.0
69.03326	90.0
131.04913	88.0
97.02809	82.0
156.05968	77.0
128.06383	76.0
127.03847	71.0
258.03876	70.0
302.07742	70.0
214.02264	68.0
215.03539	68.0
185.0593	67.0
174.06924	63.0
285.01721	62.0
56.02533	59.0
120.05681	59.0
155.04828	59.0
171.04335	58.0
68.99664	58.0
259.05765	57.0
57.03341	57.0
145.04898	56.0
227.07076	55.0
139.99928	54.0
189.05632	52.0
144.05634	52.0
161.05913	51.0
109.02886	50.0
81.03397	50.0
173.06154	49.0
227.03386	49.0
301.8732	49.0
188.04634	48.0
139.00331	48.0
302.1268	48.0
186.03185	48.0
132.05563	47.0
55.01826	46.0
133.06485	44.0
302.32773	44.0
300.03143	43.0
301.97702	42.0
127.05724	42.0
61.02774	41.0
300.59323	41.0
302.30899	41.0
195.043	40.0
183.03175	39.0
302.27493	39.0
343.08267	39.0
183.045	39.0
287.40979	37.0
66.01069	37.0
181.06676	36.0
302.02637	35.0
285.01392	35.0
167.98813	33.0
302.60364	33.0
145.03011	32.0
287.03137	32.0
300.56775	32.0
302.09445	31.0
287.13757	31.0
300.38611	31.0
287.04962	30.0
300.6153	30.0
255.0332	30.0
302.17957	29.0
301.8494	29.0
302.19659	28.0
257.02814	28.0
302.37369	28.0
303.02802	28.0
302.39413	28.0
188.04231	28.0
283.01016	27.0
302.62408	27.0
286.86215	27.0
286.85217	27.0
285.79819	27.0
301.94128	27.0
285.60947	27.0
300.84628	27.0
167.45667	26.0
300.75116	26.0
302.61218	26.0
91.05483	26.0
302.68884	26.0
303.53287	26.0
300.55249	26.0
302.38049	25.0
73.02876	25.0
301.91916	25.0
286.70126	25.0
118.04143	25.0
286.72281	25.0
282.05371	25.0
303.88449	25.0
300.74438	25.0
300.69513	25.0
143.04953	24.0
167.04883	24.0
287.55096	24.0
303.55164	24.0
211.03714	24.0
300.00601	24.0
286.9119	24.0
302.01276	24.0
301.74219	24.0
303.62503	24.0
303.00073	23.0
93.03176	23.0
244.037	23.0
302.03998	23.0
287.2355	23.0
287.37991	23.0
287.09277	22.0
287.1077	22.0
302.21024	22.0
287.82007	22.0
302.91721	22.0
71.01325	22.0
302.4776	22.0
303.27356	22.0
303.05872	22.0
158.03572	22.0
87.04492	22.0
286.66974	21.0
301.81195	21.0
303.10815	21.0
288.22562	21.0
300.5304	21.0
303.35205	21.0
303.32816	21.0
302.42477	21.0
136.01501	21.0
302.5798	21.0
287.94635	20.0
285.72864	20.0
300.16547	20.0
303.25653	20.0
300.80722	20.0
445.11499	20.0
286.97659	20.0
163.03896	20.0
305.34427	20.0
293.60785	20.0
303.75815	20.0
99.04315	20.0
302.46567	20.0
285.14621	19.0
286.95007	19.0
286.819	19.0
303.36908	19.0
300.85648	19.0
287.0181	19.0
300.29446	19.0
301.70477	19.0
146.07463	19.0
302.65988	19.0
287.63565	19.0
65.03716	19.0
302.50143	19.0
302.0621	19.0
463.08987	19.0
302.22385	19.0
342.02408	19.0
293.50549	18.0
288.05273	18.0
302.25961	18.0
285.55981	18.0
302.67181	18.0
304.56265	18.0
285.82135	18.0
287.57254	18.0
302.5253	18.0
304.52505	18.0
300.01617	18.0
461.59891	18.0
285.59293	18.0
302.90018	18.0
303.44586	18.0
171.07921	18.0
184.04015	18.0
288.71802	18.0
273.07483	18.0
303.71548	18.0
303.19855	18.0
303.45099	18.0
302.93085	18.0
288.44348	17.0
288.4834	17.0
287.2886	17.0
287.31683	17.0
288.96268	17.0
299.67361	17.0
287.90979	17.0
286.90527	17.0
285.63098	17.0
286.7991	17.0
302.44522	17.0
299.98904	17.0
300.36914	17.0
239.03844	17.0
302.77576	17.0
302.85245	17.0
303.08258	17.0
303.13202	17.0
303.24118	17.0
269.00195	17.0
301.71497	17.0
285.51514	17.0
159.0457	17.0
303.82986	17.0
300.76816	17.0
139.05296	17.0
304.13379	17.0
126.04472	17.0
304.02451	17.0
304.19016	17.0
284.98911	16.0
213.02943	16.0
195.03479	16.0
285.6889	16.0
288.35202	16.0
288.28381	16.0
302.11319	16.0
122.00269	16.0
299.7923	16.0
288.08099	16.0
302.81836	16.0
302.63431	16.0
123.00974	16.0
293.57428	16.0
287.12595	16.0
303.81277	16.0
91.03988	16.0
301.69116	16.0
168.99881	16.0
293.78241	16.0
305.98465	16.0
293.39474	16.0
300.66794	16.0
305.33398	16.0
306.77667	15.0
304.88577	15.0
304.99353	15.0
302.70078	15.0
303.67792	15.0
300.65607	15.0
303.28891	15.0
304.08255	15.0
303.15421	15.0
303.17807	15.0
303.94083	15.0
291.40015	15.0
239.07175	15.0
142.03224	15.0
285.39432	15.0
286.75766	15.0
127.03295	15.0
109.02171	15.0
270.05673	15.0
287.0098	15.0
287.36496	15.0
286.01514	15.0
293.7337	14.0
73.04969	14.0
290.95895	14.0
286.7709	14.0
311.78882	14.0
304.25165	14.0
287.68716	14.0
304.70282	14.0
304.93881	14.0
285.75513	14.0
285.66077	14.0
299.85504	14.0
306.11487	14.0
300.4642	14.0
300.2673	14.0
284.96927	14.0
301.77963	14.0
304.01083	14.0
302.87631	14.0
211.07129	14.0
287.51941	14.0
302.96494	14.0
288.58655	14.0
68.99095	14.0
174.06279	14.0
304.63617	13.0
308.36719	13.0
286.44095	13.0
298.57767	13.0
298.43552	13.0
298.04819	13.0
304.42422	13.0
287.49448	13.0
302.94107	13.0
304.80542	13.0
307.78616	13.0
287.2554	13.0
268.01175	13.0
199.07675	13.0
294.83252	13.0
438.15424	13.0
303.3111	13.0
305.06879	13.0
95.01179	13.0
310.95236	13.0
306.38397	13.0
300.33517	13.0
287.62238	13.0
287.85162	13.0
303.21387	13.0
305.76199	13.0
300.50833	13.0
300.1485	13.0
305.59247	13.0
285.37283	13.0
287.75528	13.0
285.43735	13.0
284.07553	13.0
299.92966	13.0
287.97958	13.0
287.98956	13.0
283.29529	13.0
306.18857	13.0
299.41425	13.0
299.31427	13.0
288.46011	13.0
305.71231	13.0
152.06276	13.0
329.57999	13.0
303.9613	13.0
287.1608	13.0
255.01756	13.0
241.62717	13.0
338.59851	13.0
288.66974	13.0
291.04416	13.0
289.58069	13.0
240.5338	13.0
289.44571	13.0
331.47452	13.0
302.53891	13.0
291.32492	13.0
327.0813	13.0
289.34073	13.0
284.50653	13.0
374.23785	13.0
71.05039	13.0
304.06549	13.0
323.45676	13.0
397.05548	13.0
246.52339	13.0
304.10989	13.0
315.57892	13.0
304.17651	13.0
383.70581	13.0
288.76959	13.0
302.76041	13.0
290.57318	13.0
163.0027	12.0
224.73318	12.0
234.53986	12.0
164.99692	12.0
305.51544	12.0
303.46976	12.0
302.73996	12.0
232.13123	12.0
107.0499	12.0
237.05138	12.0
147.06708	12.0
146.03793	12.0
241.02466	12.0
242.77336	12.0
270.78146	12.0
303.98694	12.0
269.29117	12.0
304.77805	12.0
245.53407	12.0
170.03551	12.0
141.06859	12.0
128.04721	12.0
168.97334	12.0
255.20529	12.0
302.81152	12.0
299.13132	12.0
284.9263	12.0
309.97217	12.0
318.49637	12.0
292.43094	12.0
292.35056	12.0
300.22827	12.0
337.07559	12.0
290.77521	12.0
340.92731	12.0
290.50641	12.0
290.32614	12.0
290.07755	12.0
289.86075	12.0
350.45801	12.0
289.63235	12.0
367.27924	12.0
368.94974	12.0
289.37405	12.0
289.09088	12.0
389.14658	12.0
288.85947	12.0
430.09387	12.0
433.80457	12.0
287.194	12.0
287.44135	12.0
288.16409	12.0
461.58627	12.0
287.92642	12.0
287.60577	12.0
293.34946	12.0
292.0174	12.0
309.43787	12.0
295.13193	12.0
285.53497	12.0
299.88895	12.0
299.71429	12.0
299.15671	12.0
299.05847	12.0
307.10269	12.0
297.53439	12.0
307.52676	12.0
296.21478	12.0
308.20728	12.0
307.33444	12.0
294.29294	12.0
293.90161	12.0
309.21393	12.0
293.64813	12.0
339.21695	11.0
172.05161	11.0
94.03674	11.0
392.40884	11.0
305.39389	11.0
305.44696	11.0
314.04449	11.0
313.056	11.0
305.27924	11.0
455.31415	11.0
305.55481	11.0
462.79907	11.0
306.14914	11.0
178.12544	11.0
94.0035	11.0
321.09549	11.0
375.30341	11.0
168.66412	11.0
303.50558	11.0
167.43512	11.0
306.63602	11.0
322.25833	11.0
304.48233	11.0
304.28583	11.0
158.02957	11.0
350.92386	11.0
307.43918	11.0
155.03609	11.0
344.01938	11.0
325.07047	11.0
332.56848	11.0
308.26746	11.0
194.26004	11.0
53.03721	11.0
289.61401	11.0
294.01578	11.0
297.90958	11.0
275.75504	11.0
286.5769	11.0
289.04761	11.0
240.76472	11.0
243.08781	11.0
272.61862	11.0
246.10684	11.0
299.57019	11.0
249.07802	11.0
290.94727	11.0
289.71237	11.0
267.03299	11.0
265.53387	11.0
288.94272	11.0
288.30377	11.0
299.20584	11.0
288.12918	11.0
285.31989	11.0
285.23883	11.0
291.79654	11.0
220.38937	11.0
292.89169	11.0
291.74634	11.0
285.27191	11.0
284.34302	11.0
288.82285	11.0
207.02989	11.0
228.38022	11.0
230.03943	11.0
283.79498	11.0
203.58197	11.0
289.93579	11.0
209.05846	11.0
298.9501	10.0
306.94308	10.0
306.07376	10.0
83.01194	10.0
306.74237	10.0
367.07468	10.0
295.38437	10.0
297.75912	10.0
427.091	10.0
292.82632	10.0
196.43654	10.0
293.04593	10.0
293.15994	10.0
293.18845	10.0
336.68011	10.0
293.23206	10.0
291.13272	10.0
310.81595	10.0
310.6243	10.0
310.29471	10.0
286.62	10.0
293.69846	10.0
308.89026	10.0
300.35046	10.0
296.04456	10.0
290.86374	10.0
290.72012	10.0
305.29977	10.0
341.99692	10.0
234.84593	10.0
352.05679	10.0
240.9456	10.0
290.35117	10.0
237.86636	10.0
289.18082	10.0
289.26743	10.0
232.59402	10.0
245.89639	10.0
368.12808	10.0
287.53766	10.0
225.11508	10.0
221.2597	10.0
219.51932	10.0
189.04285	10.0
245.68604	10.0
240.01155	10.0
134.03708	10.0
304.91998	10.0
284.01776	10.0
288.56992	10.0
277.57468	10.0
276.89139	10.0
257.01401	10.0
288.52002	10.0
292.57834	10.0
269.6738	10.0
304.74557	10.0
287.47787	10.0
289.76071	10.0
387.69504	10.0
374.0787	9.0
338.06348	9.0
289.78406	9.0
393.38144	9.0
390.56982	9.0
291.51218	9.0
289.55902	9.0
371.80341	9.0
291.25137	9.0
291.21127	9.0
361.48929	9.0
371.49374	9.0
197.0231	9.0
321.37109	9.0
261.41968	9.0
226.02412	9.0
168.86642	9.0
230.63846	9.0
231.06851	9.0
158.07266	9.0
235.97595	9.0
156.04745	9.0
237.25198	9.0
303.91693	9.0
245.08156	9.0
252.88092	9.0
258.33777	9.0
258.46213	9.0
288.0278	9.0
299.08557	9.0
320.36234	9.0
282.40912	9.0
283.77188	9.0
284.4454	9.0
305.67636	9.0
300.20282	9.0
307.75522	9.0
295.83395	9.0
309.55502	9.0
293.30081	9.0
312.05173	9.0
293.08112	9.0
315.89041	9.0
288.75128	9.0
412.60654	8.0
391.7359	8.0
318.71317	8.0
212.02284	8.0
353.21912	8.0
169.48679	8.0
259.43613	8.0
111.00738	8.0
316.82239	8.0
354.07004	8.0
296.62115	8.0
348.8775	8.0
273.79227	7.0
430.79895	7.0
428.06714	7.0
278.51044	7.0
263.84808	7.0
425.44302	7.0
423.23792	7.0
419.66705	7.0
435.76303	7.0
445.69995	7.0
442.55649	7.0
443.88641	7.0
414.53253	7.0
448.19702	7.0
449.37344	7.0
452.3035	7.0
453.80026	7.0
261.8775	7.0
456.25714	7.0
457.5174	7.0
459.49921	7.0
418.0535	7.0
365.68741	7.0
413.38675	7.0
362.79022	7.0
369.39758	7.0
359.77075	7.0
358.00256	7.0
356.5697	7.0
354.65817	7.0
378.41006	7.0
379.5235	7.0
381.05334	7.0
385.50937	7.0
347.73511	7.0
389.7612	7.0
345.62524	7.0
344.38461	7.0
328.10767	7.0
324.01007	7.0
393.7778	7.0
394.93893	7.0
397.89902	7.0
399.5946	7.0
401.95526	7.0
404.02554	7.0
405.7085	7.0
407.8161	7.0
410.60562	7.0
314.4664	7.0
63.91572	6.0
57.03859	6.0

MSID: 8929
ID: 46
RETENTIONTIME: 13.44182
PRECURSORMZ: 479.1184
AREA: 36905376.0
PRECURSORTYPE: [M+H]+
SMILES: COC1=C(O[C@@H]2O[C@H](CO)[C@@H](O)[C@H](O)[C@H]2O)C=C2OC(=CC(=O)C2=C1O)C1=CC=C(O)C(O)=C1
NAME: nepitrin
FORMULA: C22H22O12
INCHIKEY: DMXHXBGUNHLMQO-IWLDQSELSA-N
CAS: 569-90-4
Molecular Weight: 478.409
Number of References: 42
Class: Flavones
Superclass: Flavonoids
Pathway: Shikimates and Phenylpropanoids
ppm: -0.5550000000198452
CMID: CM243
IONMODE: Positive
COLLISIONENERGY: 40±20eV
INSTRUMENTTYPE: AB SCIEX
INSTRUMENT: Q-TOF
Comment:  
Num Peaks: 273
317.06772	410839.0
302.04291	241316.0
479.11676	15505.0
168.00563	13194.0
140.01065	1614.0
169.01382	1494.0
274.04794	1493.0
137.02295	1426.0
271.05994	1293.0
301.03439	946.0
299.0563	696.0
273.04041	438.0
256.03635	412.0
135.04565	412.0
316.02222	345.0
200.04631	307.0
228.04105	299.0
284.03052	263.0
285.03992	262.0
229.04787	233.0
257.04187	192.0
135.04109	181.0
245.04439	168.0
176.0477	166.0
85.02898	161.0
316.00308	151.0
187.03879	141.0
232.03537	137.0
112.01453	122.0
165.01804	104.0
203.03145	104.0
246.04961	102.0
134.03688	102.0
69.03315	97.0
202.02652	95.0
218.05438	95.0
217.0533	88.0
183.02748	83.0
172.05005	82.0
84.02052	81.0
230.01976	80.0
163.0387	80.0
167.9904	74.0
231.02795	72.0
68.99572	71.0
97.0289	64.0
175.03555	64.0
204.04306	63.0
318.06604	63.0
147.0419	62.0
139.00424	61.0
136.05136	60.0
315.98566	58.0
145.04994	58.0
159.04297	55.0
173.05869	53.0
56.02378	53.0
81.03296	52.0
127.03938	51.0
318.19531	49.0
148.05072	49.0
316.56046	48.0
55.01672	48.0
303.08209	47.0
243.02942	47.0
166.99666	46.0
316.09363	44.0
126.04671	44.0
317.94904	43.0
155.04803	43.0
316.82712	41.0
189.05199	41.0
318.77383	41.0
317.87219	40.0
275.05081	39.0
302.95422	39.0
317.9368	38.0
211.03397	38.0
274.00415	38.0
302.86389	37.0
183.04338	37.0
301.13977	36.0
317.9892	36.0
302.55206	35.0
303.35837	35.0
318.48538	35.0
256.00031	35.0
133.02962	35.0
318.14291	35.0
316.42105	34.0
179.03477	34.0
319.06769	34.0
302.02078	33.0
318.40674	33.0
154.04234	33.0
303.0463	33.0
318.10797	33.0
243.05843	33.0
318.21802	33.0
318.04858	33.0
318.09052	33.0
123.00737	32.0
318.38052	32.0
199.0419	32.0
130.04294	32.0
177.05362	32.0
320.10944	32.0
316.8027	32.0
160.04996	31.0
162.03107	31.0
303.81058	31.0
158.03424	30.0
316.77133	30.0
319.46844	30.0
321.13712	30.0
318.68991	30.0
318.28268	29.0
260.03549	29.0
318.7179	29.0
303.25604	29.0
304.3537	29.0
443.09784	29.0
301.7077	29.0
316.68243	28.0
318.34384	28.0
316.08142	28.0
205.05017	28.0
289.07047	28.0
186.02887	28.0
303.6348	27.0
317.85822	27.0
316.69812	27.0
182.0351	27.0
317.90714	27.0
316.61621	27.0
303.31061	27.0
174.03021	27.0
319.26541	26.0
319.95001	26.0
318.03635	26.0
309.17557	26.0
303.73209	26.0
303.53922	26.0
306.82422	26.0
303.00027	26.0
321.92035	26.0
318.6532	26.0
320.39514	26.0
321.59888	26.0
197.06128	26.0
271.00995	26.0
322.07852	26.0
301.67538	26.0
216.04012	26.0
318.45569	26.0
301.34546	26.0
319.15167	25.0
316.85501	25.0
316.75217	25.0
315.96304	25.0
316.65454	25.0
319.88345	25.0
395.97638	25.0
284.01401	25.0
318.56931	25.0
303.72525	25.0
73.02865	25.0
461.10382	25.0
302.98151	25.0
318.51859	25.0
479.0889	25.0
302.83832	25.0
321.08093	25.0
149.06061	25.0
318.30539	25.0
301.77744	25.0
217.02733	25.0
109.02562	25.0
245.03365	24.0
318.3613	24.0
318.46967	24.0
304.65448	24.0
301.50189	24.0
318.94525	24.0
299.01904	24.0
302.77185	24.0
319.16742	24.0
305.12817	24.0
318.87003	24.0
313.00351	24.0
311.02786	24.0
131.04781	24.0
318.62524	23.0
303.14349	23.0
298.99194	23.0
303.06335	23.0
321.267	23.0
318.32635	23.0
201.0477	23.0
239.03352	23.0
303.17758	23.0
255.03281	23.0
319.52969	23.0
319.84842	23.0
316.72775	23.0
301.60223	23.0
305.0358	23.0
320.25314	23.0
315.52969	22.0
319.20065	22.0
359.07947	22.0
91.03506	22.0
309.61484	22.0
320.27069	21.0
367.36685	21.0
321.75519	21.0
411.54819	21.0
318.60776	21.0
302.6134	21.0
318.16736	21.0
161.05888	21.0
238.02914	21.0
317.76221	21.0
185.0217	21.0
300.96814	21.0
171.03795	21.0
57.03184	21.0
302.72586	21.0
306.47949	21.0
316.38098	21.0
243.02483	21.0
157.02995	20.0
319.62601	20.0
324.48749	20.0
376.46298	20.0
99.03812	20.0
186.02086	20.0
188.04471	20.0
320.92303	20.0
53.03499	20.0
319.33191	20.0
303.95914	20.0
301.75192	20.0
286.05112	20.0
287.05579	20.0
318.78958	19.0
273.99606	19.0
270.16574	18.0
299.94275	18.0
306.16751	18.0
304.90411	18.0
190.06195	16.0
395.43088	16.0
295.98175	16.0
365.34418	16.0
244.68729	16.0
167.98279	16.0
283.02127	16.0
55.01163	15.0
394.99863	14.0
477.10162	14.0
373.1051	14.0
97.01926	14.0
248.50914	14.0
477.99411	14.0
469.72427	14.0
471.5813	14.0
473.43771	14.0
61.02612	13.0
145.0688	13.0
117.03042	13.0
67.017	12.0
91.03786	12.0

MSID: 8930
ID: 295
RETENTIONTIME: 30.70798
PRECURSORMZ: 329.1007
AREA: 30372756.0
PRECURSORTYPE: [M+H]+
SMILES: COC1=CC=C(C=C1)C1=CC(=O)C2=C(O)C(OC)=C(OC)C=C2O1
NAME: 5-hydroxy-4',6,7-trimethoxyflavone
FORMULA: C18H16O6
INCHIKEY: QCDYOIZVELGOLZ-UHFFFAOYSA-N
CAS: 19103-54-9
Molecular Weight: 328.321
Number of References: 525
Class: Flavones
Superclass: Flavonoids
Pathway: Shikimates and Phenylpropanoids
ppm: -1.8150000000218824
CMID: CM243
IONMODE: Positive
COLLISIONENERGY: 40±20eV
INSTRUMENTTYPE: AB SCIEX
INSTRUMENT: Q-TOF
Comment:  
Num Peaks: 356
329.10489	169927.0
268.07224	127639.0
296.06766	103075.0
314.07867	37092.0
136.01479	23443.0
133.06462	22450.0
108.02065	19238.0
240.07791	15164.0
132.05766	14613.0
135.04449	11429.0
313.07104	9148.0
169.06473	8287.0
285.07626	7497.0
284.06845	4634.0
271.05991	4449.0
197.05989	4275.0
141.06952	4067.0
242.05779	3766.0
80.02575	3389.0
225.05446	3341.0
211.0752	3289.0
181.06514	2654.0
184.08899	2522.0
152.01057	2399.0
270.05142	2379.0
52.03125	1864.0
153.06898	1681.0
253.05029	1604.0
299.05627	1587.0
212.08382	1415.0
183.08047	1372.0
286.08255	997.0
295.06076	979.0
133.99944	972.0
239.06984	935.0
117.03358	919.0
267.06613	787.0
139.00307	754.0
243.06602	747.0
77.03851	733.0
124.01635	725.0
68.99734	646.0
222.06567	608.0
266.05716	587.0
151.05333	544.0
168.0564	542.0
209.05951	539.0
152.06252	497.0
118.04123	493.0
194.07275	486.0
89.0389	481.0
153.01932	477.0
207.04504	451.0
158.07239	408.0
179.04916	407.0
195.07961	403.0
311.09	398.0
79.05446	380.0
196.05203	375.0
241.05011	373.0
103.05467	363.0
228.04102	335.0
50.01516	327.0
182.07339	310.0
201.05461	308.0
297.07458	303.0
151.04008	302.0
200.04767	301.0
298.04599	299.0
96.02048	293.0
106.0045	281.0
51.02312	276.0
179.03345	270.0
107.04971	269.0
198.06894	258.0
283.05911	255.0
165.02054	241.0
254.0593	241.0
159.04419	223.0
68.02537	218.0
105.0698	215.0
237.05249	214.0
183.04469	213.0
139.05272	209.0
185.06032	207.0
226.06203	207.0
256.03632	206.0
283.10031	201.0
154.07758	200.0
269.04324	193.0
155.08459	188.0
165.06834	184.0
180.05705	183.0
257.08109	183.0
210.06898	177.0
155.04922	175.0
213.05479	173.0
115.05435	168.0
157.06429	164.0
269.0802	164.0
255.06718	163.0
181.01242	163.0
150.0451	159.0
171.07892	158.0
172.08728	154.0
256.07394	152.0
281.04257	152.0
311.05374	146.0
267.19421	140.0
328.01309	138.0
183.0712	132.0
78.00949	131.0
170.0697	131.0
102.04502	129.0
107.01222	128.0
252.04018	124.0
128.0614	122.0
328.02905	121.0
140.06163	120.0
145.06407	119.0
90.04536	115.0
182.02054	115.0
199.07228	114.0
224.0462	112.0
223.03729	111.0
129.07195	111.0
298.08658	111.0
161.05762	110.0
181.048	110.0
214.06096	106.0
92.02639	106.0
137.02409	104.0
271.03732	102.0
164.01181	99.0
79.01876	98.0
243.05077	97.0
131.0489	93.0
69.03314	90.0
132.04303	87.0
250.06319	83.0
163.00366	82.0
282.05652	80.0
229.08638	80.0
241.12158	79.0
167.0498	79.0
125.02399	79.0
127.0537	76.0
313.03467	76.0
166.99664	76.0
223.11336	75.0
227.06889	75.0
297.056	74.0
238.06236	74.0
215.06949	73.0
143.04929	71.0
153.04718	69.0
173.05995	68.0
265.05328	68.0
95.05077	68.0
177.05621	67.0
239.0562	65.0
97.02696	64.0
286.06268	64.0
200.08507	63.0
91.05561	61.0
83.0127	61.0
123.00953	61.0
152.03836	61.0
174.06766	61.0
229.05525	60.0
187.07761	57.0
193.06442	57.0
159.08	55.0
295.09274	55.0
186.06625	54.0
285.04153	53.0
167.08525	52.0
144.05374	52.0
226.0576	52.0
68.02133	52.0
225.03241	51.0
171.04434	50.0
195.04268	50.0
284.03873	49.0
299.01901	48.0
164.06073	48.0
209.04111	48.0
154.04475	48.0
156.05452	47.0
283.17117	47.0
295.10449	47.0
78.04669	47.0
301.14651	46.0
267.1734	46.0
313.02078	46.0
251.07243	46.0
152.02869	45.0
259.09189	44.0
133.98016	43.0
135.00694	43.0
178.99544	42.0
199.03911	42.0
163.05495	42.0
151.99609	42.0
223.0724	42.0
240.04301	41.0
241.08508	41.0
301.18051	40.0
102.03711	40.0
265.15533	40.0
165.00922	40.0
142.04134	40.0
195.11928	39.0
55.01671	39.0
111.00616	39.0
115.0491	38.0
154.02652	38.0
222.04524	37.0
183.02879	37.0
268.04657	37.0
194.05638	36.0
66.00978	36.0
126.0456	36.0
155.0407	35.0
166.07779	35.0
327.98294	34.0
152.04922	34.0
82.00653	34.0
117.01981	33.0
138.02907	33.0
270.54092	33.0
139.01924	32.0
107.0406	32.0
243.13628	32.0
63.02378	32.0
215.10971	32.0
267.71155	31.0
208.04965	31.0
185.01768	31.0
266.0332	31.0
268.99826	30.0
212.04672	30.0
207.02251	30.0
271.0228	30.0
93.07128	30.0
228.02771	30.0
121.0319	29.0
298.03079	29.0
148.05309	29.0
280.03537	29.0
143.08325	29.0
51.01752	29.0
132.63341	29.0
131.62808	29.0
169.04181	29.0
158.06007	28.0
267.23264	28.0
147.04308	28.0
89.03243	28.0
257.04028	28.0
149.09286	28.0
297.70285	27.0
182.00996	27.0
189.07082	27.0
53.03998	27.0
217.04605	26.0
311.12802	26.0
297.02393	26.0
267.02292	26.0
299.35782	26.0
255.05624	26.0
180.09386	25.0
223.03143	25.0
271.48898	25.0
175.0744	25.0
296.90411	25.0
286.04114	25.0
254.27634	25.0
172.04874	25.0
201.08655	25.0
169.7901	25.0
211.03394	25.0
264.21045	25.0
243.02481	25.0
202.10028	25.0
146.07083	25.0
266.30322	25.0
329.56165	24.0
243.08435	24.0
150.99916	24.0
283.14645	24.0
263.05597	24.0
55.05449	24.0
265.0437	24.0
311.02954	24.0
235.03918	24.0
236.04326	24.0
119.04785	24.0
237.03439	24.0
287.09891	24.0
157.0287	24.0
208.09344	24.0
141.04625	24.0
182.05225	24.0
239.14404	24.0
312.02524	24.0
286.82681	23.0
328.8544	23.0
255.12976	23.0
268.86176	23.0
205.09222	23.0
187.0334	23.0
270.19308	23.0
138.97766	23.0
267.85901	23.0
315.01666	23.0
328.10178	22.0
328.72122	22.0
64.0292	22.0
223.10165	22.0
268.68835	22.0
285.17548	22.0
184.04648	22.0
140.01064	22.0
281.85425	22.0
133.04768	22.0
295.53033	22.0
229.03894	21.0
269.11554	21.0
296.02383	21.0
225.12793	21.0
135.56512	21.0
218.56952	21.0
228.08096	20.0
221.05542	20.0
313.55298	20.0
237.1656	20.0
269.02396	20.0
107.65654	20.0
158.03668	20.0
194.04137	20.0
268.92438	20.0
270.16409	20.0
269.18784	19.0
269.9436	19.0
227.0379	19.0
277.0849	18.0
321.63745	18.0
252.01219	18.0
245.08421	18.0
104.0583	17.0
200.02412	17.0
231.0979	15.0
101.0246	13.0
315.81851	13.0
73.95135	12.0

MSID: 8931
ID: 189
RETENTIONTIME: 27.64393
PRECURSORMZ: 333.2054
AREA: 29206032.0
PRECURSORTYPE: [M+H]+
SMILES: [H][C@@]12CCC3=C(C(O)=C(O)C(=C3)C(C)C)[C@]1(CCCC2(C)C)C(O)=O
NAME: carnosic acid
FORMULA: C20H28O4
INCHIKEY: QRYRORQUOLYVBU-VBKZILBWSA-N
CAS: nan
Molecular Weight: 332.44
Number of References: 219
Class: Abietane diterpenoids
Superclass: Diterpenoids
Pathway: Terpenoids
ppm: -1.1850000000208638
CMID: CM243
IONMODE: Positive
COLLISIONENERGY: 40±20eV
INSTRUMENTTYPE: AB SCIEX
INSTRUMENT: Q-TOF
Comment:  
Num Peaks: 464
285.18509	84339.0
215.1066	28496.0
205.12144	24411.0
191.10686	21851.0
297.18396	20806.0
243.13753	17976.0
217.12228	12827.0
231.13783	11910.0
181.06493	10895.0
241.12131	10140.0
149.05922	10129.0
163.07602	9469.0
237.12762	9381.0
199.07619	9293.0
153.07002	9182.0
145.06508	8579.0
255.13728	7719.0
95.08599	7232.0
227.10701	7219.0
200.08345	6717.0
189.09215	6710.0
171.08002	6178.0
315.19711	6143.0
195.07938	6114.0
242.13065	5953.0
229.12317	5856.0
167.08505	5573.0
333.20724	5497.0
225.12767	5492.0
165.08955	5441.0
223.11163	5092.0
165.07068	5061.0
183.08026	5000.0
173.05975	4985.0
201.09048	4960.0
152.06233	4952.0
131.04988	4888.0
279.17361	4795.0
128.06236	4780.0
257.15305	4731.0
157.06534	4666.0
141.07051	4598.0
203.10655	4538.0
143.08426	4316.0
197.09679	4313.0
209.0961	4285.0
155.08443	4201.0
259.13416	4148.0
213.09172	3754.0
179.08566	3537.0
185.09608	3357.0
187.07605	3159.0
161.05867	3140.0
254.12926	2925.0
129.07069	2647.0
154.07741	2606.0
267.17468	2437.0
55.0537	2351.0
182.07318	2282.0
239.10591	2281.0
67.0538	2226.0
169.10147	2220.0
166.07761	2176.0
169.06581	2152.0
175.0742	2124.0
69.06969	2077.0
115.05422	2020.0
117.06947	2003.0
233.11794	1920.0
193.08733	1904.0
256.14731	1773.0
193.10094	1739.0
81.06989	1562.0
187.10954	1520.0
103.05356	1507.0
273.14688	1484.0
221.0974	1477.0
143.04912	1465.0
180.09364	1464.0
178.07788	1448.0
208.08755	1413.0
142.07736	1398.0
147.04408	1397.0
268.14569	1389.0
270.1622	1382.0
211.07495	1295.0
127.05356	1288.0
209.13292	1273.0
188.08342	1259.0
159.07983	1254.0
211.11053	1220.0
85.065	1216.0
214.10085	1191.0
222.10338	1191.0
202.10005	1184.0
91.05364	1160.0
83.08489	1153.0
93.06929	1121.0
253.12323	1096.0
111.08034	1094.0
198.06734	1090.0
107.08506	1065.0
172.08708	1055.0
199.10936	1034.0
269.15381	1029.0
207.08005	1014.0
225.08946	1003.0
125.09613	999.0
228.1162	963.0
184.08878	907.0
213.12747	892.0
194.10664	884.0
179.07124	869.0
271.17084	867.0
123.04306	863.0
235.11099	854.0
196.08746	853.0
179.10532	833.0
251.14198	812.0
151.05315	806.0
207.11668	790.0
212.08357	769.0
57.06949	768.0
174.06746	763.0
226.09859	762.0
187.08945	727.0
207.1026	726.0
185.05878	711.0
199.10245	689.0
194.0739	684.0
216.1147	681.0
221.11778	681.0
245.15446	672.0
236.11823	671.0
109.10117	667.0
225.11298	644.0
210.10281	640.0
156.09227	633.0
157.10094	630.0
251.17923	629.0
169.07982	621.0
181.10051	618.0
77.03842	613.0
168.09302	610.0
177.07034	607.0
79.05437	595.0
170.07205	574.0
239.14226	568.0
137.05948	566.0
203.08701	547.0
158.0722	541.0
192.09378	532.0
197.12978	532.0
187.09882	528.0
160.05099	522.0
240.11559	522.0
195.11632	505.0
143.07021	495.0
177.0925	486.0
105.06968	450.0
144.05592	445.0
287.20312	444.0
186.06738	440.0
119.08512	438.0
191.08655	418.0
183.11604	415.0
162.06702	412.0
267.13788	410.0
219.11548	402.0
282.15982	399.0
275.16418	391.0
173.09454	386.0
219.13577	381.0
245.11766	380.0
133.10063	380.0
137.09502	371.0
190.07655	360.0
204.09317	345.0
224.11632	345.0
230.12939	344.0
249.12679	340.0
170.10782	337.0
195.10948	329.0
168.05746	321.0
133.06447	317.0
131.08464	294.0
208.12428	293.0
198.10593	293.0
264.15286	291.0
202.09169	284.0
303.19595	283.0
197.06104	275.0
151.07481	273.0
157.08376	257.0
184.0529	256.0
182.11018	255.0
97.06448	237.0
250.13414	236.0
150.06653	232.0
164.0618	230.0
239.1786	228.0
202.07639	228.0
55.0181	225.0
139.05373	224.0
233.15382	211.0
221.13525	208.0
194.09436	201.0
59.0485	201.0
148.05173	195.0
203.07445	189.0
205.10742	189.0
206.10872	188.0
176.06177	188.0
159.11565	185.0
150.04733	184.0
65.03776	182.0
206.07358	180.0
71.04854	180.0
261.14978	178.0
159.04524	177.0
180.05817	173.0
220.08643	171.0
238.13614	169.0
165.05557	168.0
185.13206	167.0
196.1245	164.0
57.03325	164.0
247.16896	163.0
147.0809	162.0
126.04546	156.0
161.0972	153.0
186.10345	152.0
247.13202	151.0
53.03849	151.0
135.07735	148.0
287.16495	147.0
190.09952	146.0
219.10678	145.0
145.10165	144.0
209.08476	144.0
122.0705	142.0
144.09236	139.0
231.10805	136.0
171.11844	135.0
269.18753	131.0
129.09071	130.0
121.09965	130.0
216.08015	125.0
83.04919	123.0
130.07962	122.0
253.1575	122.0
97.10211	120.0
227.14096	120.0
245.13147	119.0
261.16403	119.0
116.06178	116.0
155.04906	115.0
119.04878	115.0
146.07303	113.0
156.05435	110.0
160.08817	110.0
132.05751	108.0
234.10442	108.0
201.12799	108.0
99.07991	107.0
222.13986	106.0
192.07884	106.0
177.056	105.0
287.18323	103.0
233.14336	101.0
178.06482	101.0
235.13202	100.0
69.03307	99.0
171.04543	98.0
284.24973	94.0
121.06516	94.0
193.12407	93.0
107.04959	92.0
252.15186	92.0
238.10138	91.0
236.15134	91.0
175.11308	90.0
283.17087	90.0
211.1461	89.0
161.08104	89.0
273.18411	88.0
257.12479	84.0
172.04984	84.0
190.06981	83.0
205.06393	83.0
164.08186	82.0
189.05309	81.0
224.15443	81.0
272.14099	80.0
73.02772	79.0
218.09171	78.0
176.08125	78.0
214.0865	77.0
131.07231	77.0
217.08621	77.0
271.15311	77.0
135.0432	75.0
140.06378	75.0
113.09605	74.0
196.12039	74.0
163.05225	74.0
109.02855	73.0
180.07524	73.0
127.04252	73.0
151.03992	71.0
212.11638	68.0
174.10236	68.0
198.08662	67.0
123.03329	67.0
144.05005	66.0
263.14462	64.0
232.12161	63.0
218.10762	63.0
204.11276	61.0
208.07202	61.0
170.09633	60.0
291.16199	60.0
252.11142	60.0
253.14972	60.0
244.11435	59.0
257.11377	59.0
198.04666	58.0
247.15973	58.0
244.14037	57.0
145.08868	56.0
210.13972	56.0
281.15063	55.0
130.03941	54.0
123.11803	54.0
216.09886	53.0
87.07848	53.0
282.14832	53.0
119.07443	53.0
257.18918	53.0
164.04799	52.0
97.06158	51.0
133.08368	51.0
270.12677	51.0
191.07166	51.0
194.05342	51.0
221.06972	50.0
147.11655	50.0
158.10793	50.0
51.02166	49.0
201.07243	49.0
71.08405	48.0
223.08092	48.0
187.05595	48.0
239.08015	47.0
167.04834	47.0
171.10692	47.0
180.0529	46.0
109.06026	46.0
265.15823	46.0
157.04448	46.0
226.13245	46.0
163.0435	45.0
249.16544	45.0
77.03069	44.0
142.06218	43.0
229.15727	43.0
209.06776	43.0
225.07182	43.0
143.10886	43.0
256.11282	42.0
196.06827	42.0
66.04631	41.0
254.10115	41.0
151.11334	41.0
230.11305	41.0
182.056	40.0
102.04391	40.0
145.04739	40.0
284.26459	39.0
136.05118	39.0
246.13841	39.0
201.05716	38.0
254.09023	38.0
205.09059	38.0
215.08217	37.0
104.06017	37.0
189.12717	37.0
87.04285	37.0
216.42149	35.0
177.04297	35.0
284.18039	35.0
144.043	34.0
259.17044	34.0
206.09747	34.0
279.13925	33.0
156.04578	33.0
137.08011	33.0
125.06327	32.0
253.0983	32.0
154.05795	32.0
243.1024	32.0
57.02733	31.0
80.06246	31.0
226.0706	31.0
156.07393	31.0
55.01156	30.0
51.02026	30.0
170.52834	30.0
196.05867	30.0
149.08553	30.0
174.04808	30.0
155.10638	29.0
85.05326	29.0
149.03889	29.0
169.04671	29.0
214.13524	28.0
92.05541	28.0
150.03773	28.0
267.11386	28.0
185.03879	27.0
269.12326	27.0
235.07646	26.0
200.12086	26.0
238.08324	26.0
230.37462	26.0
258.91034	26.0
252.12074	26.0
211.0408	25.0
115.07523	25.0
241.08632	25.0
237.26639	25.0
258.28036	25.0
180.47105	25.0
301.18188	25.0
128.04352	24.0
190.4805	24.0
295.1698	24.0
264.13217	24.0
101.03826	24.0
212.05362	24.0
231.0887	24.0
78.04487	24.0
160.53583	24.0
286.18658	24.0
253.07805	23.0
230.09077	23.0
162.04459	23.0
207.95477	23.0
94.07922	23.0
91.04056	23.0
138.04501	23.0
207.06032	22.0
127.64043	22.0
227.06421	22.0
162.53867	22.0
224.36124	22.0
200.01697	21.0
291.8208	21.0
118.04109	21.0
289.17667	21.0
173.13319	20.0
259.10422	20.0
315.14841	20.0
81.03286	19.0

MSID: 8932
ID: 346
RETENTIONTIME: 31.44938
PRECURSORMZ: 361.1998
AREA: 28989002.0
PRECURSORTYPE: [M+H]+
SMILES: [H][C@@]12[C@@H]3OC(=O)[C@@]1(CCCC2(C)C)C1=C(C=C(C(C)C)C(O)=C1O)[C@@H]3OC
NAME: 7-methoxyrosmanol
FORMULA: C21H28O5
INCHIKEY: XNPVHIQPSAZTLC-NYUBLWNDSA-N
CAS: 113085-62-4
Molecular Weight: 360.45
Number of References: 23
Class: Abietane diterpenoids
Superclass: Diterpenoids
Pathway: Terpenoids
ppm: -1.7000000000280124
CMID: CM243
IONMODE: Positive
COLLISIONENERGY: 40±20eV
INSTRUMENTTYPE: AB SCIEX
INSTRUMENT: Q-TOF
Comment:  
Num Peaks: 368
109.10131	33758.0
177.09142	24580.0
273.18445	14685.0
245.11797	14572.0
301.17886	14029.0
361.202	10485.0
237.11284	10234.0
283.16956	9315.0
205.08664	7399.0
215.10686	7340.0
315.19403	7213.0
67.05389	7006.0
161.06012	6885.0
191.10574	6647.0
217.12256	5334.0
231.10089	4624.0
241.1216	3964.0
149.0594	3670.0
165.09102	3666.0
203.10541	3389.0
149.09648	3068.0
255.13918	3038.0
223.11191	2989.0
219.10126	2778.0
329.17419	2567.0
251.12833	2459.0
175.07571	2444.0
197.09703	2415.0
297.18433	2186.0
267.17343	2153.0
259.09665	2084.0
55.05377	1728.0
157.0643	1719.0
131.05005	1708.0
81.06999	1705.0
225.12648	1661.0
173.05997	1487.0
169.10168	1434.0
69.06977	1425.0
231.13515	1414.0
185.09631	1384.0
265.15854	1304.0
123.0443	1194.0
95.08515	1190.0
243.13782	1183.0
187.07494	1140.0
259.1329	1133.0
229.12346	1040.0
199.11237	1021.0
171.08022	1014.0
199.07645	1003.0
213.1263	987.0
200.08371	986.0
183.07916	929.0
188.08365	919.0
129.07085	915.0
149.08212	897.0
257.15335	864.0
227.1058	853.0
213.09056	847.0
187.10977	815.0
240.11588	814.0
181.06384	812.0
225.1162	792.0
141.07069	791.0
195.11794	785.0
179.10817	743.0
154.07759	738.0
201.09074	681.0
195.07962	681.0
153.069	675.0
149.07137	665.0
189.09103	640.0
254.12958	639.0
143.0493	625.0
128.0614	620.0
145.06409	611.0
172.08858	607.0
180.09387	605.0
211.10936	579.0
203.06912	578.0
159.08125	568.0
135.04451	548.0
311.1626	547.0
103.05468	517.0
209.0822	516.0
185.06033	501.0
182.07208	495.0
202.1003	469.0
209.09636	462.0
285.18213	462.0
189.05467	446.0
155.08461	429.0
212.0824	428.0
167.08273	415.0
163.07372	411.0
83.08589	408.0
208.08781	407.0
169.06474	400.0
227.1442	395.0
142.07753	386.0
79.05447	384.0
179.08719	382.0
239.1062	375.0
133.06351	372.0
209.11618	370.0
183.06326	368.0
157.09868	364.0
91.05469	351.0
233.11823	349.0
152.06131	344.0
216.07755	340.0
107.08722	328.0
225.08974	327.0
271.16635	326.0
221.0802	322.0
239.14406	318.0
333.20407	315.0
143.0856	308.0
255.17358	306.0
147.08109	287.0
115.05437	283.0
211.07664	277.0
170.07355	272.0
230.09552	266.0
226.06352	265.0
229.0864	264.0
105.06981	263.0
162.06847	257.0
131.08592	256.0
174.06897	256.0
137.0585	255.0
127.05482	251.0
147.04309	250.0
198.10342	248.0
171.11609	241.0
184.089	240.0
93.0694	238.0
198.06758	232.0
224.11952	227.0
253.16093	225.0
222.10219	223.0
269.11719	221.0
65.03863	218.0
221.09476	212.0
193.09982	205.0
207.08031	204.0
269.15414	203.0
202.06131	198.0
269.1911	196.0
156.09247	193.0
196.08908	186.0
241.08662	186.0
144.05728	185.0
213.1163	182.0
85.06421	182.0
178.07549	175.0
177.07578	175.0
237.16411	173.0
163.03619	171.0
183.11494	170.0
226.10033	169.0
197.13278	168.0
207.11412	166.0
263.12747	165.0
166.0778	165.0
159.11584	163.0
181.10205	163.0
195.09331	157.0
230.12968	155.0
158.07118	152.0
77.0368	151.0
255.10788	147.0
160.05243	146.0
219.09111	143.0
268.14282	140.0
244.10854	138.0
250.13445	135.0
215.08675	134.0
194.07277	133.0
272.13971	133.0
210.10449	132.0
217.08792	130.0
197.05991	127.0
205.11609	127.0
212.11949	126.0
259.07458	126.0
259.17075	124.0
214.10254	124.0
184.04915	123.0
121.10088	119.0
201.0574	119.0
241.10031	118.0
195.10562	116.0
107.04871	115.0
117.07174	114.0
192.09402	111.0
189.06949	109.0
258.12646	107.0
293.15109	106.0
243.11797	104.0
169.08385	104.0
168.0907	102.0
151.07381	100.0
182.10909	99.0
59.04858	97.0
235.10829	96.0
226.1342	96.0
145.10301	95.0
239.18193	94.0
223.08997	92.0
186.06761	92.0
259.15814	91.0
168.05641	90.0
185.13229	89.0
190.07814	88.0
193.12024	87.0
229.10123	87.0
253.12042	87.0
222.14014	87.0
213.05196	86.0
71.05028	85.0
217.04897	84.0
291.15564	83.0
271.13409	83.0
173.08574	82.0
189.0439	82.0
218.12669	81.0
174.10515	79.0
111.07944	76.0
57.03405	76.0
119.05107	75.0
236.11551	74.0
190.06194	74.0
187.06288	73.0
227.07039	73.0
228.07802	73.0
265.13464	72.0
53.03784	71.0
143.07507	70.0
221.11806	70.0
343.19098	70.0
167.07133	70.0
267.14459	69.0
282.16183	69.0
242.13248	68.0
128.05476	67.0
157.08885	67.0
207.10144	66.0
257.12354	66.0
177.06404	66.0
79.05098	65.0
199.03636	64.0
175.06146	64.0
204.07523	64.0
157.0459	64.0
177.05493	64.0
148.05072	63.0
129.05972	63.0
287.13046	62.0
116.06192	62.0
209.05954	62.0
188.04739	61.0
267.13501	61.0
241.15506	60.0
134.07202	60.0
186.10503	60.0
131.06462	60.0
73.06464	59.0
176.04639	58.0
135.08208	58.0
55.01817	57.0
151.05334	57.0
119.0842	57.0
187.03877	57.0
223.07535	55.0
208.12172	55.0
160.09209	54.0
210.13857	53.0
137.09633	53.0
139.0562	53.0
221.13116	53.0
244.0764	52.0
97.0646	51.0
191.07324	51.0
144.09254	51.0
235.09778	51.0
211.1478	50.0
256.11316	50.0
188.06754	48.0
181.08888	48.0
167.04855	48.0
193.06444	48.0
94.07648	47.0
165.05452	47.0
233.10028	47.0
136.05249	47.0
176.08537	47.0
240.09918	46.0
268.11395	46.0
146.07321	46.0
133.0974	46.0
176.06068	45.0
147.07277	45.0
204.11441	45.0
273.14236	44.0
297.15732	44.0
61.02841	44.0
216.11066	44.0
238.1319	44.0
231.0726	43.0
224.08434	43.0
141.05673	43.0
240.07794	42.0
161.09616	42.0
202.07802	41.0
159.06396	41.0
232.12488	40.0
232.10548	40.0
211.09514	40.0
265.11868	40.0
219.1375	40.0
131.03323	39.0
57.06882	38.0
224.15912	37.0
227.17815	37.0
273.11322	37.0
143.06569	37.0
218.08765	37.0
117.03253	36.0
247.09537	36.0
246.12181	36.0
194.10278	36.0
137.04129	35.0
247.14464	35.0
245.0919	35.0
206.11038	34.0
238.09412	34.0
172.06674	34.0
237.07814	33.0
151.03889	33.0
239.09409	33.0
156.05453	32.0
189.13008	31.0
284.17249	31.0
152.04803	31.0
130.0407	30.0
275.1499	30.0
103.03877	30.0
180.05576	30.0
126.04452	30.0
106.07713	29.0
281.11813	29.0
249.11935	29.0
212.05959	28.0
193.08485	28.0
93.0609	27.0
150.06552	27.0
164.06075	27.0
127.03937	27.0
195.05226	27.0
230.07472	27.0
291.12057	26.0
225.06624	26.0
214.39642	25.0
194.0482	25.0
80.06256	24.0
300.20572	23.0

MSID: 8933
ID: 401
RETENTIONTIME: 32.63527
PRECURSORMZ: 279.231
AREA: 27765798.0
PRECURSORTYPE: [M+H]+
SMILES: CC\C=C/C\C=C/C\C=C/CCCCCCCC(O)=O
NAME: (9Z,12Z,15Z)-octadeca-9-12,15-trienoic acid
FORMULA: C18H30O2
INCHIKEY: DTOSIQBPPRVQHS-PDBXOOCHSA-N
CAS: 463-40-1
Molecular Weight: 278.435
Number of References: 21116
Class: Unsaturated fatty acids
Superclass: Fatty Acids and Conjugates
Pathway: Fatty acids
ppm: -1.4050000000338514
CMID: CM243
IONMODE: Positive
COLLISIONENERGY: 40±20eV
INSTRUMENTTYPE: AB SCIEX
INSTRUMENT: Q-TOF
Comment:  
Num Peaks: 152
67.05392	79452.0
81.07003	57733.0
95.08521	41210.0
79.0545	13970.0
109.10136	11459.0
55.05453	11452.0
279.23138	8877.0
93.0704	7291.0
123.11607	5259.0
65.03866	4558.0
69.06981	4368.0
91.05473	4219.0
107.08525	4166.0
173.1335	3818.0
137.1331	3646.0
131.086	3333.0
121.10094	2892.0
77.03856	2758.0
135.11629	2461.0
53.03858	2323.0
159.11717	2009.0
145.10074	1905.0
149.13124	1868.0
83.08504	1650.0
187.14873	1554.0
151.14853	1509.0
105.06886	1480.0
209.15453	1419.0
147.11681	1417.0
261.22147	1414.0
133.10086	1266.0
119.08533	1150.0
223.17055	1109.0
243.20973	1082.0
195.13855	1036.0
191.1424	947.0
177.12801	815.0
161.13229	746.0
57.0696	738.0
85.06425	738.0
117.06968	722.0
149.09656	693.0
97.10132	688.0
71.04867	688.0
163.1476	653.0
163.11258	583.0
205.15828	503.0
181.12325	499.0
167.10687	449.0
97.06465	399.0
237.18535	394.0
66.04642	341.0
179.14365	331.0
177.16451	323.0
135.07986	293.0
83.04933	289.0
51.02316	275.0
57.03334	265.0
201.16446	264.0
175.14839	260.0
129.0687	255.0
99.08106	253.0
111.08157	232.0
165.16284	217.0
149.11569	217.0
127.07587	213.0
111.11667	193.0
165.12886	171.0
149.02002	152.0
153.0909	151.0
141.09055	148.0
115.05338	144.0
130.07762	143.0
73.06468	140.0
219.21446	138.0
80.06173	137.0
113.05875	135.0
137.09412	135.0
59.04861	134.0
163.13008	127.0
125.09854	123.0
101.06108	119.0
71.08582	118.0
139.11403	117.0
50.01519	115.0
143.08568	110.0
123.08131	106.0
128.06148	102.0
135.09579	99.0
219.17531	97.0
116.06303	96.0
151.11121	94.0
121.0643	93.0
137.11246	91.0
153.12726	90.0
137.11934	87.0
233.22752	85.0
66.83916	81.0
55.01892	80.0
171.1149	80.0
99.04401	78.0
177.14365	77.0
115.07648	75.0
179.18166	74.0
113.09728	74.0
103.05374	71.0
85.02812	69.0
127.05379	67.0
94.07653	66.0
69.03318	65.0
155.10664	63.0
131.06917	62.0
233.19162	60.0
139.07591	57.0
157.10367	57.0
128.05815	57.0
80.81186	57.0
80.8057	54.0
83.06361	53.0
167.14107	52.0
193.16252	51.0
77.03082	51.0
189.16251	49.0
217.19194	48.0
97.07816	47.0
144.09497	45.0
121.02982	44.0
109.06454	44.0
158.10944	43.0
87.04391	43.0
183.13889	41.0
142.07643	40.0
107.04978	39.0
125.1336	39.0
215.18311	38.0
129.09094	35.0
181.15752	35.0
123.10195	34.0
116.05459	34.0
197.15488	32.0
73.02785	32.0
119.07143	32.0
67.9164	31.0
129.05423	30.0
109.0584	30.0
87.0823	30.0
118.07642	29.0
147.08235	27.0
81.68407	25.0
141.06728	25.0
55.04145	23.0
85.10129	21.0

MSID: 8934
ID: 384
RETENTIONTIME: 32.11918
PRECURSORMZ: 299.1644
AREA: 27693560.0
PRECURSORTYPE: [M+H]+
SMILES: CC(C)C1=CC2=C(C(O)=C1O)C1=C(C=C2)C(C)(C)CCC1=O
NAME: arucadiol
FORMULA: C19H22O3
INCHIKEY: CEIJAQIIDANFLF-UHFFFAOYSA-N
CAS: 105037-85-2
Molecular Weight: 298.382
Number of References: 18
Class: Abeoabietane diterpenoids
Superclass: Diterpenoids
Pathway: Terpenoids
ppm: -0.32000000004472895
CMID: CM243
IONMODE: Positive
COLLISIONENERGY: 40±20eV
INSTRUMENTTYPE: AB SCIEX
INSTRUMENT: Q-TOF
Comment:  
Num Peaks: 439
299.1665	113514.0
239.10628	51803.0
256.10852	43043.0
281.15433	34395.0
241.08517	32128.0
195.07968	24774.0
257.11731	23358.0
270.12558	22272.0
211.11086	18045.0
284.13953	14386.0
181.0652	12821.0
223.07687	11750.0
196.08777	11652.0
165.06967	11349.0
197.05997	10222.0
251.10667	9681.0
255.1017	9628.0
169.06479	9473.0
224.08295	8983.0
237.09178	8797.0
152.06256	8391.0
209.09642	8320.0
269.11725	8252.0
193.10124	8070.0
167.08531	7932.0
253.15634	7283.0
178.07816	7074.0
227.07045	6106.0
221.09628	6099.0
266.13077	5841.0
238.10023	5616.0
153.07027	4695.0
214.06248	4639.0
233.09737	4172.0
141.06956	4160.0
213.09062	3906.0
252.11491	3534.0
182.07214	3503.0
215.07101	3398.0
199.07512	3168.0
263.14343	3065.0
183.08054	3033.0
185.06039	3029.0
253.13919	3017.0
219.08102	2767.0
198.06764	2689.0
208.08929	2636.0
166.07785	2610.0
210.10455	2582.0
225.09128	2351.0
228.07809	2312.0
194.07283	2276.0
191.08684	2207.0
179.08594	2163.0
206.07248	2079.0
177.07062	2023.0
223.11198	1899.0
213.05489	1823.0
168.05772	1716.0
236.08398	1698.0
253.12517	1666.0
213.07347	1628.0
205.06425	1554.0
238.13499	1548.0
155.08588	1534.0
190.07684	1489.0
207.08037	1454.0
210.06764	1390.0
189.06953	1388.0
218.07324	1322.0
180.09392	1322.0
151.05458	1303.0
168.09454	1242.0
202.07808	1238.0
222.06723	1167.0
248.12029	1149.0
203.08733	1143.0
157.06558	1115.0
176.06203	1111.0
209.08366	1092.0
205.10072	1082.0
226.06212	1080.0
242.09293	1074.0
240.07953	1042.0
211.07527	1042.0
254.09373	1023.0
212.08389	1013.0
240.11443	1010.0
183.11632	1009.0
128.06255	1005.0
265.12036	999.0
171.08028	866.0
215.08681	834.0
220.08823	785.0
227.10588	781.0
185.0937	775.0
235.11136	738.0
154.07764	727.0
170.07359	726.0
210.08752	724.0
231.10245	717.0
234.10628	687.0
224.1196	683.0
129.06978	673.0
249.12871	672.0
139.05394	665.0
229.12204	664.0
192.09407	659.0
205.08389	641.0
271.13577	635.0
209.06242	580.0
226.09746	576.0
221.05988	565.0
220.12309	559.0
225.12801	533.0
229.08498	523.0
142.07758	510.0
197.0957	490.0
181.09947	484.0
143.08682	479.0
247.11238	478.0
222.10371	426.0
187.07365	408.0
235.1474	406.0
185.07904	398.0
145.06531	395.0
127.05376	380.0
173.06001	373.0
157.10118	364.0
150.04636	361.0
201.06996	359.0
140.06284	351.0
186.06767	349.0
235.07832	344.0
164.06329	343.0
115.0544	323.0
199.11104	323.0
228.11507	310.0
255.08919	309.0
193.06586	307.0
271.16965	307.0
184.08774	299.0
243.10124	294.0
131.04897	294.0
158.07245	292.0
55.01746	276.0
184.05186	274.0
159.08253	274.0
204.09209	270.0
207.117	263.0
144.05615	260.0
232.08914	255.0
200.08238	247.0
189.05338	239.0
188.08102	235.0
226.08125	233.0
91.05378	232.0
180.05844	228.0
171.0444	222.0
147.08113	221.0
237.12648	212.0
215.10405	202.0
206.10764	195.0
79.05449	191.0
200.04774	191.0
119.08851	188.0
163.05376	187.0
81.06913	187.0
216.09056	187.0
187.0415	183.0
248.11104	183.0
216.07616	181.0
156.09251	178.0
283.13339	178.0
155.04807	176.0
239.07295	175.0
161.06017	173.0
217.10097	171.0
284.12634	169.0
250.09735	167.0
203.10965	160.0
240.06891	155.0
225.1618	153.0
230.10895	151.0
169.0979	146.0
55.05379	146.0
196.06172	145.0
279.14133	145.0
219.11436	141.0
198.1021	141.0
208.05397	140.0
77.03768	139.0
231.0816	138.0
200.0616	137.0
159.04672	133.0
160.05124	131.0
249.11789	127.0
235.09183	123.0
172.08736	119.0
201.09358	117.0
249.09315	112.0
175.07578	111.0
195.10704	109.0
183.06596	108.0
214.09544	105.0
191.07466	104.0
195.11935	104.0
229.07758	103.0
194.10831	103.0
212.11812	102.0
157.05821	100.0
165.09232	100.0
146.07445	99.0
190.062	98.0
220.07515	96.0
133.06694	95.0
235.13388	95.0
131.08597	92.0
173.0948	90.0
268.11081	90.0
143.05168	89.0
182.10782	86.0
117.0686	86.0
155.07002	84.0
267.13828	84.0
298.18307	83.0
147.0455	83.0
189.08839	82.0
57.06958	82.0
245.13338	81.0
69.06898	81.0
215.0509	80.0
170.10681	80.0
188.06087	80.0
186.10374	79.0
253.08623	79.0
221.12831	78.0
241.12015	76.0
172.05266	76.0
263.12439	76.0
126.04785	76.0
174.06902	75.0
246.10344	75.0
218.09059	74.0
157.08031	73.0
105.07085	73.0
171.11615	73.0
210.14005	72.0
236.1171	72.0
187.1125	71.0
242.1295	70.0
156.05704	69.0
245.11652	69.0
212.0625	67.0
123.04433	66.0
232.08168	64.0
253.10492	62.0
53.04	62.0
210.13011	59.0
172.0835	59.0
192.05742	59.0
206.09639	59.0
170.10425	57.0
149.05705	57.0
145.09952	56.0
228.04999	56.0
238.07152	56.0
57.03555	56.0
269.08835	56.0
207.06064	56.0
69.03316	56.0
67.0531	55.0
128.05258	55.0
183.04344	52.0
171.05466	52.0
254.08281	52.0
103.0557	51.0
251.13927	51.0
95.04985	51.0
184.12494	50.0
200.11978	49.0
234.07031	48.0
264.1485	48.0
265.09164	48.0
148.05196	48.0
280.23053	47.0
184.06781	47.0
149.03912	46.0
83.08502	46.0
151.03773	46.0
201.1283	46.0
167.06253	46.0
213.12207	46.0
152.04686	45.0
266.1004	45.0
105.0337	45.0
135.08098	45.0
71.04948	44.0
129.05643	44.0
119.04897	43.0
204.05991	43.0
170.05954	42.0
262.13873	42.0
145.05469	42.0
121.06427	42.0
219.05203	41.0
238.32243	41.0
209.13324	41.0
211.05963	40.0
208.1232	39.0
280.14038	39.0
244.10555	39.0
218.04576	39.0
132.05658	39.0
199.03918	39.0
238.31186	38.0
184.0771	38.0
206.05139	38.0
93.0666	37.0
130.04297	37.0
159.12083	37.0
175.05763	36.0
196.04388	36.0
127.04051	36.0
182.04836	36.0
107.08624	35.0
65.03944	34.0
284.10486	34.0
168.03995	34.0
79.04491	34.0
222.35191	34.0
211.03828	33.0
203.05243	33.0
179.05316	33.0
202.10036	33.0
196.12617	33.0
225.04279	33.0
105.06583	32.0
95.08518	32.0
164.04825	32.0
123.02913	32.0
255.06885	32.0
59.04859	31.0
144.04321	31.0
186.05029	31.0
298.20847	30.0
135.04568	30.0
261.12802	30.0
210.04352	30.0
130.07648	30.0
255.2738	29.0
254.12965	29.0
252.15224	29.0
147.07281	29.0
210.42694	29.0
158.06137	29.0
282.15863	29.0
255.13611	28.0
226.03856	28.0
133.02965	28.0
223.14856	27.0
91.0463	27.0
212.05109	27.0
221.02492	27.0
254.00632	27.0
133.10309	27.0
272.10104	27.0
222.38989	27.0
224.87386	26.0
245.09198	26.0
194.04964	26.0
221.0453	26.0
226.32135	26.0
232.06526	26.0
282.7413	26.0
242.04111	26.0
195.57108	25.0
196.44862	25.0
117.06012	25.0
192.26923	25.0
166.5414	25.0
185.13101	25.0
298.93277	25.0
180.04662	25.0
189.45219	25.0
252.06204	25.0
197.13283	25.0
162.04358	25.0
209.02844	25.0
138.04868	25.0
297.67258	24.0
194.43593	24.0
210.61594	24.0
244.49283	24.0
281.13464	23.0
279.09222	23.0
275.53677	23.0
274.66284	23.0
180.47002	23.0
97.0598	23.0
194.45232	23.0
226.02678	23.0
97.10323	23.0
214.02953	23.0
198.04283	23.0
177.49182	23.0
190.74718	22.0
293.90625	22.0
81.03122	22.0
129.04752	22.0
199.03227	22.0
256.83942	22.0
163.03125	22.0
209.3996	22.0
236.04636	22.0
151.56419	21.0
142.05656	21.0
149.02597	21.0
152.036	21.0
259.13455	21.0
164.5215	20.0
150.06796	20.0
258.12338	20.0
137.06082	20.0
222.03366	20.0
258.90128	20.0
109.02872	20.0
67.04829	20.0
248.26534	20.0
257.67355	20.0
214.51552	19.0
250.07567	19.0
254.26706	19.0
256.07718	19.0
176.03474	18.0
51.02174	17.0
65.0347	15.0
102.0421	13.0
71.60034	12.0

MSID: 8935
ID: 148
RETENTIONTIME: 26.21045
PRECURSORMZ: 301.1805
AREA: 27462362.0
PRECURSORTYPE: [M+H]+
SMILES: CC(C)C1=CC2=C(C(O)=C1O)C1=C(CC2)C(C)(C)CCC1=O
NAME: sageone
FORMULA: C19H24O3
INCHIKEY: NPQAMUFQEFLLCY-UHFFFAOYSA-N
CAS: 142546-15-4
Molecular Weight: 300.398
Number of References: 16
Class: Icetexane diterpenoids
Superclass: Diterpenoids
Pathway: Terpenoids
ppm: 0.12999999995599865
CMID: CM243
IONMODE: Positive
COLLISIONENERGY: 40±20eV
INSTRUMENTTYPE: AB SCIEX
INSTRUMENT: Q-TOF
Comment:  
Num Peaks: 282
231.10103	18391.0
273.1846	7028.0
283.16974	6615.0
203.10693	6220.0
241.12175	6174.0
217.12268	5611.0
301.17905	5044.0
188.08377	3074.0
223.11205	2668.0
257.15353	2349.0
219.10139	2127.0
161.06021	1925.0
185.09642	1839.0
175.07452	1775.0
157.06563	1649.0
216.07623	1477.0
229.12212	1408.0
199.07518	1405.0
141.06961	1344.0
215.10699	1309.0
173.06007	1179.0
195.11668	1168.0
187.07506	1122.0
213.09068	1094.0
165.09111	1067.0
259.13464	1040.0
189.05478	1029.0
129.06981	1029.0
128.06371	1024.0
145.06535	979.0
142.07762	963.0
197.09715	932.0
259.16776	888.0
213.12787	880.0
157.10123	865.0
165.07098	857.0
181.06395	812.0
199.11111	808.0
171.08032	796.0
191.10585	778.0
245.11812	752.0
143.04938	696.0
265.15872	662.0
69.06982	657.0
240.11299	636.0
169.06485	634.0
170.07109	628.0
55.05381	618.0
201.09225	587.0
225.09282	555.0
131.05125	531.0
163.07506	529.0
149.06068	528.0
153.07031	521.0
195.08112	521.0
198.06908	510.0
115.05444	501.0
259.14725	494.0
189.09114	479.0
180.09267	474.0
167.08537	469.0
152.0614	460.0
208.08794	443.0
179.10828	443.0
185.05911	431.0
183.0806	430.0
159.08136	409.0
143.08687	407.0
255.17374	405.0
205.12183	397.0
177.05634	390.0
95.08617	386.0
184.0878	371.0
127.05379	371.0
239.10483	368.0
169.10051	368.0
227.10742	366.0
202.09764	359.0
179.0873	347.0
160.05254	341.0
197.05728	337.0
239.14117	321.0
155.08592	316.0
174.06778	311.0
243.1395	308.0
83.08594	307.0
221.09634	304.0
200.08383	292.0
147.04436	284.0
193.1013	269.0
188.07167	259.0
166.07791	258.0
233.11687	257.0
103.05276	254.0
123.04437	251.0
91.05381	250.0
177.08891	249.0
144.05737	248.0
159.04306	247.0
198.10492	237.0
158.07251	235.0
178.07822	231.0
137.05972	220.0
154.07648	220.0
212.08395	219.0
81.06916	215.0
157.07913	211.0
156.09256	210.0
211.11234	209.0
203.08739	202.0
255.13776	200.0
203.06924	195.0
117.06863	193.0
211.07249	189.0
205.08676	185.0
207.08043	185.0
213.1107	178.0
173.09744	176.0
189.08575	175.0
160.08847	164.0
205.09798	161.0
204.07956	160.0
195.10162	154.0
237.16124	154.0
171.1162	152.0
209.0979	151.0
67.05312	150.0
131.08488	145.0
181.10217	144.0
214.09837	141.0
186.06772	138.0
231.08913	138.0
193.12308	137.0
258.12347	134.0
222.10379	132.0
93.06851	131.0
194.07152	131.0
221.11673	131.0
185.07643	127.0
105.06987	127.0
77.0377	127.0
155.05057	126.0
151.05464	125.0
231.13676	121.0
184.05191	121.0
175.03955	119.0
182.07484	119.0
85.06426	118.0
230.13132	118.0
143.07632	118.0
215.07396	115.0
185.13373	115.0
226.09752	112.0
207.11989	112.0
225.12662	109.0
168.09334	108.0
79.05451	107.0
237.12656	107.0
254.13286	105.0
183.11638	104.0
147.07762	104.0
133.06584	103.0
151.0751	102.0
191.0842	100.0
187.11122	98.0
172.08612	97.0
233.11089	96.0
187.06166	95.0
57.03335	93.0
216.11798	91.0
224.08154	91.0
111.07951	90.0
190.0769	89.0
171.04062	89.0
250.1315	89.0
149.09656	89.0
139.05283	87.0
107.08323	87.0
253.1237	87.0
196.12486	85.0
242.12805	80.0
235.10843	80.0
132.05775	79.0
188.0475	79.0
55.01748	79.0
196.09058	79.0
268.14459	77.0
257.13623	76.0
162.06732	75.0
202.06284	74.0
168.05779	73.0
257.11581	73.0
207.10156	72.0
212.11819	71.0
211.1465	70.0
187.04024	70.0
57.06886	69.0
217.08516	69.0
167.05119	68.0
218.09355	67.0
175.06416	66.0
146.07213	66.0
202.07954	65.0
175.10823	64.0
145.10074	64.0
179.07419	63.0
224.11966	61.0
170.11069	61.0
190.06612	60.0
188.05959	60.0
236.12318	60.0
227.14433	59.0
176.08418	59.0
192.09277	59.0
150.0668	59.0
176.04909	59.0
119.08641	57.0
65.03788	57.0
191.06795	56.0
204.11313	56.0
130.07875	56.0
141.05682	56.0
218.12971	55.0
245.15338	54.0
239.12906	54.0
193.08496	53.0
194.10837	53.0
107.04979	52.0
121.06323	52.0
197.13428	51.0
135.04459	51.0
161.04033	49.0
208.12184	49.0
156.05952	48.0
198.09526	48.0
164.06586	47.0
165.05336	47.0
126.04569	47.0
97.06273	46.0
210.0663	46.0
119.04794	44.0
199.05444	44.0
135.0833	44.0
186.09578	43.0
210.10463	42.0
137.09528	42.0
209.12906	42.0
221.13422	42.0
109.09933	41.0
144.09264	41.0
116.05882	41.0
53.03716	41.0
148.05081	41.0
201.05753	40.0
201.0728	40.0
241.15977	39.0
272.14313	39.0
69.03319	38.0
163.0363	38.0
59.05087	38.0
81.06122	37.0
216.05751	37.0
159.0616	36.0
243.12117	36.0
229.08357	36.0
180.07558	35.0
189.03593	35.0
283.14502	34.0
183.04482	34.0
258.15808	34.0
150.04521	34.0
71.05032	34.0
161.0975	33.0
153.05577	33.0
265.13638	33.0
205.06432	32.0
157.04231	32.0
226.08427	31.0
239.08514	31.0
133.10201	30.0
281.14951	30.0
209.08374	30.0

MSID: 8936
ID: 93
RETENTIONTIME: 19.13
PRECURSORMZ: 317.0659
AREA: 25664766.0
PRECURSORTYPE: [M+H]+
SMILES: COC1=C(OC2=CC(O)=CC(O)=C2C1=O)C1=CC(O)=C(O)C=C1
NAME: 2-(3,4-Dihydroxy-phenyl)-5,7-dihydroxy-3-methoxy-chromen-4-on
FORMULA: C16H12O7
INCHIKEY: WEPBGSIAWZTEJR-UHFFFAOYSA-N
CAS: 1486-70-0
Molecular Weight: 316.267
Number of References: 728
Class: Flavonols
Superclass: Flavonoids
Pathway: Shikimates and Phenylpropanoids
ppm: -0.23000000004458343
CMID: CM243
IONMODE: Positive
COLLISIONENERGY: 40±20eV
INSTRUMENTTYPE: AB SCIEX
INSTRUMENT: Q-TOF
Comment:  
Num Peaks: 215
302.04166	131760.0
317.06644	83296.0
168.00587	39844.0
140.00969	12036.0
137.02315	4715.0
112.01573	4512.0
169.01405	3781.0
84.02153	3113.0
274.04669	2166.0
68.99745	1883.0
56.02533	1859.0
301.03482	1773.0
135.04356	1097.0
256.03671	898.0
134.03593	878.0
200.04797	751.0
273.0408	638.0
176.04535	632.0
55.01752	583.0
228.04138	533.0
66.00988	525.0
271.0603	518.0
229.04967	495.0
245.04474	476.0
187.03905	466.0
285.04031	425.0
70.00417	407.0
109.02782	402.0
230.0186	325.0
172.05029	296.0
136.05154	286.0
71.01324	280.0
139.00214	279.0
163.03894	275.0
284.03091	263.0
147.04448	260.0
203.03453	246.0
144.0575	243.0
257.04697	239.0
171.04588	236.0
299.05505	232.0
217.05215	227.0
211.03853	225.0
218.05614	213.0
274.0321	212.0
160.05142	202.0
94.00633	199.0
201.05492	189.0
173.06151	187.0
121.99943	179.0
159.04443	171.0
81.03307	169.0
154.04257	168.0
131.05023	166.0
117.03482	165.0
148.05212	157.0
155.04703	153.0
183.04366	148.0
202.0282	146.0
89.03904	143.0
186.02914	139.0
232.03719	136.0
126.0458	132.0
123.00972	131.0
158.03571	128.0
177.05779	125.0
95.01177	124.0
182.03667	123.0
189.05495	120.0
204.04335	112.0
246.05457	110.0
231.02827	110.0
174.03046	108.0
161.05911	106.0
116.06103	103.0
197.0602	103.0
130.04088	99.0
146.03555	94.0
107.04988	91.0
165.01701	90.0
199.03804	89.0
274.02075	89.0
175.03969	88.0
145.02892	87.0
98.00005	83.0
190.06087	82.0
227.03383	78.0
239.03537	76.0
149.05962	76.0
143.05067	75.0
185.02197	72.0
205.05188	72.0
162.03255	72.0
159.04073	71.0
115.05243	68.0
133.02867	67.0
142.04039	65.0
127.0528	63.0
79.05371	63.0
128.0616	61.0
77.03949	57.0
102.04518	56.0
111.00736	55.0
316.02094	55.0
166.99817	53.0
255.0316	51.0
110.0354	51.0
255.02534	50.0
114.04719	49.0
189.04552	49.0
184.05208	49.0
88.02996	49.0
273.01166	47.0
53.03863	47.0
155.03728	46.0
123.0423	45.0
316.04184	45.0
210.03383	44.0
139.99231	44.0
162.06871	44.0
143.04716	39.0
228.0251	39.0
121.03101	38.0
103.05483	38.0
112.00226	38.0
214.02977	38.0
317.05075	37.0
176.02975	37.0
267.02814	37.0
161.02058	37.0
243.02975	36.0
120.05572	35.0
106.04399	35.0
138.99405	34.0
256.01477	34.0
164.04593	34.0
243.06488	34.0
171.02924	34.0
113.02241	34.0
139.55115	33.0
85.02911	33.0
166.02504	33.0
183.03571	32.0
157.06209	32.0
167.4465	32.0
228.0192	32.0
179.03372	32.0
174.07051	31.0
151.0018	31.0
274.01105	31.0
302.94785	31.0
167.46931	31.0
300.99066	31.0
129.03432	30.0
145.06194	30.0
144.04221	30.0
229.03041	29.0
67.0171	29.0
283.02332	29.0
91.05389	29.0
218.04312	29.0
204.02516	29.0
192.04272	28.0
215.03249	27.0
230.00969	27.0
167.05006	27.0
275.06259	26.0
300.96008	26.0
302.00931	26.0
302.77399	26.0
229.14159	26.0
238.02495	25.0
303.11322	25.0
107.01441	25.0
245.011	25.0
136.01614	25.0
213.05228	25.0
216.04042	25.0
78.04421	25.0
63.02311	24.0
141.18958	24.0
152.01443	24.0
163.02518	24.0
158.01601	24.0
210.0239	24.0
92.9968	24.0
132.05449	23.0
232.01482	23.0
301.51422	23.0
188.04765	23.0
300.75281	23.0
203.0136	22.0
168.99242	22.0
296.88095	22.0
259.02136	22.0
246.02231	22.0
161.00815	22.0
130.02637	22.0
303.38782	21.0
93.99399	21.0
183.0251	21.0
177.04214	21.0
150.03334	21.0
153.01955	21.0
116.02621	21.0
285.01056	20.0
121.98753	20.0
189.0159	20.0
169.15924	20.0
97.99423	19.0
124.01545	18.0
55.00953	18.0
205.03505	17.0
281.00525	12.0
51.0239	12.0

MSID: 8937
ID: 339
RETENTIONTIME: 31.41223
PRECURSORMZ: 297.1839
AREA: 23605712.0
PRECURSORTYPE: [M+H]+
SMILES: CC(C)C1=CC2=CC=C(C)C(CCCC(C)=C)=C2C(=O)C1=O
NAME: aethiopinone
FORMULA: C20H24O2
INCHIKEY: CAAYVGWMDZSZAD-UHFFFAOYSA-N
CAS: 79491-58-0
Molecular Weight: 296.409
Number of References: 20
Class: Secoabietane diterpenoids
Superclass: Diterpenoids
Pathway: Terpenoids
ppm: -1.5550000000530417
CMID: CM243
IONMODE: Positive
COLLISIONENERGY: 40±20eV
INSTRUMENTTYPE: AB SCIEX
INSTRUMENT: Q-TOF
Comment:  
Num Peaks: 290
297.18274	33295.0
237.12648	9338.0
215.10548	8919.0
95.08518	7875.0
165.06967	5870.0
279.17404	5466.0
153.07027	5254.0
255.13768	4758.0
195.07968	4110.0
181.06389	4098.0
179.08594	3563.0
152.06136	3548.0
167.08531	3496.0
229.12206	3466.0
209.09642	3446.0
223.11198	3296.0
213.09062	2925.0
227.10588	2855.0
67.05391	2802.0
200.08377	2650.0
241.12167	2533.0
254.12965	2422.0
166.07787	2384.0
239.10628	2284.0
199.07512	2126.0
141.06958	2098.0
180.09262	1998.0
208.08788	1883.0
193.10124	1842.0
221.09628	1836.0
178.07816	1804.0
203.10687	1603.0
225.08981	1510.0
211.07529	1413.0
169.0648	1406.0
256.14771	1310.0
182.07347	1237.0
222.10371	1100.0
207.08037	1069.0
235.11136	1004.0
173.06001	990.0
181.1008	938.0
69.06979	914.0
154.07764	874.0
209.13042	821.0
194.10831	804.0
226.09746	803.0
55.05452	778.0
165.08981	765.0
198.06764	755.0
197.09709	753.0
128.06145	744.0
91.05378	734.0
251.14392	713.0
269.15421	711.0
194.07283	697.0
157.06436	695.0
183.07922	693.0
129.06978	688.0
93.07037	667.0
192.09273	660.0
212.08247	609.0
197.05859	595.0
191.08549	575.0
228.11655	563.0
115.05335	548.0
185.06039	534.0
155.08588	530.0
236.12161	528.0
189.09109	528.0
207.117	527.0
242.13103	526.0
187.07365	522.0
195.11525	522.0
251.17963	496.0
253.1205	495.0
189.06953	485.0
143.08565	480.0
177.07062	480.0
203.08453	456.0
145.10071	446.0
151.0546	445.0
161.05893	438.0
196.08777	438.0
185.09637	437.0
211.11086	426.0
145.06413	413.0
171.08284	411.0
219.11436	397.0
282.16193	380.0
81.0709	370.0
250.13454	370.0
193.06586	359.0
190.0782	359.0
127.05376	358.0
168.09328	357.0
214.10117	356.0
169.10046	352.0
149.05945	349.0
107.08624	349.0
240.11595	335.0
79.05362	332.0
205.10213	331.0
142.07758	331.0
77.03854	330.0
143.04817	325.0
217.12262	321.0
249.12717	308.0
131.05008	307.0
172.08864	306.0
119.0853	291.0
264.15167	278.0
207.09727	274.0
206.07248	271.0
202.07808	269.0
103.05372	261.0
224.08441	253.0
170.07104	251.0
220.08823	243.0
251.16255	241.0
175.07448	239.0
208.1232	237.0
188.08237	237.0
268.14609	230.0
221.13414	229.0
183.11632	226.0
191.10851	223.0
267.13828	222.0
105.06884	220.0
199.11243	212.0
204.09068	208.0
186.06633	208.0
117.06966	196.0
282.12408	195.0
157.09996	194.0
176.06334	187.0
194.10149	179.0
139.05394	178.0
159.08131	177.0
174.06644	176.0
65.03786	175.0
243.13789	171.0
217.10242	168.0
206.10623	164.0
158.07368	157.0
254.11092	156.0
123.04325	156.0
201.09081	155.0
238.09872	149.0
168.05519	146.0
222.13875	139.0
222.09058	138.0
223.14856	137.0
53.03857	134.0
187.11118	130.0
147.04431	129.0
180.07816	128.0
164.06079	127.0
57.07106	126.0
155.0493	123.0
236.15472	122.0
130.07759	121.0
237.10838	119.0
144.06203	118.0
133.10196	117.0
210.06908	117.0
163.07376	116.0
184.05186	111.0
57.03333	110.0
184.08774	110.0
163.05501	109.0
219.07812	109.0
237.09331	108.0
234.10178	107.0
179.10559	106.0
150.04517	103.0
180.05975	102.0
210.10455	101.0
225.12654	101.0
160.05124	95.0
205.12317	95.0
131.08708	94.0
249.09161	93.0
254.09531	89.0
264.11505	87.0
224.07709	85.0
198.05524	83.0
199.09862	79.0
261.16602	79.0
159.04178	79.0
55.01819	76.0
218.10941	75.0
156.09129	74.0
267.10147	73.0
137.05853	73.0
71.04865	72.0
198.10899	71.0
200.06299	69.0
116.06195	65.0
251.12375	65.0
240.07802	65.0
51.02244	64.0
156.05582	64.0
155.07613	63.0
171.11871	63.0
224.11813	63.0
135.0787	62.0
80.06171	61.0
171.04057	61.0
233.13475	61.0
231.11734	60.0
216.1136	60.0
167.04861	59.0
182.10783	59.0
262.18631	59.0
186.10507	59.0
150.06557	59.0
225.06483	57.0
216.09201	55.0
93.06282	54.0
153.05209	53.0
209.06102	53.0
213.12637	52.0
188.07028	52.0
251.10202	51.0
143.07628	51.0
254.08749	49.0
246.14032	49.0
242.12189	49.0
229.09389	47.0
252.11336	47.0
231.08012	46.0
222.07745	46.0
244.179	45.0
207.06204	44.0
162.06976	44.0
140.05936	42.0
226.1328	42.0
212.12241	42.0
149.05109	42.0
213.06061	41.0
204.11168	41.0
171.11359	41.0
263.14664	40.0
239.14413	40.0
216.18559	40.0
141.05212	40.0
154.06062	39.0
201.07692	39.0
201.11858	38.0
233.09587	38.0
185.07771	37.0
218.10507	37.0
180.06764	36.0
218.07324	36.0
159.11591	36.0
151.03773	35.0
235.07683	35.0
227.14426	34.0
177.05759	34.0
170.10553	34.0
221.06133	34.0
172.06808	34.0
297.15573	34.0
126.04785	34.0
231.1367	33.0
269.13654	33.0
280.20102	32.0
170.05699	32.0
121.06643	32.0
148.05315	31.0
208.05821	31.0
132.05658	30.0
296.18744	30.0
268.1076	30.0
109.10236	30.0
97.06753	30.0
160.08841	29.0
281.14777	29.0
206.05421	28.0
135.04341	28.0
107.04874	27.0
235.1459	27.0
203.06639	27.0
206.09216	26.0
177.09016	25.0
255.09076	25.0
136.08566	25.0
197.12184	25.0
279.1348	22.0

MSID: 8938
ID: 166
RETENTIONTIME: 27.27688
PRECURSORMZ: 345.0963
AREA: 22896146.0
PRECURSORTYPE: [M+H]+
SMILES: COC1=C(O)C=C(C=C1)C1=CC(=O)C2=C(O)C(OC)=C(OC)C=C2O1
NAME: eupatorin
FORMULA: C18H16O7
INCHIKEY: KLAOKWJLUQKWIF-UHFFFAOYSA-N
CAS: 855-96-9
Molecular Weight: 344.321
Number of References: 449
Class: Flavones
Superclass: Flavonoids
Pathway: Shikimates and Phenylpropanoids
ppm: -1.1300000000460386
CMID: CM243
IONMODE: Positive
COLLISIONENERGY: 40±20eV
INSTRUMENTTYPE: AB SCIEX
INSTRUMENT: Q-TOF
Comment:  
Num Peaks: 284
345.0968	112721.0
284.06842	53191.0
312.06326	41252.0
330.07388	34572.0
269.04483	16302.0
148.05188	9696.0
185.0603	8477.0
241.05008	6851.0
136.01591	6262.0
256.07391	5598.0
149.05937	5274.0
108.02165	4958.0
213.05478	4805.0
297.03909	4369.0
133.02846	3699.0
151.04007	3597.0
287.05408	3563.0
157.06551	3371.0
315.05139	3359.0
329.06577	3333.0
286.04773	2807.0
259.05878	2281.0
314.04221	1708.0
301.07172	1557.0
300.06314	1469.0
302.07858	1314.0
258.05402	1172.0
168.05638	1057.0
244.03658	1027.0
80.02486	840.0
285.03821	831.0
227.07034	736.0
128.06248	722.0
197.05986	671.0
229.0493	603.0
52.03054	565.0
139.05502	533.0
195.04402	524.0
257.04654	473.0
129.0686	402.0
200.08366	387.0
272.03143	384.0
196.05202	384.0
152.01056	347.0
127.0548	346.0
133.99944	341.0
311.05542	338.0
134.03685	329.0
140.06277	323.0
167.04979	314.0
211.07802	311.0
282.05157	292.0
239.07132	291.0
225.05591	285.0
223.03873	283.0
199.03909	251.0
153.01808	246.0
169.06599	244.0
145.06523	238.0
105.03365	237.0
212.04813	237.0
255.0656	232.0
123.04319	221.0
327.08603	221.0
217.05035	219.0
228.07945	214.0
68.99734	213.0
139.00305	203.0
117.03357	196.0
141.07066	188.0
238.06535	188.0
296.03223	177.0
184.0531	176.0
155.05043	168.0
171.04305	164.0
137.02522	159.0
181.01241	158.0
201.05598	155.0
67.01859	155.0
239.03499	131.0
89.03889	130.0
300.02582	130.0
175.0394	128.0
210.06897	128.0
216.04295	127.0
106.00449	124.0
283.05908	124.0
183.04335	123.0
173.05864	121.0
165.01674	120.0
298.04767	119.0
126.04669	118.0
199.07501	118.0
203.03558	116.0
147.04306	115.0
270.05624	113.0
181.06908	112.0
224.04765	109.0
143.04927	108.0
169.01506	104.0
211.0396	103.0
231.0666	94.0
51.02312	93.0
315.02359	90.0
313.07449	86.0
91.05467	85.0
173.02257	84.0
198.0703	83.0
242.05775	82.0
77.03936	82.0
124.01852	80.0
131.04778	79.0
183.08443	77.0
271.06308	76.0
299.08844	76.0
135.00693	75.0
345.07861	73.0
343.96243	73.0
164.01054	73.0
256.04102	73.0
214.06381	73.0
117.06853	71.0
149.04024	70.0
159.04541	69.0
197.04611	69.0
179.03342	68.0
255.02962	68.0
203.07048	68.0
314.01443	67.0
50.01515	67.0
237.05548	65.0
182.0192	63.0
311.01917	63.0
68.02617	63.0
187.03606	61.0
253.05338	60.0
240.04451	60.0
215.10826	60.0
153.0714	58.0
254.05927	57.0
269.0159	57.0
213.03619	56.0
273.07596	56.0
161.06009	55.0
227.04674	55.0
115.05329	55.0
283.13159	54.0
146.0365	54.0
188.04601	54.0
286.008	52.0
285.00018	52.0
96.0224	51.0
315.01315	51.0
182.07338	51.0
299.06134	50.0
187.07625	50.0
95.0498	49.0
268.04172	49.0
226.062	47.0
156.05696	47.0
284.04034	47.0
285.06796	47.0
186.06624	46.0
312.02521	45.0
168.04114	45.0
67.05387	44.0
152.06491	44.0
174.06506	44.0
163.04117	44.0
215.03357	44.0
124.05342	42.0
227.02902	40.0
154.07756	40.0
267.03732	39.0
194.03862	39.0
229.02113	39.0
107.01019	39.0
329.02844	39.0
255.0437	38.0
252.0417	38.0
327.0506	38.0
241.01663	38.0
312.01483	38.0
297.00195	38.0
283.02121	37.0
243.06448	37.0
197.03236	37.0
168.00687	37.0
287.0126	37.0
78.01035	36.0
228.04544	36.0
329.00357	36.0
144.0596	36.0
161.02031	36.0
258.02728	36.0
177.05228	35.0
170.03647	34.0
230.06131	34.0
191.06915	34.0
125.02069	33.0
201.01711	33.0
202.0209	33.0
281.15256	32.0
55.01671	32.0
109.0256	32.0
285.0134	32.0
202.06128	32.0
251.04292	32.0
69.03232	32.0
125.05902	31.0
128.04475	31.0
225.03973	31.0
81.03471	31.0
189.05733	31.0
171.0789	31.0
142.04015	31.0
343.70819	30.0
111.00821	30.0
314.00229	29.0
79.01788	29.0
175.02774	29.0
123.00517	28.0
138.04286	27.0
160.05363	26.0
288.06052	26.0
211.05811	26.0
230.02119	26.0
169.05325	26.0
159.08369	26.0
259.02567	26.0
141.05788	26.0
241.00903	26.0
283.58331	26.0
283.84067	25.0
198.03032	25.0
343.93701	25.0
302.03262	25.0
65.04019	25.0
183.03142	25.0
184.45059	25.0
317.1008	25.0
165.06833	25.0
282.03018	25.0
301.03433	25.0
314.0665	25.0
340.21277	24.0
222.03064	24.0
266.05396	24.0
272.07019	24.0
166.99536	24.0
117.02403	24.0
166.0437	23.0
313.01212	23.0
254.02025	23.0
157.04219	23.0
162.0647	23.0
121.06313	23.0
267.95676	23.0
208.05104	23.0
151.99367	23.0
257.0795	23.0
193.0127	22.0
103.05466	21.0
218.06012	21.0
296.02045	21.0
342.73746	21.0
132.60632	21.0
130.07753	21.0
245.04126	20.0
196.02322	20.0
312.70029	20.0
281.04745	20.0
223.01387	20.0
283.03931	20.0
93.03349	20.0
163.00615	20.0
310.99844	20.0
147.57202	19.0
154.02408	19.0
344.58575	18.0
317.33105	13.0
63.02456	12.0
91.68752	12.0
73.39988	12.0

MSID: 8939
ID: 102
RETENTIONTIME: 20.84043
PRECURSORMZ: 331.0818
AREA: 19873630.0
PRECURSORTYPE: [M+H]+
SMILES: COC1=C(OC)C(O)=C2C(=O)C=C(OC2=C1)C1=CC=C(O)C(O)=C1
NAME: cirsiliol
FORMULA: C17H14O7
INCHIKEY: IMEYGBIXGJLUIS-UHFFFAOYSA-N
CAS: 34334-69-5
Molecular Weight: 330.294
Number of References: 339
Class: Flavones
Superclass: Flavonoids
Pathway: Shikimates and Phenylpropanoids
ppm: 0.019999999949504854
CMID: CM243
IONMODE: Positive
COLLISIONENERGY: 40±20eV
INSTRUMENTTYPE: AB SCIEX
INSTRUMENT: Q-TOF
Comment:  
Num Peaks: 235
331.08182	109565.0
316.05881	82983.0
288.06226	35735.0
245.04439	29808.0
273.04041	13768.0
301.03439	7312.0
168.00563	3291.0
183.02881	2374.0
199.03914	1641.0
175.03944	1355.0
171.04436	1252.0
217.04897	1112.0
147.04428	1053.0
140.01065	873.0
227.03497	695.0
68.99654	602.0
287.05582	569.0
203.03424	558.0
259.05884	510.0
149.0594	508.0
151.03889	494.0
133.02849	468.0
255.02812	371.0
189.05467	367.0
299.05463	357.0
244.03816	347.0
284.03052	301.0
112.01557	293.0
256.03635	268.0
213.02052	248.0
159.0442	245.0
161.06137	232.0
187.04012	223.0
169.01382	221.0
107.04871	220.0
143.0493	211.0
148.05191	208.0
231.02646	206.0
166.99541	201.0
139.00308	199.0
84.02052	192.0
131.04893	190.0
177.05493	186.0
123.00629	175.0
269.04489	173.0
157.02872	172.0
119.04893	170.0
228.04253	154.0
270.04825	144.0
134.03461	138.0
200.04631	137.0
329.9939	133.0
56.02525	131.0
214.06242	126.0
315.02191	125.0
185.0217	125.0
273.01776	125.0
136.01595	124.0
229.04935	120.0
137.02296	114.0
315.04971	110.0
135.04338	110.0
215.03792	110.0
115.05437	110.0
242.05476	107.0
260.06552	107.0
153.01691	106.0
182.01924	105.0
155.04926	97.0
172.05261	97.0
151.004	94.0
173.05869	92.0
288.04398	89.0
108.01862	87.0
165.01552	87.0
133.06351	85.0
144.05611	85.0
243.06453	83.0
233.04497	82.0
173.02261	82.0
272.03473	80.0
105.03368	79.0
283.02292	78.0
167.9904	77.0
77.03852	75.0
95.01068	74.0
163.03746	73.0
145.0287	69.0
244.23862	67.0
190.06195	67.0
241.01517	65.0
91.05189	65.0
79.05273	63.0
89.03799	63.0
285.07629	61.0
298.04266	61.0
179.03346	60.0
329.9761	59.0
103.05469	59.0
201.05603	59.0
231.06517	56.0
211.03966	56.0
129.03302	55.0
196.04932	55.0
66.01058	54.0
289.06714	54.0
145.06409	53.0
186.06895	52.0
55.01963	52.0
303.08209	50.0
216.04155	49.0
205.04738	49.0
117.03148	49.0
164.01057	49.0
205.01091	48.0
213.05197	48.0
127.05593	48.0
70.00489	47.0
139.05275	47.0
158.0367	47.0
287.02759	46.0
71.01231	44.0
154.04234	44.0
171.02643	43.0
126.04562	42.0
122.00034	41.0
215.07239	40.0
155.0334	40.0
181.01509	40.0
169.00618	40.0
160.05119	39.0
112.0052	39.0
78.0467	39.0
182.0351	39.0
121.02868	38.0
203.01889	38.0
109.02869	38.0
128.0603	37.0
130.04405	37.0
185.06168	37.0
259.02414	37.0
188.04471	37.0
174.03151	36.0
287.11887	35.0
257.04816	35.0
182.01527	35.0
197.02554	35.0
150.06552	35.0
176.04509	35.0
166.98274	35.0
285.03497	34.0
274.04956	33.0
300.99872	33.0
313.06763	33.0
161.02284	33.0
122.99977	33.0
134.0312	32.0
184.05315	32.0
125.0251	32.0
329.95651	32.0
157.06308	30.0
106.04082	30.0
189.04121	30.0
287.10892	30.0
170.03651	30.0
226.02377	30.0
217.02011	29.0
123.04105	29.0
246.05115	29.0
158.07242	29.0
180.03999	28.0
232.07266	28.0
173.0123	28.0
243.06148	28.0
330.07217	28.0
149.04028	27.0
241.05014	27.0
218.05583	27.0
318.90326	26.0
327.1853	26.0
257.078	26.0
51.02243	26.0
225.05742	26.0
198.03313	25.0
177.0432	25.0
133.0477	25.0
283.9942	25.0
139.99211	25.0
288.96057	25.0
316.01526	25.0
268.04019	25.0
115.04702	25.0
163.0312	25.0
201.01715	24.0
131.04108	24.0
159.03062	24.0
191.034	24.0
299.02753	24.0
127.03606	24.0
331.05331	24.0
98.98257	24.0
93.06752	24.0
216.03004	23.0
182.99834	23.0
314.98889	23.0
140.06165	23.0
142.04018	23.0
329.92627	23.0
56.01938	23.0
162.02858	23.0
253.05032	23.0
187.02138	22.0
215.10399	22.0
107.03757	22.0
224.0433	22.0
315.80811	21.0
203.06773	21.0
300.04794	21.0
244.01826	21.0
149.01398	21.0
148.0388	21.0
313.14215	20.0
214.04666	20.0
94.00715	20.0
261.07574	20.0
285.1474	20.0
53.00219	20.0
168.05641	19.0
286.04449	19.0
132.02617	19.0
243.02637	17.0
250.1329	17.0
160.04376	17.0
67.05309	12.0
63.02068	12.0

MSID: 8940
ID: 24
RETENTIONTIME: 10.73938
PRECURSORMZ: 465.1036
AREA: 17114750.0
PRECURSORTYPE: [M+H]+
SMILES: OC[C@H]1O[C@@H](OC2=C(OC3=C(C(O)=CC(O)=C3)C2=O)C2=CC(O)=C(O)C=C2)[C@H](O)[C@@H](O)[C@@H]1O
NAME: isoquercetin
FORMULA: C21H20O12
INCHIKEY: OVSQVDMCBVZWGM-QSOFNFLRSA-N
CAS: 482-35-9
Molecular Weight: 464.383
Number of References: 2494
Class: Flavonols
Superclass: Flavonoids
Pathway: Shikimates and Phenylpropanoids
ppm: 0.2949999999373176
CMID: CM243
IONMODE: Positive
COLLISIONENERGY: 40±20eV
INSTRUMENTTYPE: AB SCIEX
INSTRUMENT: Q-TOF
Comment:  
Num Peaks: 118
303.05002	275806.0
465.10669	6275.0
285.04022	4033.0
169.01273	1974.0
135.04352	1231.0
257.04529	936.0
123.0075	932.0
303.03809	369.0
243.02966	339.0
137.0231	321.0
229.04959	319.0
302.04492	255.0
183.04358	225.0
211.03987	210.0
151.00415	210.0
239.03528	173.0
155.04819	158.0
173.06015	151.0
85.02817	150.0
161.02299	146.0
201.05623	134.0
147.04324	111.0
275.05435	104.0
285.01376	90.0
187.03764	88.0
69.03322	83.0
95.01364	81.0
97.02997	74.0
215.03815	65.0
267.02963	64.0
239.02922	63.0
117.03372	59.0
185.02589	58.0
61.02848	55.0
145.05008	55.0
159.04314	52.0
274.04498	51.0
189.05353	48.0
247.05714	44.0
127.04282	41.0
145.06541	40.0
304.05167	39.0
233.04372	37.0
303.82285	37.0
69.03159	37.0
168.00453	36.0
465.07501	36.0
304.34546	35.0
261.03961	33.0
57.03411	32.0
143.0471	32.0
304.45825	32.0
305.70703	31.0
305.04639	31.0
205.05038	31.0
303.92871	30.0
302.53534	30.0
304.1012	30.0
304.21393	30.0
203.03723	30.0
109.03085	30.0
137.03801	30.0
345.06631	29.0
302.67163	29.0
302.0994	29.0
303.99701	28.0
302.00919	28.0
53.0379	27.0
344.01556	27.0
303.88431	27.0
141.01617	25.0
304.67361	25.0
107.04883	25.0
139.00208	25.0
303.69144	25.0
163.04137	25.0
304.30789	24.0
303.96457	24.0
215.02809	24.0
432.08441	24.0
303.7597	24.0
83.01457	24.0
304.17804	24.0
161.0143	23.0
304.54883	23.0
301.98877	23.0
71.04953	23.0
127.03619	23.0
232.03859	23.0
306.05133	23.0
81.03657	22.0
161.06277	22.0
55.01823	22.0
200.04236	22.0
358.43613	22.0
157.06203	21.0
199.03934	21.0
305.15759	21.0
99.04408	21.0
228.03685	20.0
89.03716	20.0
284.99393	20.0
127.06048	20.0
242.99913	19.0
61.02618	19.0
91.03703	19.0
315.01703	18.0
342.01483	18.0
183.03033	17.0
189.04544	13.0
115.05659	13.0
396.75089	12.0
145.71375	12.0
77.03774	12.0
85.0381	12.0
95.01937	12.0
97.03383	12.0
51.3027	12.0

MSID: 8941
ID: 217
RETENTIONTIME: 28.58622
PRECURSORMZ: 347.1844
AREA: 17048044.0
PRECURSORTYPE: [M+H]+
SMILES: [H][C@@]12[C@@H]3OC(=O)[C@@]1(CCCC2(C)C)C1=C(O)C(O)=C(C=C1[C@@H]3O)C(C)C
NAME: Oxydesaminoisorosmaricin
FORMULA: C20H26O5
INCHIKEY: LCAZOMIGFDQMNC-FORWCCJISA-N
CAS: 80225-53-2
Molecular Weight: 346.423
Number of References: 559
Class: Abietane diterpenoids
Superclass: Diterpenoids
Pathway: Terpenoids
ppm: -1.4500000000339242
CMID: CM243
IONMODE: Positive
COLLISIONENERGY: 40±20eV
INSTRUMENTTYPE: AB SCIEX
INSTRUMENT: Q-TOF
Comment:  
Num Peaks: 230
231.10231	23304.0
301.18045	20932.0
347.18677	13923.0
189.0546	4516.0
259.16751	3097.0
216.07747	2757.0
165.09096	2613.0
283.16946	2593.0
219.10118	2410.0
259.13599	1931.0
245.11789	1826.0
217.12248	1519.0
161.06006	1477.0
241.12152	1448.0
259.147	1365.0
319.1918	1330.0
55.05448	1097.0
179.1068	1053.0
205.08656	916.0
213.09192	780.0
203.06905	757.0
149.06055	753.0
157.06548	694.0
107.08515	642.0
233.11665	602.0
203.10674	580.0
175.07436	537.0
167.10674	522.0
83.08586	497.0
199.07498	485.0
188.08359	460.0
185.05894	451.0
69.06893	442.0
145.06522	416.0
131.04887	393.0
223.11037	389.0
191.06912	388.0
173.05862	383.0
198.06889	360.0
143.04924	356.0
171.08017	344.0
123.04426	344.0
277.18103	325.0
199.1123	316.0
215.10678	314.0
163.07616	312.0
191.10567	304.0
273.18436	303.0
213.12624	282.0
141.06947	270.0
185.09491	261.0
227.10869	258.0
240.1158	248.0
201.09206	242.0
255.17349	238.0
177.09006	230.0
258.12323	230.0
215.07088	223.0
129.06969	221.0
177.05486	218.0
217.0864	197.0
170.07094	195.0
165.0746	194.0
179.0714	193.0
195.11649	178.0
169.06342	172.0
187.07487	170.0
225.09113	170.0
189.09096	168.0
149.09523	167.0
137.06075	164.0
128.06358	162.0
197.05708	159.0
159.04414	158.0
91.05372	157.0
245.10715	156.0
147.04541	154.0
219.13742	152.0
181.06378	152.0
205.12163	151.0
209.0807	149.0
195.08229	149.0
93.06937	148.0
95.08607	147.0
265.15845	147.0
257.15326	142.0
152.06367	140.0
81.06908	134.0
174.06891	133.0
127.05367	132.0
57.03403	132.0
153.06895	132.0
197.09695	132.0
115.05433	131.0
163.04114	130.0
105.06877	126.0
202.06264	123.0
255.13751	120.0
243.10109	117.0
103.05365	116.0
207.09996	112.0
143.08438	111.0
212.118	109.0
243.13469	108.0
263.12738	108.0
193.12289	105.0
183.08174	104.0
191.10025	104.0
173.09598	102.0
150.06906	101.0
131.08476	100.0
159.08244	98.0
181.08749	95.0
179.08582	95.0
167.08394	95.0
157.10107	94.0
208.08916	93.0
213.08334	91.0
184.08762	90.0
212.08376	88.0
190.06053	88.0
135.04446	86.0
121.09868	85.0
133.06459	84.0
229.12338	82.0
156.09241	81.0
254.12793	80.0
67.05386	79.0
169.10162	78.0
247.09529	73.0
305.13834	73.0
71.04861	72.0
217.10516	72.0
155.08823	70.0
195.10281	70.0
186.06755	69.0
225.1264	67.0
171.11603	64.0
160.05113	64.0
119.08523	63.0
147.08104	63.0
117.06958	62.0
85.06508	62.0
198.10472	62.0
144.05606	61.0
211.07515	60.0
301.16174	59.0
166.07649	59.0
232.10988	58.0
268.14752	58.0
245.09181	58.0
237.10974	57.0
221.08302	56.0
205.06973	55.0
200.08641	54.0
79.0527	54.0
240.1507	52.0
207.08163	50.0
257.11716	50.0
188.04732	50.0
329.17053	49.0
151.07616	48.0
230.34807	48.0
158.07112	48.0
199.09987	48.0
145.0546	48.0
109.10229	47.0
187.04005	47.0
187.11238	47.0
241.15498	46.0
218.09624	46.0
181.09937	46.0
137.09514	46.0
59.0478	45.0
145.09825	45.0
83.07515	45.0
77.03935	45.0
162.06592	45.0
83.04837	44.0
216.05586	44.0
119.04782	43.0
137.02176	42.0
135.08089	42.0
249.1131	42.0
218.13095	42.0
128.05804	42.0
202.10162	42.0
283.13815	42.0
109.06445	40.0
125.09515	39.0
204.07376	39.0
239.10612	38.0
250.13281	37.0
154.07632	36.0
237.16704	36.0
199.06531	35.0
241.09415	35.0
160.0883	35.0
182.07071	35.0
219.05914	35.0
175.11194	34.0
209.09628	34.0
267.17014	34.0
205.05992	34.0
176.04633	33.0
235.1127	33.0
277.14188	33.0
165.05321	33.0
221.11652	32.0
53.03996	32.0
121.06204	31.0
185.13089	31.0
193.09975	31.0
259.09024	30.0
189.02229	29.0
139.05615	29.0
227.1825	28.0
123.08228	27.0
183.04465	27.0
271.16302	26.0
132.0565	26.0
319.16028	26.0
185.03496	25.0
284.17569	24.0
300.19714	24.0
245.07802	23.0
214.09673	23.0
311.16766	22.0
216.11778	22.0
52.00228	12.0

MSID: 8942
ID: 173
RETENTIONTIME: 27.45257
PRECURSORMZ: 347.1847
AREA: 15556546.0
PRECURSORTYPE: [M+H]+
SMILES: [H][C@@]12[C@@H]3OC(=O)[C@@]1(CCCC2(C)C)C1=C(C=C(C(C)C)C(O)=C1O)[C@H]3O
NAME: epirosmanol
FORMULA: C20H26O5
INCHIKEY: LCAZOMIGFDQMNC-PYQAKABTSA-N
CAS: 93380-12-2
Molecular Weight: 346.423
Number of References: 58
Class: Abietane diterpenoids
Superclass: Diterpenoids
Pathway: Terpenoids
ppm: -1.1499999999955435
CMID: CM243
IONMODE: Positive
COLLISIONENERGY: 40±20eV
INSTRUMENTTYPE: AB SCIEX
INSTRUMENT: Q-TOF
Comment:  
Num Peaks: 329
301.18069	29361.0
231.10101	25562.0
283.16971	15373.0
273.18457	14375.0
241.12325	8815.0
217.12122	7177.0
203.1069	7145.0
177.09151	6380.0
161.0602	2945.0
257.1535	2927.0
219.10136	2877.0
223.11057	2856.0
188.0824	2466.0
175.07451	2234.0
109.10034	2187.0
259.13461	2152.0
149.05948	1907.0
69.06981	1705.0
157.06561	1695.0
185.09641	1681.0
215.10696	1628.0
165.09109	1491.0
229.1221	1460.0
191.10583	1454.0
259.16931	1443.0
213.12642	1411.0
149.09535	1365.0
199.07654	1275.0
223.10472	1233.0
131.049	1163.0
195.1153	1152.0
189.05476	1132.0
55.0538	1128.0
213.0921	1099.0
259.15195	1079.0
197.09575	1038.0
216.07909	1030.0
199.11108	1002.0
181.06393	1000.0
173.06006	937.0
129.06981	896.0
245.11656	896.0
67.05392	882.0
171.08031	882.0
143.04936	843.0
187.07639	823.0
145.06416	804.0
265.15869	798.0
141.0696	792.0
201.09084	733.0
189.08978	728.0
255.17372	726.0
157.10121	699.0
185.0591	685.0
142.07643	671.0
165.07097	656.0
128.06258	655.0
240.11449	655.0
183.08058	652.0
205.12321	643.0
243.13795	619.0
163.07504	555.0
153.0703	555.0
195.10709	536.0
179.10695	535.0
169.10049	528.0
95.08425	516.0
81.06915	509.0
225.08986	499.0
195.07973	489.0
347.18524	487.0
237.11296	475.0
180.09396	464.0
227.10741	463.0
170.07236	459.0
143.08685	457.0
329.17438	451.0
159.08011	422.0
208.08792	419.0
233.11835	417.0
167.08409	415.0
198.0663	390.0
239.10632	373.0
225.12807	372.0
155.08713	369.0
169.06355	362.0
239.14418	354.0
123.04328	343.0
115.05443	339.0
103.05473	337.0
200.08243	331.0
202.09763	329.0
83.08504	311.0
91.05379	310.0
205.08534	292.0
152.06381	292.0
211.10948	292.0
135.04459	284.0
212.08394	273.0
195.06604	273.0
237.16272	266.0
137.05856	264.0
174.06647	261.0
184.08644	261.0
179.08597	261.0
267.17197	260.0
133.0647	259.0
211.07675	254.0
147.0788	253.0
197.05725	252.0
144.05736	245.0
214.09692	243.0
154.07767	243.0
147.04434	241.0
149.08101	232.0
159.04552	231.0
187.11255	230.0
198.10352	225.0
193.09991	219.0
127.05489	216.0
156.095	216.0
157.08157	211.0
158.07249	210.0
203.07481	209.0
131.08487	207.0
160.05127	204.0
105.06986	203.0
177.05371	201.0
230.12981	199.0
205.10217	196.0
166.0779	192.0
217.1068	192.0
171.1149	192.0
173.09485	184.0
255.13774	183.0
221.09924	175.0
259.09677	175.0
258.125	175.0
93.0685	172.0
181.09952	158.0
77.03856	157.0
79.05276	156.0
209.09789	156.0
202.06142	154.0
207.08182	151.0
185.13104	149.0
182.0735	148.0
172.08995	148.0
271.13425	143.0
215.06963	142.0
160.08846	139.0
85.06606	136.0
221.12108	136.0
186.06638	130.0
231.13823	129.0
194.07014	127.0
226.0975	127.0
257.13309	126.0
254.12814	126.0
178.0782	124.0
117.06862	121.0
107.08424	119.0
196.08644	119.0
57.0326	116.0
119.0864	115.0
183.11636	108.0
222.10231	107.0
184.0519	107.0
193.12033	105.0
250.13612	103.0
151.07629	102.0
161.04529	102.0
235.11441	101.0
191.06927	100.0
145.10074	100.0
57.06886	100.0
207.11565	99.0
225.0825	96.0
253.12367	93.0
162.06979	92.0
268.14615	91.0
190.06339	90.0
111.08054	89.0
227.14282	88.0
167.07523	87.0
133.10086	87.0
191.08688	86.0
224.12111	85.0
170.10941	85.0
179.07155	85.0
188.04749	80.0
175.11339	80.0
139.05165	80.0
215.08687	79.0
71.04784	78.0
167.04991	76.0
243.10741	75.0
97.06368	75.0
347.17429	74.0
161.095	74.0
207.06491	74.0
155.04933	74.0
190.07959	73.0
153.05333	73.0
121.06645	72.0
311.1662	72.0
187.04289	71.0
242.1326	71.0
176.04648	71.0
192.0914	71.0
226.06216	71.0
212.11816	70.0
165.06342	69.0
121.09986	68.0
241.08522	68.0
182.1105	67.0
107.04978	67.0
269.12051	67.0
204.07814	67.0
257.11267	66.0
319.19382	64.0
241.15671	63.0
285.18393	63.0
137.09526	62.0
126.04458	62.0
181.08502	62.0
218.09354	62.0
169.08649	61.0
119.05113	61.0
168.05777	61.0
201.05473	60.0
329.15662	60.0
65.03787	60.0
151.05222	60.0
239.12753	59.0
53.0393	58.0
209.13045	58.0
204.11452	58.0
271.16971	58.0
218.13115	58.0
208.12465	57.0
216.0647	57.0
159.11964	56.0
130.07874	55.0
258.15964	54.0
135.07759	54.0
236.12315	54.0
239.17902	54.0
163.05629	54.0
245.15182	54.0
209.07947	53.0
55.0182	53.0
163.04129	51.0
224.0786	51.0
221.13565	51.0
194.10562	50.0
228.11363	50.0
201.12279	49.0
232.10709	49.0
148.05199	49.0
214.08832	48.0
229.09985	47.0
176.08026	47.0
182.06029	47.0
143.06812	47.0
212.06967	46.0
300.18213	46.0
109.08807	46.0
141.0603	46.0
147.11562	45.0
243.11963	45.0
123.07805	44.0
231.0757	44.0
59.04861	44.0
175.03824	43.0
229.08206	43.0
215.14001	43.0
210.10318	43.0
183.1031	42.0
245.1917	41.0
237.09033	41.0
286.15561	41.0
227.17973	41.0
175.09654	40.0
267.13834	40.0
173.0446	40.0
219.07092	40.0
277.14377	40.0
253.15952	39.0
132.05437	39.0
272.17703	37.0
180.05849	37.0
201.07001	37.0
144.09497	37.0
128.04817	36.0
125.05801	36.0
232.14142	36.0
261.14868	35.0
283.12686	34.0
145.09129	34.0
150.06918	33.0
293.15125	33.0
299.16486	33.0
131.06693	33.0
219.12456	33.0
239.08966	32.0
163.11383	32.0
249.11485	32.0
230.09415	31.0
116.06303	31.0
227.07788	31.0
258.10614	31.0
69.03237	31.0
149.03915	31.0
139.0401	30.0
240.1494	30.0
69.06085	30.0
281.15604	29.0
220.08827	29.0
164.06459	29.0
203.13622	29.0
301.15521	26.0
208.07097	26.0
99.07813	26.0
187.14873	26.0
244.14232	25.0
210.06485	25.0
147.06216	24.0
282.22943	20.0

MSID: 8943
ID: 171
RETENTIONTIME: 27.45257
PRECURSORMZ: 301.1802
AREA: 15391188.0
PRECURSORTYPE: [M+H]+
SMILES: [H][C@@]12C[C@@H]3OC[C@@]1(CCCC2(C)C)C1=CC(=O)C(O)=C(C)C=C31
NAME: miltipolone
FORMULA: C19H24O3
INCHIKEY: QCERTNNJMAPQRG-BXWFABGCSA-N
CAS: 131086-61-8
Molecular Weight: 300.398
Number of References: 6
Class: Podocarpane diterpenoids
Superclass: Diterpenoids
Pathway: Terpenoids
ppm: -0.1700000000255386
CMID: CM243
IONMODE: Positive
COLLISIONENERGY: 40±20eV
INSTRUMENTTYPE: AB SCIEX
INSTRUMENT: Q-TOF
Comment:  
Num Peaks: 209
231.10101	7446.0
283.16971	3184.0
301.17902	3156.0
203.1069	2275.0
241.12325	2221.0
273.18622	2184.0
217.12267	2019.0
223.11057	1101.0
188.0824	1091.0
257.15192	879.0
219.10281	829.0
199.07516	809.0
141.07077	753.0
161.05896	750.0
213.08923	714.0
216.07765	712.0
175.07581	694.0
229.1221	573.0
185.09641	565.0
173.06006	555.0
157.06561	546.0
189.05611	510.0
187.07504	501.0
195.11665	492.0
142.07761	489.0
145.06416	483.0
181.06393	482.0
165.0697	476.0
169.06483	446.0
128.06148	438.0
259.13306	436.0
165.09109	432.0
259.16772	426.0
129.0687	416.0
170.07236	407.0
157.10245	383.0
215.10553	380.0
197.0985	365.0
55.0538	340.0
153.0703	335.0
171.08031	335.0
225.09132	328.0
199.11385	321.0
195.07973	314.0
201.09084	308.0
143.04936	269.0
159.08134	269.0
197.05862	265.0
213.12927	261.0
152.06261	259.0
169.10176	250.0
179.08597	246.0
180.09396	245.0
265.1571	243.0
191.10583	242.0
245.11656	240.0
131.05011	231.0
183.08058	228.0
208.08792	225.0
69.06981	220.0
240.116	219.0
185.06042	209.0
205.12321	202.0
167.08409	201.0
163.07629	196.0
198.0663	195.0
149.05948	195.0
95.08521	193.0
189.08978	191.0
81.07092	190.0
115.05338	189.0
143.08568	186.0
160.05252	183.0
127.05268	182.0
155.08713	180.0
239.14267	179.0
179.10564	172.0
174.06647	167.0
178.0782	166.0
177.05501	164.0
202.09901	160.0
255.17528	159.0
166.07663	154.0
243.14101	149.0
154.07646	144.0
227.10593	142.0
211.07248	129.0
200.08382	129.0
83.08682	126.0
193.09991	123.0
203.07062	123.0
231.13972	122.0
212.07967	119.0
147.04434	118.0
156.09132	115.0
221.09633	112.0
198.10628	110.0
209.09363	108.0
207.08041	106.0
233.11536	106.0
186.0677	106.0
123.04328	106.0
255.14087	101.0
205.09937	100.0
144.05618	98.0
168.09459	98.0
214.09834	97.0
185.13104	95.0
177.09151	94.0
173.09743	93.0
182.0735	93.0
103.05374	89.0
204.07814	86.0
213.11212	86.0
91.05379	84.0
215.07249	84.0
147.07761	83.0
190.07825	82.0
184.04924	82.0
241.10196	80.0
175.11079	79.0
131.08487	78.0
268.14456	76.0
203.08597	76.0
226.09898	76.0
117.07074	75.0
225.12807	75.0
216.11508	74.0
160.08597	73.0
253.119	73.0
67.05473	71.0
194.07014	71.0
139.05165	69.0
258.12659	68.0
219.08107	68.0
171.04573	67.0
207.11705	67.0
159.04675	66.0
137.06085	65.0
250.13612	65.0
93.06945	64.0
151.05222	64.0
237.15971	62.0
181.09952	61.0
254.1297	60.0
217.08659	59.0
176.04778	58.0
171.11618	57.0
149.09775	57.0
213.07924	56.0
105.07087	55.0
196.08919	55.0
175.04082	54.0
183.11902	53.0
57.03408	53.0
257.11896	52.0
187.04021	52.0
133.0647	50.0
168.05904	49.0
132.05887	49.0
221.11526	49.0
177.06805	48.0
202.07674	48.0
55.0182	47.0
187.11389	47.0
191.07469	47.0
240.10083	47.0
170.10941	45.0
185.07375	44.0
172.08611	44.0
193.12169	44.0
190.06339	44.0
257.13309	43.0
230.12981	43.0
242.13107	42.0
121.06645	42.0
144.04913	41.0
85.06516	40.0
222.10085	39.0
235.10991	39.0
227.14282	39.0
224.08006	37.0
79.05711	37.0
128.04817	37.0
176.08157	37.0
201.05196	37.0
236.12166	36.0
77.0377	36.0
192.09004	35.0
273.14249	34.0
224.11671	34.0
126.04678	33.0
140.06055	32.0
119.08533	32.0
268.14136	31.0
107.04775	30.0
272.13663	29.0
189.03726	29.0
243.09825	29.0
180.05585	29.0
162.06731	28.0
229.09985	28.0
164.06209	27.0
130.08098	26.0
204.11871	26.0
145.10191	25.0
210.06485	25.0
137.09869	22.0
95.10049	12.0

MSID: 8944
ID: 38
RETENTIONTIME: 12.86068
PRECURSORMZ: 319.0815
AREA: 15006173.0
PRECURSORTYPE: [M+H]+
SMILES: COC1=C(O)C=C2O[C@@H](CC(=O)C2=C1O)C1=CC=C(O)C(O)=C1
NAME: 6-methoxyeriodictyol
FORMULA: C16H14O7
INCHIKEY: UZQWHZRLSLEWHW-LBPRGKRZSA-N
CAS: nan
Molecular Weight: 318.283
Number of References: 2
Class: Flavanones
Superclass: Flavonoids
Pathway: Shikimates and Phenylpropanoids
ppm: -0.2800000000320324
CMID: CM243
IONMODE: Positive
COLLISIONENERGY: 40±20eV
INSTRUMENTTYPE: AB SCIEX
INSTRUMENT: Q-TOF
Comment:  
Num Peaks: 139
183.02771	32198.0
168.00583	24142.0
319.08206	16532.0
163.03889	8819.0
140.00966	4296.0
112.01571	2314.0
84.02061	1845.0
145.02769	1533.0
135.04468	1444.0
89.03809	998.0
117.0348	938.0
56.02605	765.0
169.01402	698.0
301.07385	629.0
55.01751	350.0
123.04337	307.0
209.04422	301.0
137.02312	252.0
66.00986	239.0
71.0124	230.0
136.05151	228.0
107.04884	195.0
277.07059	193.0
241.0489	189.0
68.9958	186.0
205.04903	184.0
95.0127	171.0
286.04648	162.0
187.03767	157.0
269.0452	152.0
93.03267	145.0
303.05179	139.0
194.01981	134.0
181.04825	134.0
304.06024	132.0
177.05515	129.0
213.05365	124.0
94.00536	122.0
79.05282	119.0
149.02252	119.0
139.03905	117.0
159.04688	111.0
185.06056	111.0
65.0387	108.0
77.03861	106.0
283.05951	101.0
85.02818	99.0
121.99831	95.0
139.00211	91.0
54.01022	90.0
245.04314	82.0
63.02153	81.0
100.0153	81.0
231.06247	81.0
155.03114	74.0
111.04243	72.0
166.02628	70.0
261.04282	69.0
67.01788	68.0
123.00643	64.0
255.06752	61.0
273.07471	59.0
227.03525	58.0
165.01698	58.0
171.04457	57.0
151.00177	57.0
203.03448	57.0
258.05597	56.0
195.0443	56.0
166.99812	56.0
141.01968	54.0
127.03732	54.0
251.03552	52.0
268.0293	52.0
69.03405	51.0
268.04211	50.0
203.07495	49.0
189.0549	49.0
113.02551	48.0
109.03087	48.0
99.04311	48.0
137.0621	47.0
105.0358	46.0
103.05381	46.0
85.02367	45.0
163.02264	44.0
131.04909	44.0
259.05914	44.0
184.05203	43.0
227.07214	43.0
215.06978	42.0
117.01678	42.0
188.04628	42.0
167.05003	42.0
195.02925	42.0
199.03523	42.0
217.04779	41.0
160.05139	41.0
182.42532	41.0
110.03538	40.0
240.04181	40.0
115.0545	38.0
139.05176	38.0
201.05348	37.0
147.04683	37.0
161.05783	37.0
145.01355	36.0
70.00334	35.0
128.06267	35.0
173.0576	35.0
97.02902	34.0
219.06528	33.0
212.04701	31.0
127.0329	30.0
51.02319	29.0
262.03909	29.0
57.03191	29.0
182.01945	28.0
285.0386	28.0
303.03644	27.0
287.0578	26.0
111.00527	25.0
157.06204	25.0
251.0231	25.0
223.0332	24.0
197.04227	24.0
143.04713	24.0
142.02284	23.0
176.04921	22.0
249.06866	22.0
99.0051	21.0
81.03041	21.0
59.01178	21.0
211.07263	21.0
124.01433	19.0
91.05293	19.0
103.04984	13.0
273.04074	13.0
285.03366	13.0

MSID: 8945
ID: 413
RETENTIONTIME: 32.96567
PRECURSORMZ: 315.1952
AREA: 13482258.0
PRECURSORTYPE: [M+H]+
SMILES: [H][C@@]12C=CC3=C(C(=O)C(O)=C(C(C)C)C3=O)[C@@]1(C)CCCC2(C)C
NAME: 6,7-dehydroroyleanone
FORMULA: C20H26O3
INCHIKEY: UAZRHHCHUYOJQV-RBZFPXEDSA-N
CAS: nan
Molecular Weight: 314.425
Number of References: 107
Class: Icetexane diterpenoids
Superclass: Diterpenoids
Pathway: Terpenoids
ppm: -0.8200000000329055
CMID: CM243
IONMODE: Positive
COLLISIONENERGY: 40±20eV
INSTRUMENTTYPE: AB SCIEX
INSTRUMENT: Q-TOF
Comment:  
Num Peaks: 342
229.12186	14490.0
297.18417	13451.0
191.10699	9672.0
315.19562	7359.0
255.13748	6788.0
217.12245	6133.0
237.12779	6037.0
257.15323	5223.0
195.07953	4900.0
149.06053	4218.0
279.17548	3906.0
213.09189	3447.0
215.10818	3282.0
214.09956	2775.0
131.04999	2737.0
167.08519	2703.0
273.14871	2586.0
165.0708	2096.0
199.07495	2085.0
95.08511	2001.0
153.07014	1974.0
175.07564	1929.0
181.06375	1890.0
197.09692	1668.0
165.09219	1559.0
241.12453	1555.0
173.05988	1530.0
205.1216	1497.0
185.09755	1496.0
157.06546	1482.0
203.1053	1449.0
152.06123	1366.0
271.16943	1339.0
223.1118	1339.0
128.06245	1292.0
141.07062	1237.0
69.06974	1235.0
129.07079	1224.0
145.0652	1206.0
187.07484	1092.0
209.13307	1085.0
179.0871	996.0
243.13771	994.0
163.07614	959.0
209.09625	953.0
103.05363	944.0
287.20169	938.0
55.05375	937.0
189.09094	931.0
179.10545	930.0
254.13257	906.0
143.04922	875.0
166.07899	842.0
171.08014	824.0
227.11012	817.0
161.06128	807.0
202.1002	791.0
193.10109	772.0
67.05466	763.0
143.08554	714.0
188.08356	713.0
169.10159	711.0
97.06455	706.0
245.15465	705.0
169.06467	704.0
183.08173	697.0
201.09064	686.0
155.08575	678.0
251.18097	667.0
228.11488	663.0
177.06917	661.0
231.138	657.0
231.10376	656.0
142.07863	650.0
85.06416	637.0
211.07654	630.0
178.07802	619.0
115.05431	612.0
211.11211	584.0
239.10608	573.0
180.09378	544.0
181.10065	544.0
111.08042	543.0
221.0961	502.0
208.08771	499.0
147.04301	484.0
93.06936	477.0
219.11855	476.0
200.0836	475.0
182.07332	466.0
222.10208	452.0
91.0537	447.0
194.10951	439.0
269.19095	437.0
199.11227	436.0
207.10275	436.0
194.07404	416.0
117.07063	386.0
154.07874	382.0
207.0816	373.0
195.11783	370.0
227.14407	369.0
157.10106	363.0
269.15399	359.0
123.04315	354.0
225.09109	349.0
159.08241	348.0
83.08495	341.0
113.09509	341.0
184.08891	331.0
81.06995	331.0
127.05366	327.0
79.05355	310.0
137.06071	308.0
240.11424	307.0
174.0676	305.0
236.11992	299.0
168.09442	295.0
282.16168	291.0
212.08372	290.0
57.03255	288.0
183.11485	288.0
173.09596	282.0
195.09868	280.0
221.11649	278.0
161.09608	272.0
267.13968	270.0
233.11513	269.0
105.06976	269.0
198.07024	267.0
193.06435	267.0
259.1312	266.0
239.14546	258.0
196.08899	258.0
187.11237	258.0
71.04942	255.0
77.03848	253.0
213.12762	250.0
151.05447	247.0
253.12186	247.0
225.1293	242.0
242.13083	232.0
251.13907	232.0
185.05891	230.0
186.07019	227.0
216.11342	226.0
156.09483	218.0
209.12175	215.0
160.05235	212.0
207.11543	212.0
144.05956	211.0
107.08615	211.0
191.08804	210.0
109.10023	207.0
226.09875	191.0
231.11566	189.0
125.09622	186.0
170.07219	181.0
158.07233	178.0
55.01669	176.0
256.14594	176.0
204.09332	175.0
147.08102	173.0
172.08722	173.0
177.09003	171.0
135.08087	170.0
235.11267	165.0
184.05304	158.0
176.06189	158.0
189.07208	154.0
119.08414	154.0
205.10056	152.0
145.10176	149.0
202.07793	148.0
221.13251	145.0
208.12445	143.0
213.11047	142.0
198.10469	137.0
219.13739	135.0
219.1026	131.0
57.06953	131.0
192.09256	131.0
133.06458	130.0
131.08698	127.0
190.07535	127.0
229.10556	122.0
269.17166	122.0
199.0943	118.0
171.11858	116.0
211.09076	114.0
186.10493	112.0
285.18198	111.0
185.13486	109.0
251.16389	107.0
168.0576	107.0
220.08804	106.0
177.05484	104.0
197.06256	103.0
156.05692	98.0
212.11938	96.0
155.04916	96.0
259.16904	95.0
222.14003	95.0
210.10439	95.0
253.15926	95.0
249.12697	95.0
159.04413	93.0
211.14769	91.0
264.15305	90.0
121.06633	90.0
65.0386	90.0
201.12675	89.0
189.05458	89.0
148.05183	88.0
272.13959	85.0
241.15494	84.0
129.05855	84.0
226.13557	83.0
228.10158	82.0
146.07196	82.0
230.09392	81.0
171.04683	81.0
83.04925	80.0
69.03393	80.0
268.14429	79.0
151.11465	78.0
133.10298	77.0
162.06465	76.0
130.07637	75.0
139.05267	75.0
163.05487	74.0
59.05005	73.0
245.11632	72.0
145.05104	71.0
250.13278	70.0
97.10122	70.0
137.09167	70.0
218.09476	69.0
221.08008	69.0
126.04665	68.0
164.06067	68.0
107.04866	68.0
238.13632	66.0
206.07373	66.0
236.15753	66.0
150.04504	65.0
195.0549	64.0
165.05696	64.0
206.09341	63.0
151.07614	63.0
147.11784	63.0
149.0952	63.0
244.13901	61.0
257.12653	60.0
99.07999	59.0
224.07983	59.0
119.04994	59.0
178.05972	58.0
224.12088	56.0
95.07365	56.0
241.19601	55.0
253.14835	54.0
191.07315	53.0
258.16409	52.0
194.0945	52.0
163.10991	52.0
261.16107	51.0
122.07276	51.0
175.0536	51.0
150.06544	51.0
234.10309	51.0
210.06891	50.0
217.08348	50.0
164.0845	49.0
223.08986	49.0
182.10504	49.0
315.17126	48.0
53.03853	48.0
161.0414	48.0
131.03091	48.0
135.04558	48.0
123.11921	48.0
172.04996	48.0
254.10603	47.0
230.13106	46.0
219.08231	46.0
257.11868	46.0
109.06545	45.0
225.1631	45.0
281.15082	45.0
196.12053	45.0
209.07784	44.0
218.10779	44.0
187.1003	44.0
132.0531	43.0
271.12912	43.0
284.17233	43.0
175.10674	43.0
252.11627	43.0
109.02966	42.0
91.04623	42.0
205.08934	42.0
216.09183	42.0
222.08456	41.0
173.04314	41.0
204.11571	41.0
173.13333	40.0
233.15401	39.0
225.0764	39.0
116.06186	39.0
117.06003	39.0
199.14545	38.0
141.05318	38.0
145.08289	38.0
218.12947	37.0
267.17007	37.0
104.06126	37.0
210.13846	37.0
197.12993	37.0
192.08171	37.0
160.08829	36.0
287.15854	35.0
300.06305	34.0
214.06374	33.0
241.0941	33.0
228.0853	33.0
51.0224	32.0
130.03952	32.0
223.14398	32.0
243.11021	32.0
189.12865	31.0
93.05802	31.0
170.06068	31.0
186.04881	29.0
193.12151	28.0
151.03761	28.0
258.15308	27.0
296.21753	27.0
247.12758	27.0
155.07112	26.0
137.04582	26.0
211.0367	25.0

MSID: 8946
ID: 342
RETENTIONTIME: 31.41223
PRECURSORMZ: 375.2151
AREA: 12529455.0
PRECURSORTYPE: [M+H]+
SMILES: [H][C@@]12C[C@@H](OC(C)=O)C3=C(C(=O)C(O)=C(C(C)C)C3=O)[C@@]1(C)CCCC2(C)C
NAME: 7-acetylhorminone
FORMULA: C22H30O5
INCHIKEY: XDBVTCDGDQLEKG-QLEMLULZSA-N
CAS: nan
Molecular Weight: 374.477
Number of References: 33
Class: Abietane diterpenoids
Superclass: Diterpenoids
Pathway: Terpenoids
ppm: -2.0499999999969987
CMID: CM243
IONMODE: Positive
COLLISIONENERGY: 40±20eV
INSTRUMENTTYPE: AB SCIEX
INSTRUMENT: Q-TOF
Comment:  
Num Peaks: 436
297.18442	137463.0
215.10693	83657.0
95.08518	36485.0
237.12799	29263.0
279.17569	23617.0
200.08238	19548.0
255.13768	17126.0
229.12206	14383.0
241.1232	13969.0
181.06522	13276.0
223.11198	13069.0
227.10736	11659.0
153.07027	10530.0
195.07968	10500.0
213.09206	8651.0
167.08531	8635.0
67.05391	8374.0
209.09642	7771.0
157.06436	7601.0
165.07094	7012.0
254.13121	6713.0
199.07512	5689.0
197.09572	5379.0
173.06001	5246.0
203.10687	5179.0
182.07347	4874.0
152.06258	4694.0
208.08929	4658.0
239.10628	4657.0
179.08463	4269.0
185.09637	4035.0
141.07074	3660.0
69.06979	3525.0
129.06978	3461.0
180.09262	3434.0
189.09109	3305.0
256.14615	3292.0
185.06039	3292.0
221.09628	3286.0
128.06256	3148.0
245.11652	2892.0
169.06607	2882.0
143.04933	2860.0
171.08028	2847.0
154.07764	2753.0
222.10371	2741.0
166.07787	2740.0
225.08981	2640.0
191.10715	2520.0
231.13818	2476.0
183.08054	2411.0
285.18552	2322.0
228.11507	2288.0
55.05452	2239.0
193.10124	2187.0
93.07037	2163.0
209.13182	2118.0
217.12262	2073.0
251.14392	2018.0
161.06017	1936.0
235.11136	1913.0
187.07634	1858.0
211.07529	1818.0
242.13103	1791.0
165.08981	1756.0
149.06064	1743.0
194.10831	1684.0
315.19412	1660.0
115.05441	1598.0
236.1201	1594.0
145.06531	1558.0
226.09894	1539.0
207.08037	1516.0
143.08565	1513.0
155.08588	1494.0
269.15262	1473.0
172.08864	1468.0
198.06764	1467.0
178.07816	1426.0
251.17807	1414.0
243.13942	1403.0
253.12206	1355.0
185.07504	1347.0
169.10046	1325.0
212.08247	1314.0
199.10966	1278.0
203.08873	1250.0
219.11726	1249.0
203.07057	1191.0
257.15344	1191.0
142.07758	1190.0
211.11086	1170.0
187.11118	1146.0
259.133	1136.0
194.07419	1125.0
195.11525	1124.0
250.13608	1096.0
145.10071	1076.0
175.07448	1075.0
107.08523	1064.0
81.06914	1063.0
181.1008	1010.0
131.04897	1002.0
199.09171	987.0
201.09081	968.0
268.1445	928.0
127.05376	896.0
214.09831	877.0
240.11444	840.0
207.1156	836.0
91.05378	830.0
264.15009	826.0
177.06932	820.0
196.08777	813.0
205.10072	787.0
163.07501	767.0
191.0882	739.0
205.12036	736.0
225.12361	715.0
249.12871	703.0
151.0546	677.0
282.16357	644.0
157.10118	616.0
184.08774	612.0
158.07245	607.0
267.17191	604.0
375.21942	596.0
79.05449	591.0
170.07359	589.0
168.09328	571.0
159.08008	569.0
190.07956	562.0
169.08517	561.0
57.07032	552.0
192.09407	491.0
188.08505	491.0
156.09251	484.0
204.09209	471.0
183.11501	452.0
267.13828	450.0
193.0645	447.0
71.08581	440.0
283.16965	434.0
77.03768	433.0
119.0853	430.0
186.06633	426.0
202.09758	422.0
207.09727	420.0
143.06808	418.0
147.04431	408.0
105.06984	406.0
174.06902	404.0
144.0585	401.0
103.05372	392.0
221.13269	370.0
117.06966	359.0
143.07628	356.0
133.0997	355.0
197.05997	353.0
193.08492	343.0
168.05519	342.0
123.04434	317.0
187.09644	311.0
184.05319	309.0
238.13651	300.0
208.12462	299.0
171.11871	294.0
139.05394	293.0
194.0892	287.0
206.07248	279.0
236.15472	274.0
155.04808	272.0
261.16443	270.0
271.16644	269.0
222.13728	267.0
160.05373	261.0
211.09805	260.0
210.10313	259.0
233.11531	258.0
189.06953	257.0
220.08968	251.0
170.10809	249.0
176.06204	245.0
213.12494	239.0
65.03786	233.0
57.03333	232.0
206.11044	232.0
179.10822	227.0
156.05704	227.0
224.08148	219.0
224.1196	217.0
202.07669	213.0
217.10098	211.0
131.08597	207.0
201.12691	206.0
109.10032	195.0
231.11884	186.0
273.14731	182.0
137.05968	182.0
171.07002	181.0
226.09157	178.0
173.09738	175.0
55.01819	175.0
126.04785	173.0
53.03857	169.0
183.09776	166.0
198.1021	163.0
239.13959	157.0
71.04783	157.0
164.06331	156.0
216.11649	155.0
80.06258	153.0
150.04637	149.0
130.07983	148.0
270.16101	146.0
177.08887	141.0
218.10796	139.0
144.09142	137.0
83.08413	136.0
238.09721	136.0
230.12679	129.0
210.06908	128.0
223.13979	128.0
145.08772	123.0
183.062	118.0
140.06052	118.0
111.08154	118.0
231.10394	117.0
269.18958	113.0
217.0851	113.0
155.07124	108.0
125.09633	105.0
180.05844	105.0
179.06889	104.0
148.05077	103.0
171.0444	103.0
186.10374	102.0
219.13902	101.0
265.15546	99.0
234.10628	97.0
241.09583	95.0
296.21442	92.0
168.0844	90.0
296.20428	90.0
204.11307	89.0
232.12645	89.0
129.05977	88.0
73.06467	88.0
127.04051	85.0
197.13147	84.0
113.09622	84.0
281.15598	80.0
147.07877	79.0
205.06566	79.0
216.07761	78.0
135.08211	77.0
59.0486	76.0
159.04549	74.0
121.06319	74.0
167.04861	73.0
263.14346	73.0
245.15178	72.0
287.19693	71.0
173.08064	70.0
243.11346	69.0
272.14304	69.0
214.40079	68.0
175.11206	68.0
233.15269	68.0
218.1311	66.0
212.11813	65.0
97.0656	65.0
251.11754	64.0
150.06796	64.0
159.11467	64.0
147.11678	63.0
177.05629	63.0
157.04594	62.0
85.06514	61.0
253.1579	61.0
273.18454	61.0
161.09373	61.0
213.06775	59.0
240.09622	59.0
165.0596	58.0
137.09982	58.0
214.07394	57.0
185.03908	56.0
185.13101	55.0
190.09711	55.0
151.07747	55.0
246.13879	54.0
143.03763	54.0
123.03565	53.0
227.14131	52.0
235.14891	52.0
196.06995	52.0
156.08395	52.0
263.13708	51.0
226.13576	51.0
172.04881	50.0
176.08282	50.0
117.06436	50.0
285.15576	49.0
201.06718	49.0
236.10054	49.0
174.05869	48.0
257.11731	47.0
83.04842	47.0
218.09204	46.0
130.04185	46.0
296.18576	46.0
99.07909	45.0
212.05965	45.0
223.07541	45.0
224.09761	44.0
188.07297	44.0
107.04976	43.0
119.0479	43.0
182.09726	42.0
239.17897	42.0
162.06853	41.0
160.08717	41.0
170.09787	40.0
254.29674	40.0
135.04228	40.0
146.07326	40.0
202.06416	40.0
169.04442	40.0
201.11024	40.0
220.12164	40.0
116.05984	40.0
298.01907	40.0
182.04704	39.0
182.10651	39.0
249.10553	39.0
210.13721	39.0
221.07007	38.0
122.07286	38.0
109.02769	38.0
207.05641	38.0
94.78173	38.0
161.08379	37.0
209.0766	36.0
253.07999	36.0
264.12302	35.0
226.0518	34.0
233.09288	33.0
267.11746	33.0
228.07957	33.0
236.34741	33.0
51.02244	33.0
235.13989	33.0
252.11647	32.0
269.12207	32.0
298.00046	32.0
277.15839	32.0
199.42488	31.0
198.03319	30.0
297.15573	30.0
282.13229	30.0
285.14749	30.0
231.09799	30.0
256.11008	29.0
147.03125	29.0
156.07294	28.0
261.14545	28.0
97.10226	27.0
132.05434	27.0
214.73218	26.0
298.34039	26.0
226.35966	26.0
213.05489	26.0
272.63928	26.0
299.01913	26.0
240.14934	26.0
357.21127	26.0
214.86711	25.0
184.12495	25.0
69.02991	25.0
221.46342	25.0
234.09428	25.0
125.05908	25.0
183.05006	25.0
191.05977	25.0
278.25516	25.0
192.05743	24.0
230.09708	24.0
161.7769	24.0
158.11432	24.0
249.16118	24.0
244.17288	24.0
238.89885	24.0
253.27791	24.0
273.17807	24.0
276.40723	23.0
240.32999	23.0
198.40273	23.0
295.16519	23.0
245.96826	23.0
115.03339	23.0
230.38686	23.0
216.67548	23.0
163.11253	23.0
151.03293	23.0
214.43091	22.0
296.70175	22.0
146.03775	22.0
53.03358	22.0
189.1315	22.0
227.36424	22.0
264.1087	21.0
315.16107	21.0
299.51218	21.0
139.04355	21.0
192.08051	21.0
298.19324	21.0
297.92441	21.0
175.04468	21.0
268.11884	21.0
265.12195	21.0
176.03865	21.0
203.04546	20.0
99.07324	20.0
239.07295	20.0
156.55171	20.0
298.41315	20.0
240.02036	20.0
231.75803	20.0
102.04507	20.0
135.11855	20.0
180.47266	19.0
144.03969	19.0
223.65652	19.0
255.10953	19.0
200.4053	19.0

MSID: 8947
ID: 491
RETENTIONTIME: 35.92947
PRECURSORMZ: 439.3548
AREA: 11112905.0
PRECURSORTYPE: [M+H]+
SMILES: [H][C@@]12[C@@H](C)[C@H](C)CC[C@]1(C)CC[C@]1(C)C2=CC(=O)[C@]2([H])[C@@]3(C)CCC(=O)C(C)(C)[C@]3([H])CC[C@@]12C
NAME: 3,11-dioxo-urs-12-ene
FORMULA: C30H46O2
INCHIKEY: LZXVZTSHGYUWRT-YMWLQLAQSA-N
CAS: 38242-01-2
Molecular Weight: 438.694
Number of References: 21
Class: Ursane and Taraxastane triterpenoids
Superclass: Triterpenoids
Pathway: Terpenoids
ppm: -2.805000000023483
CMID: CM243
IONMODE: Positive
COLLISIONENERGY: 40±20eV
INSTRUMENTTYPE: AB SCIEX
INSTRUMENT: Q-TOF
Comment:  
Num Peaks: 220
203.17905	21229.0
191.17989	14503.0
439.35287	12489.0
189.16344	9355.0
249.18541	4189.0
147.11647	4117.0
95.08595	3416.0
133.10056	3276.0
135.11713	2847.0
119.08507	2667.0
121.10067	2620.0
107.08501	2603.0
161.13194	2591.0
205.19569	2476.0
217.19579	2456.0
149.13329	2334.0
109.10112	2284.0
163.14723	2008.0
201.164	1923.0
175.14799	1750.0
393.35098	1747.0
93.07019	1348.0
81.06897	1331.0
105.06963	1313.0
177.16411	1255.0
231.21217	1076.0
123.1158	974.0
235.16945	833.0
153.09177	754.0
247.16731	737.0
69.07047	723.0
221.18904	711.0
215.17975	698.0
55.05368	621.0
159.11681	608.0
67.05377	584.0
167.10777	561.0
145.10159	541.0
187.1483	508.0
173.13312	481.0
245.22643	476.0
229.19423	458.0
137.1328	445.0
79.05433	442.0
207.17438	425.0
91.0536	416.0
261.18607	416.0
83.08664	366.0
243.21071	324.0
231.17644	303.0
131.08569	299.0
97.1011	296.0
57.07021	270.0
193.12398	259.0
257.22675	254.0
179.10522	223.0
221.15408	221.0
255.21227	219.0
213.16312	202.0
329.24826	193.0
139.07675	191.0
227.17923	183.0
165.09073	181.0
77.03838	181.0
275.20142	177.0
241.19571	173.0
269.22919	165.0
283.23993	164.0
421.34665	156.0
297.25812	150.0
161.12323	148.0
174.13846	142.0
207.14055	139.0
355.26407	138.0
223.16713	131.0
315.22998	129.0
289.21649	117.0
369.27966	115.0
111.11848	111.0
181.12019	111.0
301.21573	110.0
185.13197	108.0
199.14934	107.0
167.10017	106.0
171.1158	104.0
157.1021	104.0
135.10689	103.0
193.15938	97.0
271.2417	95.0
351.30624	93.0
343.25751	93.0
337.29028	91.0
71.08649	90.0
273.18396	87.0
249.16995	86.0
143.0842	86.0
233.15372	84.0
165.12723	83.0
341.24997	81.0
107.07994	81.0
179.18126	80.0
146.10966	79.0
160.12279	79.0
125.09717	77.0
277.21652	77.0
125.06212	75.0
287.19968	75.0
151.14458	74.0
285.25278	72.0
309.26114	72.0
219.17627	71.0
81.06456	71.0
151.07234	71.0
175.10912	70.0
137.06171	69.0
311.27264	67.0
165.16624	67.0
111.07925	64.0
295.242	64.0
117.06942	60.0
323.27603	60.0
191.16498	60.0
219.20671	60.0
303.22992	59.0
291.2337	59.0
263.20169	58.0
357.27719	57.0
259.23969	57.0
259.16556	57.0
209.15265	56.0
128.0634	55.0
179.09999	54.0
129.06952	53.0
189.13919	52.0
217.1597	52.0
173.11765	52.0
383.29602	51.0
235.14693	50.0
233.18811	50.0
53.03775	49.0
233.22401	48.0
85.1011	48.0
343.24664	46.0
111.0452	45.0
139.11256	44.0
137.09496	44.0
193.19205	43.0
255.20287	43.0
130.07733	43.0
188.15587	42.0
215.14384	41.0
161.09712	41.0
421.31247	40.0
439.32004	40.0
281.22604	40.0
397.30984	39.0
144.0923	39.0
295.23358	39.0
127.05571	38.0
317.24509	38.0
239.18152	38.0
161.11081	38.0
163.07469	38.0
65.03773	37.0
149.101	37.0
211.14316	36.0
187.13089	36.0
69.0607	36.0
205.17184	36.0
173.09833	35.0
395.36398	35.0
275.17706	34.0
135.08183	34.0
147.09628	33.0
371.30377	33.0
437.91296	31.0
393.28494	31.0
191.15416	31.0
207.15747	31.0
57.03544	30.0
83.07325	30.0
191.10812	30.0
177.08589	29.0
202.51369	29.0
223.14664	29.0
158.10538	29.0
195.13948	29.0
245.14822	28.0
225.16136	28.0
233.14175	27.0
163.11096	27.0
267.21298	27.0
331.26126	27.0
353.28238	26.0
421.24612	26.0
147.07846	26.0
299.27432	26.0
323.19858	26.0
257.19376	25.0
217.12218	25.0
411.35675	25.0
365.32108	25.0
253.19011	25.0
269.20831	25.0
269.18903	24.0
439.25436	24.0
103.05152	24.0
245.19269	24.0
327.23434	24.0
335.27338	24.0
92.06101	24.0
205.12276	24.0
403.32959	23.0
237.1637	23.0
141.07045	23.0
227.15855	22.0
221.13953	21.0
277.23282	13.0
74.36787	12.0
273.59692	12.0

MSID: 8948
ID: 61
RETENTIONTIME: 14.94772
PRECURSORMZ: 303.0871
AREA: 8864414.0
PRECURSORTYPE: [M+H]+
SMILES: COC1=C(O)C=C2OC(CC(=O)C2=C1O)C1=CC=C(O)C=C1
NAME: 6-methoxynaringenin
FORMULA: C16H14O6
INCHIKEY: FCXRFTLSXMRXTM-UHFFFAOYSA-N
CAS: 81524-08-5
Molecular Weight: 302.284
Number of References: 15
Class: Flavanones
Superclass: Flavonoids
Pathway: Shikimates and Phenylpropanoids
ppm: 0.23499999997511622
CMID: CM243
IONMODE: Positive
COLLISIONENERGY: 40±20eV
INSTRUMENTTYPE: AB SCIEX
INSTRUMENT: Q-TOF
Comment:  
Num Peaks: 80
183.02887	14787.0
168.00568	11808.0
303.0856	6099.0
140.01184	1986.0
147.04433	1712.0
112.0156	1039.0
84.02054	741.0
56.02526	538.0
119.05004	523.0
91.05285	464.0
68.99656	181.0
55.01819	180.0
66.0106	138.0
137.02299	138.0
71.01316	133.0
77.03854	129.0
107.04773	128.0
261.07739	118.0
123.04434	106.0
65.03865	102.0
95.04985	97.0
169.01387	96.0
94.00528	86.0
288.064	73.0
95.01357	71.0
122.00145	68.0
69.0348	65.0
229.0509	62.0
287.05756	60.0
153.01695	56.0
54.01017	49.0
245.04445	49.0
112.00524	46.0
123.00741	44.0
120.05988	43.0
161.05893	42.0
139.9991	42.0
91.04443	41.0
67.01702	41.0
270.05316	40.0
181.05072	40.0
100.01521	38.0
288.04736	38.0
111.00517	35.0
70.00574	34.0
153.01212	34.0
166.02737	33.0
189.05742	33.0
155.03101	33.0
197.05997	32.0
165.01935	32.0
194.02371	30.0
285.07803	28.0
149.02359	27.0
261.06473	27.0
144.0585	26.0
81.03474	25.0
127.03941	25.0
141.07306	25.0
177.05368	24.0
185.05772	24.0
85.03082	24.0
201.05331	24.0
95.04508	24.0
253.05196	22.0
302.08215	22.0
197.04897	22.0
303.0498	21.0
137.01727	21.0
151.00284	21.0
154.0266	21.0
173.06389	21.0
145.06767	20.0
93.03259	19.0
128.05923	18.0
224.04776	15.0
51.02245	15.0
209.03412	13.0
175.45956	12.0
72.02362	12.0

MSID: 8949
ID: 317
RETENTIONTIME: 31.10957
PRECURSORMZ: 361.1999
AREA: 8580605.0
PRECURSORTYPE: [M+H]+
SMILES: CO[C@H]1[C@H]2OC(=O)[C@@]3(CCCC(C)(C)[C@H]23)C2=C1C=C(C(C)C)C(O)=C2O
NAME: epirosmanol methyl ether
FORMULA: C21H28O5
INCHIKEY: XNPVHIQPSAZTLC-WIRSXHRWSA-N
CAS: nan
Molecular Weight: 360.45
Number of References: 10
Class: Abietane diterpenoids
Superclass: Diterpenoids
Pathway: Terpenoids
ppm: -1.599999999996271
CMID: CM243
IONMODE: Positive
COLLISIONENERGY: 40±20eV
INSTRUMENTTYPE: AB SCIEX
INSTRUMENT: Q-TOF
Comment:  
Num Peaks: 197
245.11792	13070.0
361.20007	12058.0
231.10233	8576.0
315.19568	8218.0
301.18048	5994.0
259.13284	1375.0
189.05463	1294.0
203.07187	1048.0
283.16949	972.0
230.0925	822.0
55.05376	797.0
216.07893	753.0
297.18427	730.0
241.12306	722.0
255.13754	556.0
217.12251	502.0
223.11186	488.0
213.09195	431.0
227.10724	391.0
83.08498	386.0
199.0764	386.0
273.14716	376.0
215.10825	308.0
233.11668	274.0
217.08931	245.0
161.05884	242.0
171.08018	228.0
215.06947	219.0
185.05896	215.0
187.07625	211.0
240.1143	210.0
212.08521	207.0
239.10616	189.0
202.09747	185.0
175.07568	184.0
198.06616	182.0
229.08635	179.0
203.10677	176.0
201.09348	170.0
199.11232	166.0
141.07066	165.0
157.06551	163.0
225.08823	163.0
195.11514	162.0
197.05986	153.0
173.05992	153.0
219.09831	152.0
265.15848	151.0
185.0936	150.0
181.06511	149.0
254.12952	140.0
128.0636	137.0
269.19104	135.0
195.08095	133.0
272.14127	122.0
197.09561	122.0
184.08765	120.0
229.12341	120.0
211.07802	120.0
145.06641	118.0
245.10104	116.0
213.12625	113.0
165.06958	112.0
258.12326	109.0
208.08777	109.0
191.0705	106.0
153.07019	106.0
188.08495	101.0
170.07224	99.0
226.10176	93.0
189.09369	92.0
205.08379	92.0
283.15302	91.0
165.09097	90.0
169.06598	89.0
183.08044	87.0
227.13823	84.0
237.12636	84.0
179.08453	83.0
201.0518	82.0
169.10037	82.0
273.18439	79.0
255.17352	78.0
159.08246	78.0
158.07237	76.0
190.0619	76.0
268.14917	75.0
237.16557	74.0
209.09489	74.0
202.06544	74.0
167.08397	73.0
155.08824	70.0
243.10417	70.0
69.06976	70.0
129.0686	65.0
152.06248	65.0
143.04926	64.0
157.1011	61.0
172.08983	59.0
182.06808	59.0
232.11438	59.0
174.06505	58.0
213.12053	58.0
253.12349	58.0
297.14545	55.0
259.10605	55.0
269.15567	54.0
207.07744	54.0
244.10695	52.0
180.09515	52.0
267.13815	50.0
143.08675	50.0
204.07799	49.0
160.04991	48.0
163.07619	48.0
131.08589	48.0
154.07756	48.0
212.12086	48.0
257.11719	48.0
232.10394	47.0
147.04424	47.0
187.11642	47.0
297.16064	46.0
181.10069	46.0
203.05093	45.0
222.10361	44.0
333.20401	44.0
127.05479	44.0
131.05002	43.0
177.09007	42.0
193.10114	41.0
226.13564	40.0
141.06601	40.0
243.13625	39.0
205.09921	39.0
259.09818	39.0
285.14734	39.0
144.05843	39.0
224.11801	38.0
195.09326	36.0
271.13403	36.0
95.08704	36.0
236.12299	35.0
214.09819	35.0
184.0491	35.0
196.09178	33.0
207.11832	33.0
178.07675	33.0
156.05695	32.0
186.07291	32.0
171.04431	32.0
142.07634	32.0
259.17227	31.0
240.0961	31.0
177.05359	30.0
300.16663	30.0
251.14224	30.0
250.1344	29.0
159.04541	28.0
151.0545	28.0
159.11705	28.0
257.15332	28.0
211.05667	27.0
155.05043	27.0
115.05119	27.0
189.02904	27.0
221.09763	26.0
246.13098	25.0
149.05818	25.0
287.19846	25.0
237.10826	25.0
265.14413	25.0
166.08029	25.0
233.09874	25.0
191.10434	24.0
249.11313	24.0
233.08379	24.0
139.05617	24.0
241.08353	24.0
210.10445	24.0
171.11734	23.0
239.14401	23.0
275.12872	23.0
361.16843	22.0
227.06592	22.0
126.04449	22.0
207.06757	22.0
200.04626	22.0
193.06575	22.0
192.09534	22.0
183.04466	22.0
185.08028	22.0
57.06955	21.0
83.07337	14.0
165.05574	13.0
60.04388	12.0
85.06329	12.0

MSID: 8950
ID: 36
RETENTIONTIME: 12.60557
PRECURSORMZ: 449.1073
AREA: 8499619.0
PRECURSORTYPE: [M+H]+
SMILES: OC[C@H]1O[C@@H](OC2=C(OC3=C(C(O)=CC(O)=C3)C2=O)C2=CC=C(O)C=C2)[C@H](O)[C@@H](O)[C@@H]1O
NAME: astragalin
FORMULA: C21H20O11
INCHIKEY: JPUKWEQWGBDDQB-QSOFNFLRSA-N
CAS: 480-10-4
Molecular Weight: 448.383
Number of References: 2773
Class: Flavonols
Superclass: Flavonoids
Pathway: Shikimates and Phenylpropanoids
ppm: -1.090000000033342
CMID: CM243
IONMODE: Positive
COLLISIONENERGY: 40±20eV
INSTRUMENTTYPE: AB SCIEX
INSTRUMENT: Q-TOF
Comment:  
Num Peaks: 88
287.0563	200203.0
449.10785	6151.0
153.0184	4098.0
135.04362	661.0
241.05209	425.0
161.02188	386.0
269.04538	306.0
245.04483	244.0
179.03378	201.0
137.02435	193.0
286.10962	143.0
213.05379	123.0
259.0593	119.0
67.01792	117.0
203.03461	115.0
286.12286	97.0
185.05934	94.0
231.06708	94.0
68.99829	78.0
157.06459	72.0
117.03487	71.0
219.06396	65.0
203.02902	63.0
139.05415	61.0
171.04466	59.0
189.05771	59.0
147.04216	57.0
85.03004	56.0
89.03722	50.0
167.05139	49.0
195.04579	49.0
173.05771	48.0
286.04666	47.0
227.03539	45.0
111.00534	44.0
153.00507	44.0
288.22736	39.0
201.05638	37.0
258.05139	37.0
241.03232	34.0
289.51242	33.0
218.05766	33.0
287.74203	31.0
288.05612	30.0
287.88327	30.0
288.03616	30.0
286.56866	30.0
128.06274	30.0
286.58359	28.0
288.73972	28.0
135.02997	28.0
199.03673	27.0
127.05064	26.0
287.97635	26.0
286.80582	25.0
201.04944	25.0
288.19077	25.0
152.52208	25.0
286.88046	24.0
212.04857	24.0
155.05075	24.0
288.39032	23.0
69.0349	23.0
286.15103	23.0
123.00651	23.0
223.03625	22.0
129.0722	21.0
129.06552	21.0
288.10599	21.0
287.80185	21.0
224.05251	21.0
203.07089	21.0
153.03658	21.0
217.04936	20.0
175.03847	20.0
79.05112	20.0
289.89417	18.0
109.02582	18.0
185.0247	18.0
97.02811	17.0
177.05264	16.0
107.04485	15.0
110.99915	13.0
81.0331	12.0
95.01467	12.0
74.75378	12.0
67.05401	12.0
64.16419	12.0

MSID: 8951
ID: 380
RETENTIONTIME: 32.04302
PRECURSORMZ: 389.1956
AREA: 8441882.0
PRECURSORTYPE: [M+H]+
SMILES: [H][C@@]12[C@@H]3OC(=O)[C@@]1(CCCC2(C)C)C1=C([C@@H]3OCC)C(=O)C(C(C)C)=C(O)C1=O
NAME: canariquinone
FORMULA: C22H28O6
INCHIKEY: FYSABPSXOXYZFC-WEMPKCCASA-N
CAS: 121927-69-3
Molecular Weight: 388.461
Number of References: 87
Class: Abietane diterpenoids
Superclass: Diterpenoids
Pathway: Terpenoids
ppm: -0.8149999999886859
CMID: CM243
IONMODE: Positive
COLLISIONENERGY: 40±20eV
INSTRUMENTTYPE: AB SCIEX
INSTRUMENT: Q-TOF
Comment:  
Num Peaks: 378
273.11313	42293.0
311.16422	36445.0
329.17587	24583.0
272.1041	17253.0
269.1171	12145.0
245.1179	9579.0
231.06509	9571.0
251.10652	9465.0
261.11206	8414.0
271.134	7147.0
203.07045	6827.0
293.15268	6641.0
255.10155	6476.0
296.14008	5740.0
253.08763	4713.0
211.07515	4631.0
268.10904	4219.0
389.19608	3774.0
223.11185	3309.0
213.05475	3108.0
253.1219	3087.0
227.10574	3061.0
257.08105	2729.0
259.09656	2402.0
227.07033	2398.0
281.11804	2248.0
241.08655	2074.0
256.10992	2041.0
185.06027	1868.0
248.10472	1832.0
229.05075	1663.0
247.09683	1526.0
265.15848	1509.0
240.07939	1501.0
314.15152	1428.0
219.06494	1349.0
267.10129	1337.0
230.05682	1241.0
286.12061	1241.0
283.17111	1097.0
288.13528	1094.0
212.08234	1076.0
227.08803	1061.0
183.08176	1012.0
165.06958	991.0
236.08234	954.0
229.08485	933.0
225.09114	900.0
175.07567	884.0
197.06122	879.0
258.08862	782.0
263.10834	779.0
195.08231	773.0
239.0713	759.0
209.0963	748.0
235.07819	744.0
283.13321	722.0
254.0936	705.0
208.08775	660.0
237.09164	657.0
250.09875	654.0
243.06598	653.0
278.13083	651.0
189.05461	644.0
201.05595	634.0
214.06235	622.0
271.09531	620.0
287.16522	610.0
157.06549	606.0
233.08078	604.0
270.12543	596.0
217.05034	588.0
191.07048	557.0
241.12305	549.0
181.06509	529.0
301.17877	507.0
228.07796	506.0
195.1165	505.0
299.12735	484.0
235.11122	447.0
239.10765	444.0
223.07674	442.0
207.08165	437.0
238.09859	436.0
274.12082	431.0
187.07623	413.0
215.06801	411.0
294.16302	400.0
233.11517	393.0
153.06895	384.0
219.10265	381.0
225.1264	379.0
223.09868	373.0
199.075	368.0
257.1156	358.0
221.0976	348.0
181.10201	348.0
222.10358	344.0
55.01743	339.0
128.06248	336.0
147.08104	329.0
199.1123	326.0
167.08522	324.0
205.10201	322.0
243.10263	321.0
287.13037	316.0
223.09283	315.0
210.06752	313.0
152.06126	313.0
244.07326	309.0
179.08452	307.0
249.09146	305.0
275.14334	304.0
226.10027	299.0
182.07335	281.0
161.06007	281.0
295.13306	279.0
180.0925	272.0
250.13593	271.0
213.0905	258.0
155.08578	257.0
240.11429	254.0
231.10083	254.0
217.12248	247.0
169.0647	246.0
190.07674	246.0
129.0697	244.0
226.06198	243.0
229.06854	241.0
220.08954	239.0
171.08017	228.0
166.07776	225.0
279.13953	223.0
141.06949	220.0
267.13812	209.0
81.06997	208.0
145.06404	208.0
178.07674	207.0
197.0956	203.0
277.12396	202.0
217.08929	202.0
201.09346	195.0
207.11548	193.0
215.1068	193.0
59.05006	191.0
205.05151	191.0
225.05293	191.0
210.10301	190.0
285.10928	189.0
232.07558	187.0
300.13605	187.0
168.05637	185.0
160.04991	183.0
281.15253	182.0
211.05807	180.0
221.05974	177.0
216.04292	174.0
282.1239	174.0
193.06573	173.0
173.05992	173.0
184.05309	172.0
209.05806	167.0
193.10112	162.0
315.12613	160.0
177.05617	160.0
224.08281	159.0
194.07135	158.0
189.09232	157.0
222.06709	156.0
218.09335	154.0
185.09758	153.0
159.08121	150.0
202.06125	149.0
198.06615	148.0
184.08896	147.0
57.0333	142.0
143.08673	140.0
265.12497	138.0
218.07745	136.0
309.15308	136.0
286.1554	135.0
248.08311	134.0
264.1149	134.0
238.06232	131.0
192.09261	130.0
171.11604	130.0
265.1441	128.0
232.11137	128.0
174.06503	126.0
204.07938	125.0
156.09242	125.0
230.09544	124.0
55.05448	121.0
268.14594	121.0
260.12073	117.0
257.10461	116.0
69.06812	115.0
237.16254	115.0
256.09113	115.0
239.0925	112.0
202.09885	111.0
205.08377	110.0
190.06189	110.0
195.09872	108.0
237.12633	108.0
157.09985	105.0
206.0555	105.0
139.05501	104.0
131.08476	104.0
232.08751	104.0
131.04889	103.0
79.05357	103.0
154.07755	102.0
83.04838	102.0
209.08212	102.0
127.05368	101.0
225.11906	100.0
258.12482	100.0
205.06694	100.0
188.08359	99.0
259.12811	99.0
260.10333	99.0
171.04303	99.0
256.07858	98.0
215.03354	96.0
252.11632	95.0
187.03738	94.0
163.07492	91.0
203.10535	91.0
177.07181	90.0
247.14764	89.0
268.0914	88.0
249.11929	87.0
199.03908	82.0
142.08099	82.0
246.08948	81.0
137.09515	80.0
177.09006	80.0
213.12624	78.0
151.0545	78.0
57.06881	77.0
169.10417	76.0
159.1158	75.0
293.13086	75.0
224.118	74.0
95.08704	74.0
245.08876	72.0
203.04813	71.0
196.08766	71.0
243.05223	71.0
281.0885	70.0
242.05469	70.0
147.04424	68.0
222.14154	68.0
220.0692	67.0
218.05865	67.0
144.05606	66.0
242.09277	65.0
236.12297	65.0
291.13885	61.0
234.10463	61.0
212.04669	61.0
214.10104	60.0
243.13623	60.0
240.0627	59.0
243.03392	58.0
221.08012	58.0
285.10431	57.0
188.05136	56.0
167.04977	56.0
246.1033	55.0
255.13283	54.0
186.06755	54.0
105.06877	54.0
164.0632	54.0
182.0641	53.0
231.04128	53.0
208.12448	53.0
198.10474	52.0
133.06685	52.0
170.07605	50.0
207.10138	50.0
266.09384	50.0
234.06717	49.0
200.04486	49.0
195.06999	49.0
119.0863	49.0
229.12042	48.0
211.11499	48.0
109.10229	47.0
143.04808	47.0
67.05226	46.0
244.10999	45.0
293.1225	44.0
222.09045	44.0
171.06865	44.0
135.07748	44.0
261.0899	44.0
294.13782	44.0
132.0565	43.0
313.14032	43.0
146.07199	43.0
251.13446	42.0
93.07032	42.0
91.0556	42.0
185.0856	42.0
192.05731	40.0
254.07173	40.0
241.15651	40.0
183.04333	39.0
159.04416	39.0
172.08725	39.0
202.05151	39.0
77.0385	39.0
269.15085	38.0
196.05611	38.0
209.12746	38.0
227.04376	38.0
257.1517	37.0
310.13715	36.0
208.05385	36.0
166.06261	36.0
187.10838	35.0
167.07382	35.0
247.13071	35.0
85.06418	35.0
328.09286	34.0
128.04697	34.0
228.05281	34.0
312.17053	34.0
149.05936	34.0
252.07899	34.0
165.05322	33.0
83.08675	33.0
107.08516	33.0
234.08665	32.0
230.03009	32.0
183.11887	32.0
180.08199	31.0
186.10362	31.0
145.10062	31.0
211.04385	31.0
228.11493	31.0
280.10742	31.0
257.04651	31.0
182.10771	30.0
140.06044	30.0
117.06853	30.0
115.05433	30.0
240.04752	30.0
195.04126	30.0
183.05658	29.0
310.11646	29.0
272.0621	29.0
282.16339	29.0
253.05179	29.0
268.07056	29.0
175.04068	29.0
189.03441	28.0
309.13757	28.0
139.05038	28.0
261.07724	27.0
180.05571	27.0
165.09222	27.0
279.1019	27.0
250.07861	27.0
71.04861	27.0
97.06361	26.0
204.45311	26.0
95.08131	25.0
294.12439	25.0
287.09552	25.0
311.76056	25.0
301.13626	24.0
241.04245	24.0
103.05266	21.0
223.06065	21.0
75.72292	12.0

MSID: 8952
ID: 66
RETENTIONTIME: 15.24332
PRECURSORMZ: 301.0714
AREA: 8185437.0
PRECURSORTYPE: [M+H]+
SMILES: COC1=C(O)C=C(C=C1)C1=CC(=O)C2=C(O)C=C(O)C=C2O1
NAME: diosmetin
FORMULA: C16H12O6
INCHIKEY: MBNGWHIJMBWFHU-UHFFFAOYSA-N
CAS: 520-34-3
Molecular Weight: 300.268
Number of References: 525
Class: Flavones
Superclass: Flavonoids
Pathway: Shikimates and Phenylpropanoids
ppm: 0.18499999993082383
CMID: CM243
IONMODE: Positive
COLLISIONENERGY: 40±20eV
INSTRUMENTTYPE: AB SCIEX
INSTRUMENT: Q-TOF
Comment:  
Num Peaks: 68
286.04825	12991.0
301.07227	7652.0
168.00589	4069.0
140.01086	851.0
84.02065	388.0
112.01678	327.0
121.02779	318.0
301.05865	232.0
68.99664	223.0
258.05447	187.0
285.04202	182.0
56.02533	154.0
184.05344	102.0
160.05145	101.0
119.04913	93.0
255.06761	86.0
240.04494	85.0
212.04851	85.0
169.01154	83.0
213.05373	72.0
55.01753	68.0
257.047	60.0
229.04971	59.0
71.01077	54.0
173.06024	53.0
269.04691	53.0
139.99812	49.0
128.06271	45.0
268.03421	42.0
120.05359	41.0
66.00909	40.0
137.02318	40.0
70.00418	39.0
157.06456	39.0
156.05968	38.0
144.05751	38.0
93.03271	37.0
183.04103	36.0
201.05495	35.0
167.98178	33.0
94.00729	33.0
139.00331	33.0
212.03853	33.0
147.04213	32.0
216.03902	31.0
286.01016	31.0
65.03952	31.0
185.06329	31.0
91.05483	31.0
143.04836	29.0
109.02886	29.0
202.05746	27.0
95.01369	27.0
258.01987	26.0
187.03908	25.0
158.03572	25.0
145.06549	25.0
131.04913	24.0
121.99403	24.0
255.05667	24.0
230.05875	24.0
300.07385	24.0
215.03827	24.0
127.05282	24.0
165.02208	23.0
283.04971	13.0
268.01175	13.0
54.00952	12.0

MSID: 8953
ID: 32
RETENTIONTIME: 12.42622
PRECURSORMZ: 449.1068
AREA: 8044981.5
PRECURSORTYPE: [M+H]+
SMILES: OC[C@H]1O[C@@H](OC2=CC3=C(C(O)=C2)C(=O)C=C(O3)C2=CC=C(O)C(O)=C2)[C@H](O)[C@@H](O)[C@@H]1O
NAME: luteolin 7-O-glucoside
FORMULA: C21H20O11
INCHIKEY: PEFNSGRTCBGNAN-QNDFHXLGSA-N
CAS: nan
Molecular Weight: 448.383
Number of References: 1832
Class: Flavones
Superclass: Flavonoids
Pathway: Shikimates and Phenylpropanoids
ppm: -1.5900000000215186
CMID: CM243
IONMODE: Positive
COLLISIONENERGY: 40±20eV
INSTRUMENTTYPE: AB SCIEX
INSTRUMENT: Q-TOF
Comment:  
Num Peaks: 74
287.05576	129243.0
449.10696	2968.0
269.04486	1776.0
169.01379	1427.0
123.00953	972.0
119.04785	786.0
241.05011	573.0
227.03348	275.0
121.02759	230.0
213.05479	228.0
157.06552	174.0
151.00519	136.0
259.06195	125.0
145.02869	108.0
91.05468	108.0
245.04282	107.0
167.04854	98.0
95.01353	97.0
223.04167	97.0
85.02807	94.0
286.11237	85.0
195.04677	81.0
171.04306	70.0
185.06165	67.0
286.04776	52.0
199.0405	50.0
269.01917	46.0
286.55817	44.0
139.05272	44.0
69.03477	42.0
231.06514	41.0
168.99979	39.0
131.05003	39.0
143.04811	37.0
449.08621	36.0
97.02889	32.0
258.0509	28.0
127.05592	27.0
241.02882	27.0
285.02499	26.0
150.99675	26.0
288.03229	26.0
288.31827	26.0
147.03951	26.0
166.99664	25.0
288.21182	25.0
288.47128	25.0
259.04776	24.0
288.24841	24.0
290.15045	24.0
185.05499	24.0
127.03825	24.0
227.01282	23.0
288.94055	23.0
157.05569	23.0
286.09082	23.0
145.06407	23.0
129.0675	23.0
68.99653	22.0
289.24194	22.0
288.59772	22.0
173.06123	21.0
292.65826	21.0
73.03032	21.0
150.98352	20.0
69.03152	19.0
109.02868	18.0
329.06757	15.0
119.02969	13.0
141.07649	13.0
83.05018	12.0
70.03848	12.0
358.51175	12.0
61.03147	12.0

MSID: 8954
ID: 354
RETENTIONTIME: 31.60367
PRECURSORMZ: 285.185
AREA: 7908390.5
PRECURSORTYPE: [M+H]+
SMILES: [H][C@]12CCC3=C(C=C(O)C(=C3)C(C)C)C=C1C(=O)CC2(C)C
NAME: salvimultine
FORMULA: C19H24O2
INCHIKEY: AKCVZZQZSFNKEB-INIZCTEOSA-N
CAS: nan
Molecular Weight: 284.398
Number of References: 1
Class: Icetexane diterpenoids
Superclass: Diterpenoids
Pathway: Terpenoids
ppm: -0.45500000004494723
CMID: CM243
IONMODE: Positive
COLLISIONENERGY: 40±20eV
INSTRUMENTTYPE: AB SCIEX
INSTRUMENT: Q-TOF
Comment:  
Num Peaks: 282
215.10799	33585.0
285.18686	19399.0
267.17798	18905.0
197.09669	18460.0
173.06091	14834.0
225.12766	14212.0
200.08476	11460.0
243.13754	8804.0
169.10005	6910.0
141.07033	5874.0
191.10677	5656.0
145.0649	5052.0
229.12317	4850.0
81.0705	4728.0
153.06865	4318.0
183.08015	4068.0
182.07439	3980.0
154.07724	3873.0
227.10847	3739.0
55.05415	3660.0
181.06877	3578.0
167.08618	3378.0
209.09746	3178.0
165.07053	3141.0
242.13068	3088.0
211.11191	2951.0
149.06024	2760.0
155.08548	2653.0
187.07729	2626.0
152.06216	2588.0
128.06325	2422.0
179.08685	2326.0
131.04855	2142.0
203.10788	2142.0
201.09181	2128.0
195.08066	1971.0
95.08669	1966.0
115.05399	1829.0
217.12369	1804.0
129.06937	1801.0
171.08116	1772.0
103.05431	1754.0
199.0775	1747.0
205.12419	1725.0
166.07745	1659.0
169.08859	1597.0
196.08876	1488.0
172.09081	1469.0
168.09288	1426.0
185.09731	1341.0
157.06641	1333.0
178.07776	1324.0
239.17711	1290.0
69.07023	1236.0
241.12436	1183.0
213.09311	1074.0
117.0703	1069.0
127.05445	1045.0
239.15741	1026.0
79.05497	1010.0
165.08815	1001.0
189.09204	994.0
214.09937	981.0
67.05513	974.0
187.09068	918.0
143.08525	890.0
83.08641	864.0
210.10561	860.0
91.05431	824.0
256.14581	805.0
142.07716	764.0
255.1389	760.0
207.11804	701.0
199.11205	677.0
159.0809	662.0
202.09998	652.0
223.11455	640.0
195.09435	629.0
175.07538	611.0
224.1207	591.0
163.07712	565.0
270.16229	561.0
151.05418	547.0
239.14833	542.0
105.07044	516.0
143.05127	500.0
188.08331	496.0
237.12762	465.0
180.09485	457.0
169.07332	454.0
161.061	453.0
194.07381	435.0
170.0732	420.0
181.1004	418.0
143.0665	408.0
199.09131	404.0
179.10651	404.0
123.04501	397.0
224.13536	391.0
191.08646	379.0
103.05132	368.0
193.10085	366.0
224.14856	342.0
257.15781	341.0
285.17365	339.0
182.09554	334.0
184.09	333.0
174.06734	316.0
156.09456	305.0
224.15588	295.0
77.03815	287.0
144.05927	285.0
57.03445	284.0
137.06042	284.0
252.1519	283.0
139.05469	283.0
158.07329	278.0
185.06	272.0
133.10155	271.0
186.06995	260.0
216.11467	260.0
147.04272	256.0
208.08749	248.0
192.09505	245.0
185.07999	243.0
187.11078	239.0
143.08055	239.0
238.13615	236.0
53.03893	233.0
182.11008	229.0
228.11618	207.0
196.1107	196.0
230.12939	193.0
93.06903	176.0
155.07329	173.0
177.07022	171.0
119.0849	164.0
71.05157	163.0
107.08583	160.0
168.05859	156.0
195.10802	153.0
231.13931	149.0
190.07916	144.0
183.11725	141.0
186.10469	141.0
65.03906	141.0
249.16702	138.0
164.0629	137.0
168.06749	134.0
196.12579	129.0
194.10928	128.0
212.08353	122.0
189.0705	120.0
176.06424	119.0
209.13286	113.0
159.06361	112.0
198.0645	110.0
205.10736	110.0
160.05455	109.0
116.06365	106.0
172.07796	105.0
195.11623	105.0
201.10986	104.0
150.04475	104.0
201.12097	101.0
207.09409	96.0
203.08833	94.0
213.12743	94.0
257.17508	94.0
140.06012	90.0
226.10446	85.0
198.10585	84.0
207.07999	82.0
155.05133	82.0
219.14009	82.0
171.06834	76.0
219.1198	76.0
177.09108	76.0
157.08728	76.0
126.04634	74.0
121.10159	74.0
226.13834	73.0
222.10481	72.0
266.30142	72.0
57.06922	72.0
95.07523	69.0
171.1183	69.0
186.05659	66.0
131.08669	65.0
257.18924	64.0
159.0945	63.0
172.07411	62.0
144.091	62.0
224.09871	61.0
202.08745	60.0
181.049	60.0
241.09851	59.0
206.11148	59.0
121.06602	58.0
147.02966	58.0
193.12262	58.0
147.08073	57.0
211.07491	56.0
178.06339	56.0
234.13889	55.0
133.06653	55.0
83.07481	55.0
162.06937	54.0
215.68295	53.0
144.07925	52.0
204.09171	52.0
226.09415	51.0
163.05585	51.0
184.05147	51.0
150.06395	50.0
148.05273	50.0
69.03442	49.0
133.09138	49.0
223.14673	48.0
149.04111	48.0
257.13425	48.0
51.02279	47.0
200.06815	47.0
251.14513	46.0
214.40471	46.0
130.07607	44.0
244.14499	43.0
107.04834	43.0
227.09224	42.0
156.07376	41.0
102.04169	40.0
170.11151	40.0
159.10437	40.0
270.14456	40.0
201.07791	40.0
97.06808	40.0
159.12167	39.0
119.05283	39.0
105.04935	37.0
193.08861	37.0
194.05197	37.0
147.11755	36.0
208.12424	36.0
89.03761	35.0
210.13968	35.0
184.12854	35.0
240.10953	34.0
130.03922	34.0
109.02831	34.0
214.075	33.0
196.46198	31.0
237.10953	31.0
115.04559	30.0
213.06595	30.0
217.10637	29.0
198.14169	29.0
228.43285	29.0
225.09091	29.0
179.06981	29.0
221.09737	29.0
252.11302	29.0
204.11409	28.0
187.06255	28.0
212.12202	27.0
218.13217	26.0
156.05418	25.0
135.04642	25.0
252.13324	24.0
198.05347	24.0
142.06316	24.0
175.11426	23.0
145.10147	23.0
151.03372	22.0
210.04456	22.0
132.05843	22.0
172.50218	20.0
164.08298	19.0
216.10027	18.0
237.07184	17.0
119.93073	13.0
137.10056	13.0
75.3047	12.0

MSID: 8955
ID: 570
RETENTIONTIME: 38.41962
PRECURSORMZ: 411.3623
AREA: 7304830.0
PRECURSORTYPE: [M+H]+
SMILES: [H][C@@](CC)(\C=C\[C@@]([H])(C)[C@@]1([H])CC[C@@]2([H])C3=CC=C4C[C@@H](O)CC[C@]4(C)[C@@]3([H])CC[C@]12C)C(C)C
NAME: Δ7-stigmasterol
FORMULA: C29H46O
INCHIKEY: OQMZNAMGEHIHNN-CIFIHVIMSA-N
CAS: 481-19-6
Molecular Weight: 410.684
Number of References: 68
Class: Ergostane steroids
Superclass: Steroids
Pathway: Terpenoids
ppm: -0.3900000000385262
CMID: CM243
IONMODE: Positive
COLLISIONENERGY: 40±20eV
INSTRUMENTTYPE: AB SCIEX
INSTRUMENT: Q-TOF
Comment:  
Num Peaks: 85
411.36072	5531.0
83.08575	2571.0
97.06443	1261.0
55.05368	1148.0
109.06429	1063.0
69.06965	833.0
57.06947	528.0
81.06897	213.0
71.08483	176.0
97.10207	132.0
393.34903	123.0
327.26443	119.0
79.05258	112.0
139.15068	106.0
201.164	93.0
159.11557	92.0
95.08595	87.0
123.0832	79.0
271.20297	74.0
67.05296	71.0
83.04915	70.0
121.10175	70.0
123.11688	68.0
135.0807	61.0
163.14723	61.0
309.25769	61.0
109.10316	60.0
147.11766	57.0
161.12944	56.0
93.07018	54.0
133.10168	53.0
135.11598	50.0
91.05453	50.0
203.17764	50.0
171.1158	48.0
143.08536	48.0
105.06561	47.0
131.08907	47.0
107.08501	47.0
255.21538	46.0
119.08506	46.0
187.15099	45.0
77.03925	45.0
205.19569	44.0
327.25558	44.0
137.13051	44.0
173.12924	43.0
213.15739	43.0
145.1004	43.0
177.1263	41.0
189.16478	40.0
185.1333	40.0
163.1147	39.0
253.19478	39.0
149.13449	39.0
199.14795	37.0
219.17337	37.0
157.10454	35.0
313.25772	35.0
97.08566	34.0
217.19434	34.0
175.1441	31.0
411.31305	31.0
83.07236	29.0
55.04859	28.0
239.17697	28.0
135.07387	27.0
129.06841	26.0
243.17863	26.0
121.06403	25.0
94.04307	25.0
207.17297	24.0
215.17688	24.0
203.14134	23.0
299.23874	22.0
53.03775	22.0
231.2092	22.0
229.15419	22.0
227.17775	22.0
211.15027	20.0
411.39847	20.0
283.23993	13.0
325.18771	12.0
92.03376	12.0
88.45197	12.0

MSID: 8956
ID: 119
RETENTIONTIME: 22.63465
PRECURSORMZ: 349.2007
AREA: 7138135.5
PRECURSORTYPE: [M+H]+
SMILES: [H][C@@]12CC(=O)[C@]3([H])[C@]([C@@H]1O)([C@H](O)C[C@]1([H])[C@@](C)(CO)CCC[C@@]31C)C(=O)C2=C
NAME: amethystoidin A
FORMULA: C20H28O5
INCHIKEY: KVVMQRLBODZZRT-AZLPZDFOSA-N
CAS: nan
Molecular Weight: 348.439
Number of References: 3
Class: Kaurane and Phyllocladane diterpenoids
Superclass: Diterpenoids
Pathway: Terpenoids
ppm: -0.8000000000265572
CMID: CM243
IONMODE: Positive
COLLISIONENERGY: 40±20eV
INSTRUMENTTYPE: AB SCIEX
INSTRUMENT: Q-TOF
Comment:  
Num Peaks: 351
215.10706	28731.0
313.17883	9973.0
229.12219	8313.0
295.17044	7806.0
301.18082	6622.0
200.0825	5151.0
235.11301	3781.0
223.11212	2932.0
253.12378	2762.0
241.12335	2195.0
277.15854	2126.0
283.16983	2111.0
165.06978	1887.0
185.09648	1788.0
331.18906	1704.0
141.06966	1694.0
181.06532	1617.0
169.0649	1542.0
191.10591	1418.0
243.13652	1409.0
207.11714	1383.0
285.1857	1360.0
203.10559	1348.0
157.06445	1279.0
153.07036	1263.0
111.08058	1191.0
187.07512	1171.0
217.12276	1157.0
182.07358	1149.0
197.09584	1148.0
209.09654	1110.0
252.11351	1089.0
199.07663	1062.0
259.1694	1062.0
211.11098	1040.0
195.08118	1025.0
179.08736	992.0
173.06012	948.0
154.07774	931.0
349.19931	926.0
255.13783	923.0
183.08066	911.0
167.08542	879.0
271.13434	852.0
152.06267	849.0
271.16983	846.0
165.09117	844.0
227.1075	842.0
171.08038	822.0
143.04942	818.0
128.06152	807.0
192.09419	793.0
225.12668	775.0
269.15439	744.0
193.06598	735.0
169.10184	711.0
180.09404	706.0
195.11674	691.0
231.13982	685.0
149.05954	684.0
257.15359	669.0
155.08598	661.0
199.11255	660.0
201.09093	657.0
211.07826	635.0
166.07796	634.0
237.12662	613.0
129.06985	601.0
208.08801	601.0
259.13315	593.0
55.05455	571.0
161.06027	570.0
181.10091	567.0
145.06422	565.0
240.1161	552.0
239.10641	547.0
265.15878	547.0
191.08426	538.0
213.09219	524.0
251.14098	512.0
178.07697	505.0
225.09142	505.0
189.08986	502.0
175.07458	478.0
115.05342	473.0
237.09042	467.0
207.08049	445.0
143.08456	428.0
193.10136	425.0
131.05017	422.0
172.09003	420.0
249.16287	418.0
239.14125	416.0
257.11591	390.0
187.10994	389.0
271.14401	381.0
69.07065	374.0
258.12354	367.0
214.09987	361.0
219.07971	360.0
196.08789	351.0
226.10054	346.0
205.12189	340.0
85.06519	329.0
267.17526	326.0
194.07431	326.0
221.09642	325.0
205.10085	316.0
213.12793	310.0
93.07043	308.0
198.06776	308.0
202.09909	307.0
95.08524	306.0
163.07512	306.0
220.08836	305.0
233.09601	303.0
243.10139	298.0
142.07649	298.0
183.11777	297.0
91.05383	296.0
228.11372	287.0
197.05734	285.0
259.15048	283.0
157.10127	277.0
217.10255	275.0
287.16226	273.0
147.0444	271.0
248.11737	266.0
207.10022	265.0
159.08017	265.0
270.16278	262.0
266.12933	261.0
168.09338	258.0
242.13118	252.0
273.18631	243.0
170.0737	243.0
234.10492	240.0
219.11595	233.0
107.08529	231.0
83.04937	231.0
224.08162	226.0
262.13733	222.0
238.09888	220.0
190.07562	217.0
203.08606	215.0
212.08545	213.0
185.0605	211.0
179.1044	206.0
160.05258	204.0
57.03263	203.0
83.08418	203.0
156.09506	202.0
267.14005	201.0
127.05494	201.0
158.07132	200.0
206.10776	199.0
265.12051	197.0
222.1024	196.0
123.0455	196.0
270.12415	196.0
211.0939	194.0
247.11099	194.0
234.13939	191.0
174.06912	190.0
249.12732	190.0
186.06645	190.0
280.14548	189.0
177.07072	187.0
103.05279	186.0
216.11374	186.0
181.07982	185.0
77.03859	182.0
210.10469	177.0
97.06469	176.0
55.01749	174.0
241.15985	169.0
81.07007	168.0
231.10558	163.0
105.06991	162.0
254.13138	160.0
133.10091	157.0
188.08383	157.0
251.10527	156.0
245.15347	156.0
193.08638	156.0
169.08145	155.0
144.05859	153.0
210.06778	151.0
184.09052	151.0
79.05453	147.0
57.06962	147.0
245.12126	146.0
171.11754	143.0
151.05589	141.0
253.15494	141.0
217.09389	137.0
256.14471	135.0
219.09856	134.0
220.12469	131.0
230.1299	131.0
71.04869	131.0
168.0553	130.0
204.09361	130.0
117.06761	129.0
159.04312	127.0
189.06966	127.0
231.11897	127.0
119.08538	125.0
59.04863	124.0
229.08661	121.0
225.08408	118.0
201.12703	117.0
101.05916	116.0
255.1003	115.0
208.12332	114.0
236.12025	113.0
67.05475	112.0
137.05977	110.0
197.1302	110.0
237.16283	109.0
221.13283	109.0
177.09158	106.0
69.03403	105.0
209.12912	104.0
224.11681	104.0
235.08447	102.0
227.14145	101.0
87.04486	100.0
205.08542	100.0
139.05402	99.0
155.05183	95.0
228.1093	93.0
191.06937	91.0
177.05508	90.0
109.06356	90.0
163.05385	89.0
131.08604	89.0
219.1348	88.0
205.06718	87.0
157.07918	85.0
233.11694	85.0
143.07286	82.0
218.07193	82.0
230.1091	81.0
214.06261	81.0
212.12254	81.0
206.07402	80.0
213.1651	77.0
241.08836	77.0
241.09901	73.0
227.07208	72.0
275.12741	72.0
176.06215	72.0
285.146	72.0
201.05342	70.0
319.19568	70.0
250.13469	70.0
73.06471	70.0
201.06871	69.0
184.0533	69.0
140.06177	69.0
135.0822	68.0
133.06476	68.0
170.11075	67.0
275.15665	66.0
156.05713	65.0
244.11029	64.0
95.04896	62.0
261.12662	61.0
147.03491	60.0
247.13101	60.0
171.04195	60.0
165.05971	60.0
147.07767	59.0
289.14066	59.0
233.1319	58.0
216.07918	58.0
186.10519	58.0
145.10078	58.0
121.06542	57.0
179.0677	57.0
149.09541	56.0
209.05832	56.0
203.07628	56.0
167.04617	56.0
268.14307	56.0
109.10039	56.0
182.10794	55.0
209.07388	55.0
301.15195	54.0
233.07956	54.0
162.06737	54.0
269.12546	54.0
204.1118	53.0
196.12492	53.0
144.09386	53.0
256.10867	53.0
232.0863	52.0
137.09647	52.0
230.09424	50.0
113.05984	50.0
283.14676	50.0
198.09808	50.0
267.12244	49.0
228.08267	49.0
255.11594	49.0
221.11534	49.0
171.06117	48.0
189.05888	48.0
164.06215	46.0
150.06566	46.0
123.07919	46.0
271.11661	46.0
225.16489	44.0
107.04982	44.0
196.07967	44.0
349.16821	44.0
192.07791	43.0
247.09714	43.0
298.15283	43.0
286.15573	42.0
218.11098	42.0
222.14473	42.0
239.18063	41.0
214.08411	41.0
303.19492	41.0
167.05757	40.0
238.13666	40.0
214.4081	40.0
199.05589	39.0
149.03682	39.0
150.04526	38.0
233.15283	38.0
232.1236	38.0
266.10376	37.0
264.15024	36.0
189.04677	36.0
135.04008	35.0
237.06932	35.0
127.07592	34.0
263.14044	33.0
126.04353	33.0
242.09612	33.0
180.0717	32.0
279.1235	32.0
313.15454	32.0
71.01237	31.0
193.04964	31.0
247.16951	30.0
331.16589	25.0
52.02777	12.0

MSID: 8957
ID: 371
RETENTIONTIME: 31.78165
PRECURSORMZ: 299.0915
AREA: 6808783.0
PRECURSORTYPE: [M+H]+
SMILES: COC1=CC=C(C=C1)C1=CC(=O)C2=C(O)C=C(OC)C=C2O1
NAME: 5-hydroxy-7,4'-dimethoxyflavone
FORMULA: C17H14O5
INCHIKEY: LZERJKGWTQYMBB-UHFFFAOYSA-N
CAS: 5128-44-9
Molecular Weight: 298.295
Number of References: 292
Class: Flavones
Superclass: Flavonoids
Pathway: Shikimates and Phenylpropanoids
ppm: -0.4500000000007276
CMID: CM243
IONMODE: Positive
COLLISIONENERGY: 40±20eV
INSTRUMENTTYPE: AB SCIEX
INSTRUMENT: Q-TOF
Comment:  
Num Peaks: 177
299.09207	51848.0
256.07257	35633.0
284.06866	11080.0
167.03348	5445.0
213.05496	2206.0
241.05028	1254.0
124.01535	1129.0
227.07201	749.0
133.06473	638.0
197.05865	599.0
185.06046	572.0
255.06424	505.0
211.07535	434.0
157.06441	431.0
201.05338	394.0
159.04555	351.0
135.0446	324.0
96.02056	296.0
123.00636	280.0
128.06149	279.0
134.07211	264.0
129.0676	253.0
196.05219	210.0
169.06485	208.0
91.05381	191.0
139.05399	173.0
210.06914	163.0
174.06908	163.0
141.06963	132.0
145.06535	125.0
183.07796	123.0
67.01865	122.0
81.06916	115.0
239.07304	114.0
228.07965	110.0
55.05453	106.0
173.05879	105.0
168.05652	104.0
212.04546	104.0
257.15039	102.0
166.0249	101.0
195.04144	97.0
127.0549	96.0
118.04344	89.0
77.03857	89.0
238.06253	88.0
200.08244	86.0
230.05704	86.0
111.04443	85.0
152.06262	83.0
131.04901	81.0
79.05364	80.0
119.04794	77.0
182.0722	73.0
83.08505	71.0
90.04729	71.0
57.06886	71.0
184.04927	71.0
103.05276	70.0
95.08617	69.0
199.07242	69.0
171.04318	68.0
67.05312	68.0
144.02211	67.0
171.0829	66.0
68.99739	65.0
198.06494	64.0
181.06264	63.0
271.09396	63.0
68.02542	63.0
267.06155	61.0
217.04765	59.0
151.05344	56.0
229.12064	54.0
284.04059	54.0
164.04579	51.0
124.00662	51.0
240.04167	50.0
206.05287	49.0
71.08665	48.0
115.05444	46.0
89.03989	46.0
205.12323	45.0
159.08383	45.0
196.04533	44.0
223.03891	44.0
99.04403	43.0
138.02916	42.0
231.09807	42.0
298.09695	42.0
153.07153	42.0
137.02304	41.0
65.03946	41.0
149.02364	40.0
228.11366	40.0
123.11501	39.0
156.05586	39.0
214.06111	39.0
281.15115	39.0
188.08377	38.0
215.10556	37.0
53.0393	37.0
140.06172	37.0
226.06071	35.0
107.01028	35.0
207.04239	35.0
105.07289	35.0
239.1427	35.0
157.04109	34.0
79.01794	34.0
203.10832	34.0
149.05711	34.0
191.10992	34.0
170.07237	34.0
158.03802	33.0
241.12024	33.0
165.06973	33.0
187.08041	33.0
210.05779	32.0
139.03781	32.0
95.0136	32.0
125.0197	32.0
92.02364	31.0
102.04609	31.0
109.10138	31.0
161.06519	30.0
105.03474	30.0
155.08716	29.0
155.04446	29.0
146.0733	28.0
143.05173	28.0
243.14104	28.0
213.03209	28.0
281.24969	28.0
224.04491	27.0
255.23164	26.0
154.0789	26.0
127.00082	25.0
150.04761	25.0
225.05609	25.0
257.07971	25.0
284.0274	25.0
133.05003	25.0
97.10326	25.0
238.04893	25.0
255.02515	24.0
251.03227	24.0
93.06947	24.0
175.11212	24.0
136.05258	24.0
59.01324	24.0
223.02867	24.0
108.01767	24.0
133.02856	24.0
284.65164	24.0
197.0999	23.0
208.0498	23.0
185.04047	23.0
209.05542	23.0
135.00818	23.0
147.11801	23.0
165.09238	22.0
237.05568	22.0
177.05634	22.0
256.03494	21.0
240.98491	21.0
269.03864	21.0
85.1013	21.0
116.02718	21.0
298.51816	21.0
95.07853	20.0
111.03926	20.0
205.1008	20.0
179.08337	20.0
248.54326	12.0
75.02066	12.0
69.53373	12.0

MSID: 8958
ID: 239
RETENTIONTIME: 29.1919
PRECURSORMZ: 289.18
AREA: 6681313.5
PRECURSORTYPE: [M+H]+
SMILES: [H][C@@]12C[C@@H]3OC[C@@]1(CCCC2(C)C)C1=CC(=O)C(C)=C[C@@]31O
NAME: yunnannin A
FORMULA: C18H24O3
INCHIKEY: MIQYKENQAGSZSZ-PLYYQAHHSA-N
CAS: nan
Molecular Weight: 288.387
Number of References: 3
Class: Podocarpane diterpenoids
Superclass: Diterpenoids
Pathway: Terpenoids
ppm: -0.3700000000321779
CMID: CM243
IONMODE: Positive
COLLISIONENERGY: 40±20eV
INSTRUMENTTYPE: AB SCIEX
INSTRUMENT: Q-TOF
Comment:  
Num Peaks: 123
289.18024	7493.0
159.07996	1757.0
271.16946	1140.0
57.03329	924.0
55.05375	769.0
91.05371	652.0
79.05443	527.0
67.05386	413.0
119.08415	406.0
160.0883	404.0
233.15402	392.0
145.06403	384.0
117.06957	361.0
135.08087	353.0
107.04967	312.0
131.08588	296.0
105.06876	282.0
144.05605	268.0
215.14412	266.0
81.06908	261.0
93.07031	261.0
147.07866	258.0
173.09598	255.0
77.03763	239.0
115.05537	236.0
129.06857	228.0
145.1006	224.0
243.1759	209.0
128.06136	202.0
121.06526	187.0
161.09734	185.0
107.08414	177.0
83.08585	174.0
55.01669	173.0
81.03292	167.0
253.15927	158.0
177.09265	141.0
97.10123	122.0
95.08511	120.0
197.13269	118.0
211.11212	114.0
109.06648	112.0
141.07179	111.0
185.09756	110.0
171.11729	109.0
133.10074	109.0
155.08333	107.0
133.0657	107.0
95.04787	106.0
163.07614	104.0
261.1864	103.0
103.05364	103.0
189.12596	102.0
187.15123	100.0
153.07016	96.0
69.06893	92.0
137.05959	92.0
149.09641	91.0
157.0667	88.0
109.10126	85.0
153.09076	83.0
169.10033	81.0
187.11104	81.0
123.04316	80.0
125.09733	79.0
83.04926	78.0
217.12247	77.0
175.11194	76.0
158.07234	74.0
137.09743	74.0
65.03781	73.0
121.10298	73.0
157.10106	72.0
147.11548	71.0
183.11487	68.0
127.05367	68.0
146.07434	67.0
142.07864	66.0
225.1646	66.0
53.03782	66.0
205.15948	65.0
199.10953	63.0
119.05102	56.0
132.05762	56.0
193.12015	56.0
197.09694	56.0
149.09282	56.0
159.06885	55.0
97.06359	54.0
105.03262	47.0
175.07823	47.0
116.06398	45.0
111.08043	44.0
233.13608	44.0
187.10701	43.0
159.11826	43.0
167.08519	43.0
165.09221	43.0
69.03394	42.0
163.10992	41.0
227.14557	39.0
174.10379	38.0
201.12955	37.0
154.07753	37.0
168.09315	37.0
235.14873	36.0
51.02311	36.0
201.08926	36.0
191.10701	36.0
59.04705	35.0
231.13951	34.0
130.07414	34.0
173.08438	32.0
123.08228	32.0
185.1322	31.0
151.07375	30.0
135.11389	27.0
169.06595	26.0
147.06203	26.0
71.05108	26.0
135.06494	25.0
85.06327	24.0
83.04301	21.0

MSID: 8959
ID: 125
RETENTIONTIME: 22.95602
PRECURSORMZ: 331.0801
AREA: 6446517.0
PRECURSORTYPE: [M+H]+
SMILES: COC1=CC(=CC(OC)=C1O)C1=CC(=O)C2=C(O)C=C(O)C=C2O1
NAME: 5,7,4'trihydroxy-3',5'-dimethoxyflavone
FORMULA: C17H14O7
INCHIKEY: HRGUSFBJBOKSML-UHFFFAOYSA-N
CAS: 520-32-1
Molecular Weight: 330.294
Number of References: 318
Class: Flavones
Superclass: Flavonoids
Pathway: Shikimates and Phenylpropanoids
ppm: -1.6800000000216642
CMID: CM243
IONMODE: Positive
COLLISIONENERGY: 40±20eV
INSTRUMENTTYPE: AB SCIEX
INSTRUMENT: Q-TOF
Comment:  
Num Peaks: 139
331.08032	21991.0
270.0517	13166.0
298.04797	10457.0
316.05731	3527.0
136.01491	2365.0
108.02074	2136.0
242.05801	1499.0
135.04349	927.0
134.03584	880.0
137.02307	859.0
287.05603	859.0
168.05782	573.0
315.05347	533.0
186.06776	446.0
213.05357	397.0
139.05516	369.0
197.0587	345.0
140.06291	339.0
286.04803	324.0
80.02583	298.0
152.01073	270.0
273.039	237.0
52.0313	228.0
196.05359	176.0
185.06049	167.0
269.0419	152.0
214.06403	147.0
224.04935	137.0
124.01646	124.0
301.03635	124.0
153.02068	123.0
169.06616	116.0
139.0032	116.0
268.03882	109.0
225.05467	106.0
241.04729	102.0
171.04449	100.0
68.99578	94.0
297.03604	92.0
283.1698	89.0
195.04559	88.0
167.04869	83.0
157.06567	77.0
141.06966	75.0
109.02673	74.0
203.033	67.0
134.0007	61.0
179.03493	57.0
165.02069	51.0
51.02247	49.0
117.03157	48.0
158.07254	48.0
313.06961	47.0
135.9955	46.0
299.05655	45.0
286.02982	45.0
215.10561	44.0
160.05009	43.0
89.03806	43.0
187.04161	42.0
93.06853	42.0
161.02173	42.0
213.08931	42.0
181.01523	41.0
135.00706	41.0
106.00561	40.0
78.00784	39.0
223.04042	39.0
316.02423	39.0
258.05273	38.0
137.00702	37.0
285.07489	36.0
231.06685	36.0
129.06874	35.0
128.06262	35.0
277.21396	35.0
150.04645	34.0
71.04787	33.0
67.05555	33.0
108.01362	33.0
184.05063	32.0
79.05279	32.0
284.03076	31.0
125.02411	31.0
200.0437	31.0
197.04082	30.0
240.04172	30.0
199.04068	29.0
131.04791	29.0
202.02808	28.0
172.05276	28.0
298.01584	28.0
135.02528	28.0
173.0614	28.0
107.01334	27.0
245.04305	27.0
259.06061	26.0
329.94614	26.0
285.03683	26.0
195.07706	26.0
95.08524	26.0
253.05052	25.0
69.0332	25.0
252.04507	25.0
189.08984	25.0
257.05151	25.0
316.01205	24.0
143.04707	24.0
256.03186	24.0
155.04816	24.0
216.04173	24.0
295.17377	24.0
225.04291	24.0
329.99594	23.0
81.06918	23.0
178.03905	23.0
277.15201	23.0
81.03391	23.0
212.0455	22.0
50.0159	22.0
144.09267	22.0
150.03325	22.0
174.06653	22.0
288.0625	21.0
227.03369	21.0
297.05798	21.0
154.07529	21.0
271.06015	21.0
255.02206	21.0
83.08596	20.0
107.08731	20.0
55.05382	20.0
226.05782	19.0
267.99872	13.0
126.04462	13.0
66.01302	12.0
53.03575	12.0
310.99356	12.0
97.10232	12.0

MSID: 8960
ID: 158
RETENTIONTIME: 27.21467
PRECURSORMZ: 347.185
AREA: 6296100.5
PRECURSORTYPE: [M+H]+
SMILES: [H][C@]12[C@@H](O)[C@@H]3OC(=O)[C@@]1(CCCC2(C)C)C1=C3C=C(C(C)C)C(O)=C1O
NAME: isorosmanol
FORMULA: C20H26O5
INCHIKEY: UXVPWKDITRJELA-XLSPSMHOSA-N
CAS: nan
Molecular Weight: 346.423
Number of References: 36
Class: Abietane diterpenoids
Superclass: Diterpenoids
Pathway: Terpenoids
ppm: -0.8500000000140062
CMID: CM243
IONMODE: Positive
COLLISIONENERGY: 40±20eV
INSTRUMENTTYPE: AB SCIEX
INSTRUMENT: Q-TOF
Comment:  
Num Peaks: 335
283.16992	17336.0
243.13814	6913.0
223.1122	6463.0
273.11197	5244.0
347.18549	3205.0
265.15729	2862.0
301.17923	2650.0
241.12343	2345.0
157.06451	2082.0
240.1162	1993.0
195.11818	1785.0
225.09003	1757.0
179.10709	1676.0
199.11125	1664.0
329.17285	1646.0
285.18414	1557.0
165.07109	1546.0
245.11829	1442.0
217.1214	1434.0
208.08809	1179.0
181.06407	1106.0
180.0941	1032.0
215.1057	994.0
153.07042	948.0
179.08611	907.0
185.06058	875.0
201.09239	867.0
207.08057	840.0
227.10759	817.0
191.10735	801.0
183.08205	724.0
259.09698	723.0
129.07101	721.0
155.08603	695.0
269.11752	678.0
237.16441	627.0
175.07594	613.0
347.10339	590.0
311.16473	580.0
205.10092	572.0
203.07356	541.0
173.0602	530.0
268.14636	528.0
197.0959	516.0
128.06268	505.0
149.0596	490.0
167.08548	482.0
141.06972	479.0
225.12677	456.0
254.13303	442.0
287.12753	429.0
253.12076	422.0
209.09804	416.0
222.10394	407.0
211.07549	407.0
193.10007	405.0
233.15442	393.0
171.1176	381.0
305.14056	381.0
235.1131	372.0
286.073	367.0
291.12094	365.0
250.13478	363.0
267.17377	359.0
165.08997	358.0
195.07851	353.0
190.07838	346.0
152.06271	341.0
228.11678	340.0
213.09084	338.0
166.07928	336.0
169.10063	311.0
251.10692	308.0
314.07043	307.0
178.07834	306.0
239.10803	303.0
199.07532	302.0
200.08258	283.0
187.07385	280.0
171.08173	278.0
156.09145	273.0
145.06664	273.0
205.12196	273.0
212.08411	269.0
181.09966	268.0
169.06497	267.0
159.08147	266.0
237.12822	265.0
229.12227	261.0
207.1158	261.0
143.08696	260.0
231.06398	259.0
221.09358	254.0
198.06784	250.0
161.06157	250.0
137.05867	245.0
207.10172	237.0
203.10567	227.0
131.05022	225.0
236.12033	221.0
202.09917	221.0
222.14043	218.0
259.13168	217.0
173.09627	212.0
332.07916	208.0
255.10039	206.0
257.15527	205.0
127.05499	203.0
154.07779	201.0
185.09654	200.0
194.11122	197.0
184.08792	192.0
217.10551	186.0
229.08372	186.0
189.07108	182.0
182.071	182.0
261.14572	182.0
131.08498	173.0
55.05384	171.0
231.10268	163.0
81.07186	161.0
192.09427	156.0
211.11249	151.0
197.05879	149.0
163.07643	148.0
91.05387	146.0
197.13165	144.0
242.12975	144.0
231.13544	142.0
83.05029	137.0
184.05205	133.0
189.08994	130.0
147.04327	129.0
187.11136	128.0
199.0919	128.0
69.06986	127.0
158.07384	127.0
115.05451	126.0
155.07994	123.0
271.13605	123.0
145.10085	121.0
233.0961	119.0
227.07068	119.0
208.12624	118.0
255.1786	117.0
263.12943	116.0
319.19055	114.0
226.1021	113.0
245.09988	113.0
95.08432	111.0
142.07771	110.0
213.12515	108.0
210.10193	105.0
236.08421	103.0
196.08934	102.0
293.15146	102.0
157.09888	102.0
188.08389	102.0
123.04555	101.0
213.05367	100.0
247.14804	99.0
243.10913	98.0
273.18481	98.0
220.09135	97.0
269.15448	97.0
215.0899	97.0
273.09738	94.0
193.06741	94.0
133.10097	93.0
168.05663	93.0
177.06819	92.0
217.05069	91.0
202.07828	90.0
239.14589	90.0
247.09723	89.0
171.04457	88.0
170.07249	87.0
258.09061	87.0
249.12587	87.0
271.04898	86.0
139.05522	85.0
288.13409	85.0
157.05223	85.0
209.13628	85.0
177.09555	84.0
183.11783	84.0
59.0479	83.0
119.04909	82.0
232.12369	81.0
174.0666	80.0
265.14136	79.0
218.07346	78.0
186.06519	77.0
261.1109	77.0
219.10443	75.0
83.086	74.0
205.09111	72.0
97.06569	72.0
55.01824	72.0
209.06122	72.0
144.05981	71.0
79.0537	71.0
148.05211	71.0
219.13924	71.0
347.15265	70.0
105.06894	68.0
85.06432	68.0
182.108	67.0
243.05568	66.0
160.05141	65.0
201.12572	65.0
240.08736	65.0
180.07965	64.0
299.04654	64.0
171.11119	63.0
67.05558	63.0
172.09009	63.0
241.08998	63.0
284.0672	62.0
119.08543	62.0
257.11914	61.0
216.11237	60.0
331.07156	60.0
199.04077	60.0
312.06201	59.0
151.05234	59.0
214.09995	59.0
208.0782	58.0
168.09218	58.0
179.0717	57.0
167.0741	56.0
215.05974	55.0
103.0568	55.0
229.10449	55.0
224.08316	55.0
258.08273	55.0
155.04823	54.0
147.08009	54.0
285.06509	52.0
228.07832	52.0
175.10965	51.0
204.09088	51.0
222.12584	51.0
93.06858	50.0
117.06765	50.0
259.16949	49.0
287.16736	49.0
273.1492	49.0
221.0863	49.0
219.08269	49.0
256.14484	48.0
221.11397	48.0
108.02079	48.0
159.11853	48.0
217.08388	48.0
215.14735	48.0
77.03776	47.0
121.10211	47.0
151.03789	46.0
239.17769	46.0
230.0869	46.0
257.08304	45.0
151.0764	45.0
199.05458	45.0
185.08456	45.0
187.03902	44.0
301.15546	42.0
313.06454	41.0
244.07518	41.0
273.07959	41.0
202.05879	41.0
249.09032	40.0
193.08646	40.0
236.1068	40.0
267.14014	39.0
57.0726	39.0
254.09399	39.0
194.09758	39.0
235.07706	39.0
137.05064	39.0
289.05917	38.0
275.14215	38.0
164.06346	38.0
258.12363	38.0
251.14572	38.0
241.15385	37.0
210.07069	37.0
305.12003	37.0
285.14777	37.0
170.06355	37.0
234.06606	37.0
270.12747	37.0
270.16287	37.0
233.11853	37.0
215.0741	36.0
191.07079	36.0
157.08661	36.0
238.0627	35.0
190.05949	35.0
205.06726	34.0
283.13696	33.0
69.03568	33.0
329.13199	33.0
270.04376	33.0
189.1263	33.0
196.12225	32.0
159.0444	32.0
135.04468	32.0
109.02269	32.0
171.0638	32.0
150.04651	32.0
140.06181	31.0
135.0811	31.0
296.14221	31.0
109.0994	31.0
163.04141	31.0
222.0762	29.0
53.03862	28.0
149.09666	28.0
216.07782	28.0
238.09895	28.0
245.19189	28.0
304.08759	27.0
133.06706	27.0
269.04684	27.0
241.07326	26.0
144.09273	26.0
249.11505	26.0
255.08475	25.0
242.11145	24.0
137.0197	24.0
250.11154	22.0
170.10953	22.0
85.06161	12.0
74.42977	12.0

MSID: 8961
ID: 150
RETENTIONTIME: 26.21045
PRECURSORMZ: 347.185
AREA: 6164007.5
PRECURSORTYPE: [M+H]+
SMILES: [H][C@]12CCC=C3C(=O)OC[C@@]13C[C@@H](O)[C@@H](C)[C@]2(C)CCC1=CC(=O)OC1
NAME: 7α-Hydroxy-neo-clerodan-3,13-dien-18,19:15,16-diolide
FORMULA: C20H26O5
INCHIKEY: UYSLZZGPQSCREY-ACLXAEORSA-N
CAS: 63640-89-1
Molecular Weight: 346.423
Number of References: 7
Class: Colensane and Clerodane diterpenoids
Superclass: Diterpenoids
Pathway: Terpenoids
ppm: -0.8500000000140062
CMID: CM243
IONMODE: Positive
COLLISIONENERGY: 40±20eV
INSTRUMENTTYPE: AB SCIEX
INSTRUMENT: Q-TOF
Comment:  
Num Peaks: 271
231.10257	22983.0
301.17911	21529.0
283.16815	12515.0
273.18466	11641.0
241.12332	7770.0
203.10696	6140.0
217.12273	6070.0
177.09155	2803.0
219.09998	2401.0
257.15515	2342.0
188.0838	2335.0
223.11209	2304.0
175.07457	1924.0
161.06024	1825.0
259.13312	1598.0
165.09116	1418.0
69.06982	1303.0
149.05952	1217.0
191.1059	1188.0
215.10704	1172.0
185.09647	1169.0
259.16937	1163.0
109.10037	1163.0
199.07523	1156.0
157.06566	1136.0
213.12648	1079.0
229.12068	1077.0
213.09216	995.0
195.11671	977.0
216.07771	966.0
189.05348	802.0
205.12328	767.0
199.11115	752.0
181.06662	725.0
255.17535	709.0
145.06538	702.0
149.09659	699.0
197.09581	681.0
157.10249	666.0
173.0614	665.0
245.1151	664.0
141.06964	615.0
171.08165	596.0
187.07643	592.0
143.04941	580.0
55.05382	561.0
129.06984	560.0
131.05016	547.0
201.0909	546.0
240.11607	546.0
179.10568	538.0
185.05916	525.0
165.06976	481.0
128.06262	464.0
265.16037	455.0
195.08115	436.0
170.07368	432.0
67.05474	430.0
227.10747	426.0
163.07385	422.0
189.09119	408.0
142.07881	391.0
239.10791	390.0
243.13802	380.0
225.09138	378.0
183.08063	375.0
169.06361	369.0
177.05507	367.0
95.08524	363.0
203.09161	361.0
208.08798	353.0
195.10304	351.0
233.11543	346.0
167.08667	334.0
198.06773	329.0
180.0927	328.0
153.07034	317.0
143.08572	307.0
202.09908	307.0
83.08507	303.0
239.14275	292.0
159.08139	275.0
123.04331	273.0
152.06143	272.0
157.05952	266.0
184.08916	263.0
81.06918	261.0
169.10182	233.0
127.05383	221.0
179.08603	217.0
211.11238	216.0
205.08681	211.0
199.09734	208.0
171.11751	205.0
147.04439	203.0
200.08386	202.0
211.07539	200.0
160.05257	200.0
212.084	190.0
137.05975	187.0
197.06006	186.0
193.09998	186.0
203.07347	186.0
221.09639	182.0
202.06287	174.0
155.08597	166.0
174.06653	161.0
237.11302	156.0
157.08653	155.0
177.07201	151.0
195.06747	150.0
115.05446	149.0
186.06776	148.0
144.05858	147.0
147.08002	147.0
131.08603	147.0
255.13937	146.0
182.07487	143.0
158.07376	143.0
230.12987	142.0
93.06853	141.0
237.16431	138.0
166.07668	137.0
198.10358	136.0
133.06587	133.0
258.12509	131.0
215.07256	129.0
117.06866	128.0
173.09489	126.0
156.09259	124.0
193.12311	123.0
226.09756	122.0
225.12813	120.0
207.08188	120.0
187.11394	116.0
255.16597	115.0
221.11824	115.0
135.04349	114.0
91.05569	111.0
191.08694	111.0
103.05476	105.0
214.09698	105.0
172.08743	100.0
79.05453	100.0
231.13533	97.0
160.08974	95.0
207.09738	94.0
222.14032	93.0
171.04449	93.0
154.07771	93.0
237.1266	92.0
209.09653	89.0
105.06989	88.0
107.08427	87.0
187.03625	85.0
243.13039	84.0
222.10822	84.0
231.08173	83.0
194.07156	82.0
162.0661	82.0
241.15678	81.0
347.18533	81.0
268.14624	80.0
190.05804	79.0
188.04889	78.0
185.13243	78.0
85.06428	78.0
218.13121	77.0
204.07959	77.0
57.07035	76.0
57.0341	74.0
176.04784	74.0
240.10089	73.0
145.10077	72.0
191.07339	72.0
175.11345	69.0
183.11244	69.0
196.08513	68.0
139.05516	67.0
155.04938	67.0
77.03858	65.0
179.07292	64.0
211.14796	64.0
161.04161	64.0
223.08577	64.0
204.11598	62.0
243.10136	61.0
181.09956	60.0
146.07333	60.0
245.15651	58.0
55.01676	58.0
219.07968	57.0
254.13135	57.0
153.05338	57.0
229.10735	56.0
111.0816	56.0
250.1393	56.0
209.13051	53.0
227.14584	53.0
71.04868	53.0
151.05467	52.0
176.08292	52.0
224.08305	52.0
168.05908	52.0
218.0936	51.0
258.1597	51.0
156.05711	50.0
235.11298	50.0
170.06091	49.0
143.03886	48.0
109.09014	48.0
53.0386	47.0
119.08643	46.0
151.07634	46.0
178.07956	46.0
181.04948	46.0
131.04118	45.0
97.06371	45.0
175.03958	44.0
188.06097	44.0
230.33942	43.0
137.09874	43.0
253.12064	43.0
236.11871	43.0
175.05513	43.0
255.12216	42.0
208.12471	42.0
65.03789	41.0
241.09138	41.0
212.11824	41.0
132.05666	39.0
225.07376	39.0
228.11371	38.0
216.05612	38.0
165.05089	38.0
149.04996	37.0
170.10945	37.0
231.07428	37.0
194.1084	37.0
216.11514	37.0
272.14319	36.0
193.06731	36.0
126.04572	35.0
55.04946	35.0
229.0851	35.0
163.03633	35.0
83.04847	35.0
59.04862	34.0
245.09364	34.0
267.17203	34.0
265.13644	33.0
202.07957	33.0
221.08475	33.0
168.09337	32.0
192.09282	32.0
107.04981	32.0
121.0611	31.0
201.06174	31.0
300.189	31.0
281.14957	30.0
121.10529	30.0
215.06252	30.0
185.12311	29.0
180.07825	29.0
150.04524	29.0
329.17447	28.0
119.04903	27.0
148.05203	25.0
133.10204	25.0
199.05312	25.0
97.97478	12.0

MSID: 8962
ID: 220
RETENTIONTIME: 28.58622
PRECURSORMZ: 364.2118
AREA: 6095080.5
PRECURSORTYPE: [M+NH4]+
SMILES: [H][C@@]12CCC3=C(C(=O)C(O)=C(C(C)C)C3=O)[C@]1(CCCC2(C)C)C(O)=O
NAME: royleanonic acid
FORMULA: C20H26O5
INCHIKEY: TWZMQZBMHUHORI-FKIZINRSSA-N
CAS: nan
Molecular Weight: 346.423
Number of References: 5
Class: Abietane diterpenoids
Superclass: Diterpenoids
Pathway: Terpenoids
ppm: -0.5990000000224427
CMID: CM243
IONMODE: Positive
COLLISIONENERGY: 40±20eV
INSTRUMENTTYPE: AB SCIEX
INSTRUMENT: Q-TOF
Comment:  
Num Peaks: 399
301.18045	73857.0
231.10231	64155.0
347.18677	57369.0
189.0546	12638.0
283.16946	11893.0
219.10118	8220.0
165.09096	7948.0
259.16907	7542.0
273.18436	6742.0
241.12152	5954.0
245.11635	5661.0
216.0789	5622.0
217.12248	5508.0
259.147	5475.0
319.19003	4631.0
215.10678	4085.0
329.17587	3984.0
161.06006	3506.0
55.05375	2903.0
179.1068	2756.0
205.08656	2688.0
233.11665	2586.0
149.05936	2254.0
223.11183	2145.0
213.09192	1830.0
267.17493	1805.0
107.08515	1783.0
203.07184	1764.0
83.08586	1727.0
175.07436	1727.0
157.06548	1710.0
203.10533	1639.0
69.06975	1591.0
197.09558	1495.0
173.05862	1429.0
167.10674	1385.0
185.05894	1272.0
199.07637	1232.0
191.10567	1129.0
225.1264	1080.0
199.1123	957.0
198.0675	952.0
123.04426	929.0
171.08017	914.0
227.10573	896.0
131.04887	874.0
163.07616	862.0
265.15845	853.0
185.09491	845.0
240.1158	832.0
213.12624	828.0
277.18103	826.0
191.06912	797.0
188.08224	792.0
145.06522	789.0
258.12323	754.0
177.09006	719.0
201.09206	718.0
183.08043	718.0
200.08224	691.0
255.17349	680.0
95.08512	655.0
169.10034	633.0
129.06857	588.0
128.06136	588.0
181.06509	587.0
143.04807	582.0
243.13927	578.0
141.07065	573.0
177.05486	564.0
257.1517	555.0
275.20181	524.0
81.06908	493.0
195.11513	490.0
137.0596	474.0
285.18698	473.0
187.07487	470.0
213.10764	465.0
153.06895	440.0
211.11356	437.0
229.12338	426.0
170.07094	420.0
215.07231	419.0
169.06596	409.0
105.07078	400.0
225.09113	398.0
91.05466	393.0
207.10136	388.0
155.08578	379.0
179.0714	377.0
147.04541	373.0
195.10008	365.0
259.11234	355.0
209.0807	351.0
152.06247	348.0
205.12163	348.0
195.07956	342.0
159.04414	316.0
174.06633	309.0
179.08713	305.0
217.08784	303.0
311.16422	301.0
208.08774	297.0
142.07631	295.0
149.09642	294.0
209.09486	289.0
243.10109	288.0
305.13834	286.0
121.10191	268.0
131.08363	268.0
167.08647	267.0
193.12289	267.0
57.03329	264.0
103.05464	256.0
197.0612	250.0
159.07997	249.0
180.09381	249.0
255.13751	245.0
259.09656	240.0
143.08556	239.0
263.12579	238.0
271.17108	235.0
182.07202	234.0
239.14095	231.0
67.05386	231.0
175.06918	229.0
269.1171	227.0
219.13887	226.0
226.06345	223.0
199.104	222.0
150.06786	221.0
79.05444	220.0
154.07632	220.0
181.08354	217.0
173.13206	216.0
187.11105	215.0
184.09027	215.0
217.1095	215.0
237.12784	213.0
71.04943	213.0
93.07031	210.0
268.14432	205.0
212.08234	200.0
115.05537	200.0
163.03864	198.0
254.13104	196.0
190.06323	196.0
127.05367	194.0
157.10107	191.0
119.08523	190.0
239.10915	187.0
202.06403	186.0
185.07626	184.0
226.09879	179.0
211.07657	172.0
239.17882	170.0
183.11752	169.0
133.06459	168.0
181.10199	167.0
205.11882	165.0
171.11603	165.0
191.08943	164.0
173.09727	162.0
171.0443	162.0
158.07236	155.0
145.1006	154.0
172.08723	154.0
151.07495	154.0
253.15617	150.0
133.10187	150.0
245.09488	147.0
197.13133	146.0
198.10611	145.0
237.11124	144.0
237.16403	143.0
85.06418	143.0
109.10127	139.0
196.08902	137.0
212.11942	133.0
218.09335	132.0
193.10384	132.0
222.10358	131.0
166.07774	128.0
156.09119	128.0
364.21237	126.0
160.05362	125.0
178.07803	122.0
147.08104	121.0
117.07064	121.0
207.08163	119.0
311.15558	118.0
159.11456	118.0
224.11945	117.0
210.10442	116.0
189.08827	115.0
194.07133	114.0
253.1219	113.0
186.06621	111.0
217.05032	108.0
232.10988	108.0
229.08484	108.0
184.05174	108.0
125.09624	106.0
135.04219	105.0
283.1431	104.0
185.13356	103.0
97.06457	103.0
235.15025	103.0
207.06473	101.0
139.05499	98.0
250.13591	96.0
221.08157	95.0
201.05595	95.0
149.07489	95.0
83.04926	95.0
277.14026	94.0
190.07808	92.0
144.05606	92.0
168.0919	88.0
167.08014	85.0
269.15402	84.0
255.15472	84.0
300.19034	82.0
169.09016	81.0
59.04931	80.0
235.13223	80.0
192.09259	77.0
271.13077	76.0
249.11464	75.0
221.11507	75.0
176.04633	75.0
230.34509	75.0
151.05449	74.0
236.11995	74.0
213.06332	74.0
242.13086	73.0
214.09531	73.0
175.03679	73.0
193.08614	72.0
157.09494	71.0
251.10806	70.0
173.08568	70.0
162.06467	69.0
241.15955	69.0
53.03925	69.0
204.08215	69.0
147.11786	68.0
257.18939	68.0
197.11484	67.0
240.14919	66.0
235.11121	66.0
241.08502	66.0
123.08011	65.0
202.09744	65.0
230.12961	65.0
245.15163	64.0
107.04868	64.0
219.07799	64.0
230.09395	63.0
317.17401	62.0
286.15869	61.0
195.06725	61.0
57.06955	60.0
243.08734	59.0
251.14066	59.0
133.09622	58.0
228.11639	58.0
165.05573	57.0
319.15854	57.0
153.05441	57.0
256.10678	56.0
175.11066	55.0
163.14996	54.0
223.17328	53.0
252.1443	53.0
227.09245	53.0
160.08707	52.0
227.07031	52.0
204.11433	51.0
287.1254	51.0
109.06342	50.0
187.03737	50.0
161.04515	50.0
137.09399	49.0
167.04849	49.0
216.11633	49.0
261.14844	48.0
250.13127	48.0
329.15277	48.0
233.09123	48.0
244.07172	47.0
191.14629	47.0
346.04349	47.0
214.05948	47.0
221.13254	46.0
77.03677	46.0
193.06573	46.0
209.13168	46.0
293.15265	46.0
273.15683	45.0
213.05617	45.0
149.04381	45.0
208.1273	45.0
223.07088	45.0
300.20053	44.0
199.04044	43.0
155.04797	43.0
137.04927	43.0
135.08316	42.0
130.08086	42.0
146.07434	42.0
99.07903	42.0
194.1109	42.0
223.14987	42.0
223.08112	42.0
226.13707	41.0
251.12823	41.0
209.15152	41.0
242.12477	40.0
144.05371	40.0
233.15553	40.0
228.07646	39.0
69.03313	39.0
183.0632	37.0
210.0675	36.0
247.09836	36.0
119.04782	36.0
197.04884	36.0
232.34569	35.0
159.06514	35.0
302.1824	35.0
225.15579	35.0
247.14455	34.0
293.17111	34.0
182.10902	34.0
241.0759	33.0
265.11859	33.0
231.13506	33.0
176.08142	33.0
210.13849	33.0
93.03442	33.0
111.08456	32.0
97.10123	32.0
131.06346	32.0
209.0538	31.0
275.14169	31.0
164.08452	31.0
199.05426	31.0
168.05508	31.0
180.05701	31.0
203.04532	30.0
223.0621	30.0
61.02916	30.0
259.08078	30.0
161.0961	30.0
206.07236	30.0
126.04777	30.0
125.0601	29.0
200.07256	28.0
128.04474	27.0
153.09076	27.0
238.13484	26.0
181.04401	26.0
55.01815	26.0
259.53973	26.0
215.04359	25.0
59.04479	25.0
220.10696	25.0
277.1272	25.0
201.02957	25.0
122.07603	25.0
273.10989	25.0
203.03835	25.0
150.04866	25.0
200.04762	25.0
273.14389	24.0
177.50867	24.0
212.05095	24.0
91.04157	24.0
184.03978	24.0
224.10332	24.0
186.05685	24.0
172.05383	24.0
155.06139	23.0
272.1687	23.0
202.40387	23.0
237.14594	23.0
239.06674	23.0
119.07347	23.0
133.0533	23.0
190.09969	22.0
65.0386	22.0
364.17499	22.0
317.71844	22.0
176.06192	21.0
222.08606	21.0
218.12662	21.0
77.03333	20.0
96.0435	12.0

MSID: 8963
ID: 109
RETENTIONTIME: 21.2023
PRECURSORMZ: 271.0597
AREA: 5938791.0
PRECURSORTYPE: [M+H]+
SMILES: OC1=CC=C(C=C1)C1=CC(=O)C2=C(O)C=C(O)C=C2O1
NAME: 5,7-dihydroxy-2-(4-hydroxyphenyl)-4H-1-benzopyran-4-one
FORMULA: C15H10O5
INCHIKEY: KZNIFHPLKGYRTM-UHFFFAOYSA-N
CAS: 520-36-5
Molecular Weight: 270.241
Number of References: 20935
Class: Flavones
Superclass: Flavonoids
Pathway: Shikimates and Phenylpropanoids
ppm: -0.9499999999889042
CMID: CM243
IONMODE: Positive
COLLISIONENERGY: 40±20eV
INSTRUMENTTYPE: AB SCIEX
INSTRUMENT: Q-TOF
Comment:  
Num Peaks: 84
271.06021	35067.0
153.01706	5209.0
91.05385	1473.0
68.9966	1191.0
119.04906	1137.0
145.02885	1070.0
67.01787	1002.0
121.0288	535.0
65.0387	438.0
163.03886	309.0
141.06967	255.0
243.06477	252.0
197.0601	232.0
229.04958	230.0
115.05553	221.0
187.03763	215.0
225.0547	196.0
131.04906	174.0
169.06493	157.0
155.04819	150.0
93.03455	122.0
97.02804	113.0
117.03054	93.0
203.07352	90.0
253.05057	86.0
69.03322	82.0
168.05785	81.0
125.02303	77.0
151.0547	74.0
111.00525	72.0
127.05385	70.0
89.03992	70.0
128.06042	65.0
157.06201	62.0
242.05806	60.0
109.02778	54.0
55.01823	53.0
79.01797	53.0
228.04276	53.0
77.03688	53.0
81.03216	51.0
83.011	51.0
215.06973	49.0
159.04314	47.0
211.04129	44.0
167.04999	42.0
121.01588	41.0
63.02386	40.0
107.01234	39.0
139.05173	39.0
67.01146	37.0
173.05885	37.0
201.05345	36.0
203.03862	35.0
185.05919	33.0
152.06389	32.0
161.06029	32.0
270.16763	32.0
107.04781	32.0
141.05688	31.0
270.18375	29.0
95.05087	26.0
127.04281	26.0
155.03844	25.0
147.04799	25.0
51.02248	25.0
133.05913	25.0
91.01647	24.0
213.05075	23.0
270.05496	23.0
245.04616	22.0
53.03932	22.0
202.06432	22.0
85.02636	20.0
149.0201	18.0
81.02952	14.0
169.0993	13.0
119.96018	13.0
109.03596	13.0
115.03978	13.0
178.03386	13.0
139.04596	13.0
193.10274	13.0
50.01382	12.0

MSID: 8964
ID: 44
RETENTIONTIME: 13.44182
PRECURSORMZ: 317.0655
AREA: 5877800.5
PRECURSORTYPE: [M+H]+
SMILES: COC1=C(O)C=C2OC(=CC(=O)C2=C1O)C1=CC(O)=C(O)C=C1
NAME: eupafolin
FORMULA: C16H12O7
INCHIKEY: FHHSEFRSDKWJKJ-UHFFFAOYSA-N
CAS: 520-11-6
Molecular Weight: 316.267
Number of References: 392
Class: Flavones
Superclass: Flavonoids
Pathway: Shikimates and Phenylpropanoids
ppm: -0.630000000057862
CMID: CM243
IONMODE: Positive
COLLISIONENERGY: 40±20eV
INSTRUMENTTYPE: AB SCIEX
INSTRUMENT: Q-TOF
Comment:  
Num Peaks: 84
302.04291	11328.0
317.06598	6996.0
168.00563	2969.0
140.01065	791.0
112.01557	386.0
137.02295	353.0
169.01254	280.0
84.02052	259.0
274.04794	187.0
68.99654	142.0
56.02451	141.0
301.03439	132.0
135.04338	92.0
256.03635	87.0
134.03574	80.0
200.0477	76.0
273.04041	63.0
285.03827	62.0
271.05994	60.0
229.04639	58.0
176.0477	57.0
167.98914	56.0
274.03983	56.0
70.00489	55.0
228.04105	54.0
245.04285	46.0
109.02869	44.0
94.0043	44.0
55.01744	42.0
163.03745	41.0
71.01231	38.0
187.04146	38.0
299.05801	36.0
230.02274	34.0
154.03992	33.0
257.04346	32.0
66.00979	32.0
203.03842	31.0
284.03217	30.0
139.00078	29.0
136.05251	29.0
173.05997	28.0
189.05333	28.0
183.04207	27.0
139.99673	26.0
81.03472	26.0
172.05519	25.0
126.04781	25.0
227.03497	25.0
95.01259	24.0
317.0224	22.0
147.04428	21.0
89.03799	21.0
144.05493	20.0
159.04297	20.0
201.05742	20.0
255.02968	20.0
301.99356	19.0
218.05583	19.0
182.03641	19.0
155.04926	18.0
107.04668	18.0
186.03288	18.0
232.03685	18.0
201.04492	17.0
246.04961	17.0
274.022	17.0
161.06384	17.0
202.02373	17.0
160.04996	16.0
171.03923	16.0
217.05042	16.0
185.0257	16.0
211.03822	15.0
116.06192	15.0
165.02055	15.0
175.03944	14.0
122.00034	13.0
131.05116	13.0
299.03769	12.0
177.05754	12.0
148.05072	12.0
216.03868	6.0
67.017	6.0

MSID: 8965
ID: 83
RETENTIONTIME: 18.386
PRECURSORMZ: 287.0554
AREA: 5556934.5
PRECURSORTYPE: [M+H]+
SMILES: OC1=CC=C(C=C1)C1=C(O)C(=O)C2=C(O)C=C(O)C=C2O1
NAME: kaempferol
FORMULA: C15H10O6
INCHIKEY: IYRMWMYZSQPJKC-UHFFFAOYSA-N
CAS: 520-18-3
Molecular Weight: 286.241
Number of References: 26283
Class: Flavonols
Superclass: Flavonoids
Pathway: Shikimates and Phenylpropanoids
ppm: -0.16499999998131898
CMID: CM243
IONMODE: Positive
COLLISIONENERGY: 40±20eV
INSTRUMENTTYPE: AB SCIEX
INSTRUMENT: Q-TOF
Comment:  
Num Peaks: 98
287.05579	40285.0
153.01811	5705.0
135.04337	1162.0
89.03891	1018.0
68.99734	901.0
161.02283	873.0
67.0178	810.0
241.0486	693.0
137.0218	396.0
269.04486	352.0
139.05389	336.0
117.03359	308.0
213.05338	274.0
128.06029	233.0
77.03851	195.0
179.03214	195.0
171.04562	182.0
157.0643	168.0
185.06033	163.0
167.05109	145.0
81.03384	143.0
109.02868	140.0
212.04388	132.0
199.03636	129.0
111.00822	125.0
115.05541	125.0
245.04436	125.0
203.03702	104.0
97.02697	97.0
127.05371	96.0
79.05272	93.0
129.06973	91.0
147.04546	90.0
69.03396	90.0
195.04543	81.0
231.06516	78.0
107.04871	76.0
258.05563	74.0
125.0218	71.0
143.05046	68.0
55.01672	64.0
259.05881	61.0
63.02223	61.0
219.0621	60.0
131.04892	59.0
133.0296	57.0
244.03661	56.0
183.04338	54.0
155.04802	54.0
87.02285	52.0
201.05185	51.0
79.01615	51.0
143.01064	51.0
111.04641	50.0
287.03586	48.0
184.05313	46.0
286.1124	46.0
65.03863	46.0
223.03584	46.0
218.05727	44.0
129.03302	44.0
53.03855	42.0
229.04785	42.0
149.02472	42.0
240.04758	42.0
216.0401	41.0
51.02382	41.0
145.06526	41.0
105.03367	40.0
168.06148	39.0
157.0287	38.0
89.02874	38.0
159.04297	37.0
83.01092	36.0
241.02579	36.0
240.03848	34.0
196.0493	32.0
181.0322	32.0
258.04147	32.0
103.05368	31.0
189.05197	31.0
91.01824	31.0
173.06125	31.0
161.00542	28.0
187.03474	28.0
161.05887	26.0
93.03255	26.0
117.07067	26.0
107.01527	26.0
224.04915	25.0
227.03496	25.0
138.04863	24.0
217.05328	24.0
68.9884	24.0
65.03389	24.0
174.03407	13.0
177.0054	13.0
86.01712	12.0

MSID: 8966
ID: 193
RETENTIONTIME: 28.09007
PRECURSORMZ: 291.1953
AREA: 5280716.5
PRECURSORTYPE: [M+H]+
SMILES: [H][C@@]12CC[C@@]3(O)C=C(C)C(=O)C=C3[C@@]1(CO)CCCC2(C)C
NAME: militibetin A
FORMULA: C18H26O3
INCHIKEY: OSDDZJRPFMRKQQ-BMGDILEWSA-N
CAS: nan
Molecular Weight: 290.403
Number of References: 2
Class: Podocarpane diterpenoids
Superclass: Diterpenoids
Pathway: Terpenoids
ppm: -0.7200000000580076
CMID: CM243
IONMODE: Positive
COLLISIONENERGY: 40±20eV
INSTRUMENTTYPE: AB SCIEX
INSTRUMENT: Q-TOF
Comment:  
Num Peaks: 125
291.19574	1530.0
79.05446	1042.0
273.18442	781.0
91.05281	779.0
55.05377	655.0
135.08206	531.0
81.06911	442.0
131.08704	416.0
105.0698	388.0
145.10182	384.0
117.07067	380.0
77.03938	378.0
119.0842	360.0
109.06448	355.0
67.05388	344.0
93.07034	330.0
147.08228	314.0
55.01672	299.0
129.06973	267.0
57.03331	267.0
217.15718	264.0
143.0856	235.0
149.09528	203.0
249.14717	199.0
107.08721	192.0
161.0974	190.0
128.06252	182.0
157.10112	182.0
121.06423	176.0
133.06462	174.0
83.08588	172.0
95.08515	167.0
159.11832	147.0
115.05331	136.0
171.11609	135.0
133.09966	128.0
159.08002	123.0
107.04668	114.0
175.112	109.0
121.10195	108.0
95.04982	108.0
185.13228	106.0
125.09847	105.0
255.17357	102.0
97.10223	97.0
65.03783	95.0
69.07058	93.0
141.06836	92.0
185.0963	90.0
147.11435	88.0
227.18108	83.0
69.03314	82.0
130.07866	80.0
245.19156	78.0
163.11124	76.0
85.06511	70.0
142.07635	70.0
195.11655	70.0
116.06297	67.0
199.14828	66.0
171.10071	65.0
109.1013	65.0
103.05368	63.0
83.04839	61.0
173.13083	61.0
127.05261	60.0
53.03998	58.0
71.04945	58.0
123.08015	57.0
199.11237	56.0
51.02103	55.0
213.12772	52.0
156.09613	51.0
119.05106	50.0
137.09518	48.0
169.10167	48.0
237.16109	48.0
183.11758	47.0
105.03065	47.0
157.09621	47.0
135.11736	45.0
223.13092	44.0
155.08583	43.0
109.06039	42.0
111.07944	42.0
187.1111	41.0
153.07143	41.0
177.12921	39.0
201.12546	37.0
167.08652	36.0
132.05992	36.0
81.03648	34.0
97.0974	34.0
165.06836	34.0
219.13748	33.0
145.0629	32.0
161.12848	31.0
154.07759	31.0
173.09216	30.0
59.04857	30.0
217.14708	30.0
231.13364	30.0
143.07037	28.0
263.20374	28.0
135.04678	28.0
203.1375	25.0
181.10336	25.0
187.14594	25.0
149.10722	25.0
217.12399	25.0
92.06304	24.0
125.0919	24.0
121.05669	24.0
166.07527	24.0
223.12215	23.0
69.02989	23.0
51.01963	22.0
171.08022	22.0
195.10561	19.0
127.04598	16.0
103.04076	13.0
141.05208	13.0
82.01097	12.0
75.0257	12.0
57.55967	12.0

MSID: 8967
ID: 547
RETENTIONTIME: 37.17277
PRECURSORMZ: 423.3606
AREA: 5268752.5
PRECURSORTYPE: [M+H]+
SMILES: [H][C@]12[C@@H](CC[C@]1(C)CC[C@]1(C)[C@]2([H])CC[C@@]2([H])[C@@]1(C)CC[C@@]1([H])C(C)(C)C(=O)C=C[C@]21C)C(C)=C
NAME: Glochidone
FORMULA: C30H46O
INCHIKEY: FWBYBHVDDGVPDF-BHMAJAPKSA-N
CAS: 6610-55-5
Molecular Weight: 422.695
Number of References: 25
Class: Lupane triterpenoids
Superclass: Triterpenoids
Pathway: Terpenoids
ppm: -2.0900000000665386
CMID: CM243
IONMODE: Positive
COLLISIONENERGY: 40±20eV
INSTRUMENTTYPE: AB SCIEX
INSTRUMENT: Q-TOF
Comment:  
Num Peaks: 223
423.36142	13714.0
405.35211	6596.0
161.13193	3914.0
95.08595	2658.0
107.08602	2617.0
133.10056	2516.0
187.1483	2270.0
119.08613	2101.0
121.10067	2016.0
135.11598	1923.0
147.11647	1906.0
189.16344	1831.0
145.10158	1799.0
203.17903	1743.0
159.11681	1727.0
109.10214	1716.0
175.14799	1608.0
201.16261	1406.0
179.14194	1370.0
81.06985	1331.0
105.06963	1314.0
149.13329	1290.0
173.13312	1275.0
215.17975	1267.0
243.20918	1249.0
205.15923	1175.0
93.06924	1094.0
229.19423	1064.0
191.18123	1028.0
217.19434	959.0
231.21068	940.0
123.1158	932.0
163.14848	810.0
213.16454	788.0
131.08569	762.0
177.1628	684.0
157.09962	640.0
171.11708	626.0
137.1328	626.0
69.06965	618.0
227.17921	609.0
241.19418	531.0
219.17482	524.0
199.14795	518.0
67.05377	512.0
55.05368	495.0
91.0536	489.0
257.22516	480.0
267.21298	461.0
205.19569	450.0
185.13196	449.0
245.22795	419.0
255.21225	419.0
143.08418	396.0
283.24158	389.0
335.27158	382.0
231.17494	361.0
79.05433	348.0
83.08664	334.0
297.25812	333.0
269.22757	325.0
349.28989	312.0
239.17848	311.0
295.24368	283.0
211.14742	276.0
193.158	257.0
281.22766	256.0
225.16429	254.0
197.13243	244.0
285.22134	240.0
245.18962	238.0
129.06952	233.0
309.25769	221.0
97.1011	211.0
253.19478	204.0
169.10011	203.0
57.07021	202.0
363.30405	199.0
183.11728	197.0
271.24008	186.0
321.25766	174.0
191.14603	170.0
158.10907	169.0
217.16258	166.0
233.18811	166.0
377.32172	164.0
259.20499	163.0
353.28238	162.0
151.14697	160.0
311.27435	157.0
142.07845	155.0
165.12596	154.0
351.30258	149.0
155.08557	147.0
299.23874	145.0
145.09332	142.0
156.09341	140.0
323.27429	140.0
219.20816	137.0
231.19431	130.0
111.08131	130.0
141.07161	128.0
128.06229	126.0
273.21957	126.0
144.09113	124.0
77.03752	122.0
137.0961	118.0
163.11095	116.0
172.12683	114.0
111.11538	114.0
123.08102	113.0
149.09502	104.0
279.21112	103.0
307.23553	102.0
367.29489	101.0
285.25607	100.0
313.25079	96.0
257.18747	95.0
337.28848	92.0
247.2058	92.0
117.06941	91.0
381.31021	85.0
125.09607	83.0
237.16521	82.0
293.22772	82.0
339.26089	82.0
379.33337	80.0
186.14078	79.0
71.08649	78.0
265.19476	78.0
327.26974	78.0
170.10901	78.0
151.11206	77.0
271.20135	76.0
184.1259	75.0
251.17911	74.0
117.0673	73.0
175.12596	72.0
259.24124	71.0
135.08183	69.0
215.15964	68.0
160.12279	67.0
200.15402	65.0
313.28891	65.0
73.06619	64.0
177.12759	63.0
301.25311	61.0
339.27533	60.0
223.14517	59.0
198.14166	59.0
139.11256	59.0
193.19203	58.0
57.03321	58.0
287.23618	58.0
207.17438	58.0
243.17406	58.0
311.26398	58.0
130.07845	56.0
181.10042	55.0
325.29016	55.0
165.16121	53.0
224.15286	53.0
243.18781	53.0
261.22247	53.0
146.11084	52.0
336.28195	52.0
85.06406	51.0
203.14275	51.0
65.04009	51.0
362.29855	50.0
395.36786	49.0
182.11009	49.0
189.12706	49.0
195.11623	48.0
179.17863	47.0
365.32294	47.0
53.03775	46.0
209.12857	46.0
191.16092	44.0
189.14458	43.0
235.20549	42.0
174.14232	42.0
171.1017	41.0
147.07965	41.0
83.04915	39.0
229.16013	39.0
157.08858	37.0
197.11731	37.0
252.18594	37.0
269.19382	37.0
239.16031	36.0
135.07614	35.0
161.09464	35.0
212.16049	35.0
255.17627	35.0
210.1382	34.0
125.13113	34.0
153.12691	33.0
423.32312	33.0
173.09703	33.0
295.22855	33.0
115.05732	32.0
99.07791	32.0
323.24786	32.0
226.16473	32.0
167.08624	32.0
307.23038	31.0
97.06057	31.0
275.2388	31.0
240.18376	31.0
137.12132	30.0
123.07668	30.0
341.28253	30.0
287.2229	30.0
127.05129	29.0
297.22772	29.0
179.11702	28.0
243.15726	28.0
154.07733	27.0
254.20564	27.0
350.2955	26.0
121.0651	22.0
63.02368	12.0

MSID: 8968
ID: 87
RETENTIONTIME: 18.79237
PRECURSORMZ: 593.1863
AREA: 5156612.0
PRECURSORTYPE: [M+H]+
SMILES: [H][C@@]1(O[C@@H]2[C@@H](O)[C@@H](O)[C@@H](CO)O[C@H]2OC2=CC=C(C=C2)C2=CC(=O)C3=C(O2)C=C(OC)C=C3O)O[C@@H](C)[C@H](O)[C@H](O)[C@H]1O
NAME: genkwanin 4'-[O-α-L-rhamnopyranosyl-(1->2)-β-D-galactopyranoside]
FORMULA: C28H32O14
INCHIKEY: BYPZWJJKOJGVCM-GXQDQMLYSA-N
CAS: nan
Molecular Weight: 592.554
Number of References: 1
Class: Flavones
Superclass: Flavonoids
Pathway: Shikimates and Phenylpropanoids
ppm: -0.7350000000769796
CMID: CM243
IONMODE: Positive
COLLISIONENERGY: 40±20eV
INSTRUMENTTYPE: AB SCIEX
INSTRUMENT: Q-TOF
Comment:  
Num Peaks: 41
285.07452	45409.0
447.13104	12541.0
593.1842	4169.0
242.05772	682.0
270.05298	616.0
85.02805	386.0
71.04861	361.0
129.05301	131.0
153.01807	92.0
431.13562	68.0
57.03255	62.0
284.13934	53.0
285.04642	46.0
147.06679	45.0
395.11139	40.0
153.00716	40.0
242.04706	38.0
159.04538	36.0
327.09128	33.0
591.24652	27.0
284.07333	27.0
593.10785	26.0
85.02083	26.0
285.62381	26.0
413.12314	26.0
83.04837	26.0
445.65979	24.0
239.06978	24.0
447.0834	23.0
575.16595	21.0
445.68256	21.0
377.10159	21.0
285.5791	20.0
135.04559	16.0
87.0411	15.0
489.07843	14.0
147.05135	13.0
409.07019	12.0
81.06467	12.0
589.52362	12.0
55.05521	12.0

MSID: 8969
ID: 573
RETENTIONTIME: 38.48723
PRECURSORMZ: 663.4507
AREA: 5022855.5
PRECURSORTYPE: [M+H]+
SMILES: [H][C@@]1(CC[C@]2(C)C1=CC[C@@]1([H])[C@@]2(C)CC[C@@]2([H])C(C)(C)[C@H](C[C@@H](O[C@@H]3O[C@H](CO)[C@@H](O)[C@H](O)[C@H]3O)[C@]12C)OC(C)=O)[C@H](C)C[C@H](O)C=C(C)C
NAME: russelliinoside A
FORMULA: C38H62O9
INCHIKEY: CAYQIWMKTFLONX-KZRFQTSOSA-N
CAS: nan
Molecular Weight: 662.905
Number of References: 1
Class: Dammarane and Protostane triterpenoids
Superclass: Triterpenoids
Pathway: Terpenoids
ppm: 3.4899999999424836
CMID: CM243
IONMODE: Positive
COLLISIONENERGY: 40±20eV
INSTRUMENTTYPE: AB SCIEX
INSTRUMENT: Q-TOF
Comment:  
Num Peaks: 51
495.26605	4298.0
663.4516	2890.0
551.33044	2323.0
607.3938	2147.0
439.20535	2020.0
383.14285	716.0
327.08218	206.0
57.0695	109.0
439.17865	82.0
495.21158	70.0
607.34552	64.0
407.3681	44.0
607.31171	41.0
663.38605	40.0
363.17172	38.0
663.40369	38.0
495.18979	38.0
439.15814	32.0
607.29724	29.0
439.13556	26.0
663.34314	23.0
251.04889	22.0
95.08314	21.0
493.63055	21.0
383.10645	20.0
307.10526	19.0
603.396	14.0
550.73956	14.0
645.34308	14.0
607.88385	14.0
496.2561	14.0
553.59326	14.0
507.48959	14.0
525.47101	14.0
501.17062	14.0
549.01941	14.0
199.12044	13.0
265.26193	13.0
333.25912	12.0
359.1366	12.0
402.18982	12.0
661.2688	12.0
621.40088	12.0
67.05221	12.0
235.16658	12.0
476.41461	12.0
492.0325	12.0
593.38885	12.0
582.8363	12.0
568.40674	12.0
83.0849	12.0

MSID: 8970
ID: 451
RETENTIONTIME: 33.86273
PRECURSORMZ: 299.1999
AREA: 4953167.0
PRECURSORTYPE: [M+H]+
SMILES: CC(C)C1=CC2=C(C=C1O)[C@@]1(C)CCCC(C)(C)C1=CC2=O
NAME: 5,6-dehydrosugiol
FORMULA: C20H26O2
INCHIKEY: HUMGJQLBBAYPNM-HXUWFJFHSA-N
CAS: 21764-42-1
Molecular Weight: 298.425
Number of References: 21
Class: Abietane diterpenoids
Superclass: Diterpenoids
Pathway: Terpenoids
ppm: -1.205000000027212
CMID: CM243
IONMODE: Positive
COLLISIONENERGY: 40±20eV
INSTRUMENTTYPE: AB SCIEX
INSTRUMENT: Q-TOF
Comment:  
Num Peaks: 204
95.08517	10450.0
191.10712	7844.0
299.20032	7240.0
215.10689	4007.0
67.05389	3471.0
149.05942	2418.0
217.12257	2207.0
243.13785	2043.0
131.04893	2038.0
203.10683	1699.0
55.0545	1466.0
257.15338	1301.0
109.10132	1252.0
153.07024	1136.0
205.12172	1135.0
103.0547	1135.0
155.08585	1133.0
201.09076	1091.0
229.12349	1065.0
141.06955	1058.0
200.08234	974.0
187.07497	928.0
239.14409	915.0
197.09567	911.0
183.08183	891.0
165.09103	820.0
173.0587	805.0
145.0641	726.0
128.06142	686.0
157.06433	628.0
165.06964	614.0
129.06975	611.0
185.09633	607.0
81.07	582.0
163.07498	577.0
281.19043	557.0
202.09753	544.0
167.08655	516.0
169.1017	506.0
115.05438	489.0
152.06133	476.0
231.13814	474.0
211.11224	446.0
91.05376	443.0
133.1008	436.0
154.07761	432.0
179.10687	430.0
93.07036	425.0
181.06386	424.0
169.06349	424.0
143.05048	405.0
182.07211	404.0
171.08025	391.0
175.07445	389.0
225.12798	377.0
159.08128	355.0
188.08368	349.0
195.08101	335.0
256.14453	324.0
161.06013	319.0
189.09105	317.0
199.07646	316.0
241.12315	315.0
105.06982	313.0
143.08446	310.0
253.15785	287.0
69.06978	283.0
127.05484	280.0
77.03767	273.0
199.1124	272.0
230.12971	271.0
213.09058	266.0
142.07639	245.0
117.06963	239.0
209.09637	234.0
157.10237	216.0
137.06195	215.0
193.12297	215.0
123.04431	214.0
214.0997	214.0
179.08591	211.0
219.13753	208.0
97.10031	195.0
79.05447	193.0
177.08882	186.0
53.03927	181.0
65.03864	181.0
223.11047	181.0
227.10732	172.0
174.0677	171.0
158.0712	170.0
147.11555	168.0
144.0573	158.0
173.09863	157.0
216.11644	156.0
131.08482	148.0
160.05121	148.0
168.09451	144.0
184.08771	140.0
183.11629	140.0
147.04311	136.0
166.07782	136.0
186.06763	135.0
271.1712	135.0
168.05769	135.0
119.08635	135.0
156.09126	134.0
151.07503	134.0
196.09048	130.0
210.10168	123.0
255.13763	122.0
178.0742	121.0
151.05336	119.0
172.08733	115.0
133.06465	110.0
171.11612	110.0
211.14781	109.0
245.15787	106.0
233.15414	104.0
107.08521	102.0
253.19214	101.0
197.1328	99.0
193.10255	97.0
270.16095	97.0
170.07101	97.0
145.09949	94.0
185.05902	92.0
83.08679	90.0
224.11955	89.0
211.1037	88.0
182.11043	88.0
121.10089	87.0
228.11354	87.0
148.05193	85.0
187.11247	84.0
131.03325	83.0
57.07031	80.0
139.05391	77.0
213.12633	73.0
119.04788	73.0
180.0952	72.0
196.1234	70.0
212.12094	67.0
242.13402	67.0
237.12794	67.0
57.03406	66.0
95.07752	63.0
238.13797	63.0
226.1033	63.0
200.07265	62.0
206.11041	62.0
156.05579	61.0
162.06725	61.0
77.03423	59.0
225.11916	59.0
258.1611	59.0
140.06281	55.0
80.06081	55.0
198.10344	54.0
186.10504	53.0
194.07278	52.0
170.10933	51.0
159.11833	51.0
159.04175	51.0
155.04927	50.0
169.08386	50.0
252.15219	50.0
161.09743	49.0
143.06688	48.0
244.14528	48.0
208.08501	47.0
116.06193	47.0
239.12895	45.0
172.05006	44.0
221.12973	43.0
165.05453	43.0
257.11414	42.0
130.04182	42.0
51.02313	41.0
147.07755	40.0
192.0954	39.0
126.04673	39.0
201.12827	38.0
121.06641	38.0
209.13319	37.0
190.09708	37.0
150.04634	37.0
281.16251	36.0
150.06673	36.0
201.07687	36.0
132.05206	35.0
71.04781	35.0
225.16324	34.0
241.08665	34.0
164.05699	31.0
135.11624	31.0
223.14558	31.0
145.09714	30.0
143.0376	29.0
189.07355	29.0
211.07382	28.0
284.18076	28.0
269.15897	27.0
253.14072	24.0

MSID: 8971
ID: 215
RETENTIONTIME: 28.58622
PRECURSORMZ: 329.1753
AREA: 4924129.0
PRECURSORTYPE: [M+H]+
SMILES: CC(C)C(=O)CCC1=C(C)C=CC2=C1C(=O)C(O)=C(C(C)C)C2=O
NAME: 3-oxosapriparaquinone
FORMULA: C20H24O4
INCHIKEY: BLNJUMJBWJMCEB-UHFFFAOYSA-N
CAS: 119139-56-9
Molecular Weight: 328.408
Number of References: 4
Class: Abeoabietane diterpenoids
Superclass: Diterpenoids
Pathway: Terpenoids
ppm: 0.01499999996212864
CMID: CM243
IONMODE: Positive
COLLISIONENERGY: 40±20eV
INSTRUMENTTYPE: AB SCIEX
INSTRUMENT: Q-TOF
Comment:  
Num Peaks: 300
215.10678	9335.0
273.18436	9238.0
259.09656	8357.0
283.16946	6393.0
197.09695	4061.0
225.12787	3041.0
267.17493	2895.0
223.11183	2668.0
329.1741	2500.0
301.17874	2495.0
173.05991	1889.0
69.06975	1800.0
183.08043	1787.0
231.13803	1782.0
200.08363	1728.0
241.12303	1673.0
165.07083	1466.0
169.10162	1438.0
265.15845	1392.0
217.12103	1331.0
153.07016	1022.0
181.06509	991.0
154.07755	970.0
311.16595	910.0
157.06425	865.0
141.07065	849.0
182.07335	788.0
226.06197	761.0
243.13774	761.0
213.12766	759.0
55.05448	725.0
179.08582	717.0
175.07695	689.0
203.10533	678.0
195.11786	672.0
240.1158	632.0
227.10721	618.0
229.12338	618.0
211.11356	611.0
185.09625	609.0
128.06136	608.0
152.06126	603.0
155.08578	588.0
231.10231	566.0
199.11092	530.0
209.09628	518.0
145.06639	511.0
171.07889	505.0
167.08521	502.0
195.08229	496.0
191.10703	482.0
253.15773	481.0
239.14549	477.0
207.11829	448.0
169.06468	446.0
205.08656	441.0
172.08723	433.0
129.06857	423.0
225.09261	412.0
201.09206	396.0
208.08916	378.0
217.05032	376.0
255.10153	374.0
161.06131	372.0
241.08653	369.0
269.1203	367.0
187.11105	364.0
165.08971	359.0
142.07748	354.0
199.07637	351.0
205.10199	338.0
83.08586	330.0
180.09381	323.0
231.13058	321.0
196.08627	321.0
285.18369	313.0
222.10649	301.0
143.04924	300.0
185.05894	298.0
271.16949	290.0
257.15326	289.0
224.11945	286.0
143.08438	279.0
207.08023	279.0
213.09048	276.0
149.06055	271.0
245.12096	267.0
178.07674	267.0
166.07774	263.0
193.09975	248.0
187.07622	245.0
189.09096	243.0
237.12633	241.0
203.06905	238.0
237.16403	238.0
198.07027	233.0
192.09259	232.0
255.17506	228.0
181.10594	227.0
171.04301	217.0
213.05617	214.0
205.12163	213.0
194.07269	211.0
170.07094	208.0
239.17731	198.0
127.05589	193.0
191.08672	192.0
163.07616	188.0
85.06418	180.0
254.13261	179.0
131.08476	172.0
115.05537	172.0
219.10408	170.0
183.1162	169.0
256.10834	168.0
221.0976	166.0
269.15402	165.0
199.0363	164.0
159.1158	159.0
197.08458	157.0
268.14594	156.0
235.11121	155.0
253.12657	154.0
198.10472	152.0
197.13133	150.0
159.08121	147.0
179.10809	147.0
71.04861	147.0
184.08762	146.0
190.07942	146.0
211.07657	145.0
157.09862	145.0
169.09271	144.0
243.10109	135.0
189.07077	135.0
189.0573	135.0
252.15518	131.0
271.134	131.0
251.14375	130.0
91.05466	130.0
239.10612	129.0
209.06088	129.0
177.05356	129.0
251.10651	128.0
227.07179	127.0
228.07794	124.0
209.13028	123.0
158.07112	122.0
244.07326	122.0
250.13747	121.0
123.04317	121.0
93.06937	119.0
194.10954	119.0
156.09486	117.0
229.08484	116.0
179.07402	116.0
188.08224	115.0
186.06621	115.0
210.10442	114.0
95.08417	114.0
293.14929	110.0
201.05179	110.0
203.0858	106.0
182.10638	105.0
216.0789	100.0
233.11516	99.0
147.04422	98.0
212.0809	97.0
217.0965	97.0
208.12448	96.0
184.05042	93.0
193.06709	93.0
236.12144	93.0
185.12956	93.0
81.0682	92.0
139.05615	92.0
151.05208	91.0
197.06396	91.0
177.07181	91.0
238.13182	90.0
155.05042	89.0
199.09433	89.0
196.12468	85.0
171.11603	84.0
235.14876	83.0
174.06761	82.0
227.14264	80.0
202.10023	80.0
231.06657	80.0
249.12856	79.0
105.06977	79.0
168.05762	75.0
222.14444	75.0
59.04931	75.0
214.10103	75.0
287.12872	75.0
117.0717	73.0
217.1066	71.0
79.05444	71.0
230.12663	70.0
167.04976	70.0
207.07458	70.0
233.09422	69.0
191.07047	68.0
210.13991	67.0
212.12083	67.0
159.04538	66.0
103.05464	66.0
226.0443	65.0
144.05841	65.0
213.10907	65.0
224.15758	64.0
160.05237	61.0
77.03849	60.0
199.05978	60.0
57.07029	60.0
189.08018	58.0
67.05226	58.0
208.08067	58.0
187.03737	58.0
254.09358	57.0
267.13809	57.0
223.14841	57.0
223.07965	57.0
251.09875	56.0
301.14136	56.0
225.16608	55.0
181.05191	55.0
275.14331	55.0
107.08515	54.0
55.01815	52.0
273.10989	50.0
173.09598	50.0
137.0596	49.0
206.1075	48.0
293.14594	48.0
221.11362	47.0
270.12381	46.0
205.05571	46.0
241.15498	45.0
238.1031	45.0
200.06563	45.0
257.11243	44.0
172.05641	44.0
202.06541	44.0
240.08089	44.0
239.06978	43.0
211.14914	43.0
164.0657	43.0
204.09055	42.0
283.14969	42.0
140.06042	42.0
193.12561	41.0
250.09564	41.0
329.13144	41.0
163.05365	40.0
151.07736	40.0
195.03989	40.0
200.04346	40.0
185.04428	39.0
283.13651	39.0
155.06383	39.0
235.07216	38.0
243.12094	38.0
253.11099	37.0
180.05701	37.0
152.0504	37.0
268.10583	37.0
109.10127	36.0
133.06346	36.0
311.14001	36.0
217.03157	36.0
161.09486	36.0
220.08954	36.0
311.12793	35.0
258.12479	35.0
248.11859	35.0
98.98546	35.0
83.04837	34.0
245.08415	34.0
257.13443	34.0
150.04626	34.0
176.06322	34.0
247.13994	34.0
236.10941	33.0
217.07774	33.0
249.15793	33.0
147.07985	33.0
273.14874	33.0
224.07986	33.0
156.05449	32.0
232.11884	31.0
284.17569	30.0
177.09135	30.0
247.09529	29.0
201.12262	29.0
278.12756	27.0
135.11845	26.0
225.05881	25.0
121.06204	23.0

MSID: 8972
ID: 314
RETENTIONTIME: 30.97843
PRECURSORMZ: 345.1691
AREA: 4620252.5
PRECURSORTYPE: [M+H]+
SMILES: CC(C)C1=C(O)C2=C(C(C=O)=C1)[C@]1(CCCC(C)(C)[C@@H]1C=O)C(=O)O2
NAME: rosmadial
FORMULA: C20H24O5
INCHIKEY: JBWRHBJFAVSAMJ-VBKZILBWSA-N
CAS: nan
Molecular Weight: 344.408
Number of References: 26
Class: Secoabietane diterpenoids
Superclass: Diterpenoids
Pathway: Terpenoids
ppm: -1.1000000000080945
CMID: CM243
IONMODE: Positive
COLLISIONENERGY: 40±20eV
INSTRUMENTTYPE: AB SCIEX
INSTRUMENT: Q-TOF
Comment:  
Num Peaks: 310
345.17136	14059.0
231.10081	11092.0
299.16461	4672.0
189.05461	3085.0
317.17401	2478.0
216.0789	1745.0
271.16949	1470.0
239.10612	1247.0
275.09296	1167.0
211.11356	1117.0
281.15253	1088.0
257.11557	1059.0
301.18045	1035.0
257.1517	984.0
161.06006	954.0
55.05521	904.0
229.1219	894.0
215.10678	890.0
157.06425	816.0
241.12152	778.0
173.05991	736.0
213.09192	730.0
283.16946	653.0
199.07637	646.0
197.09558	631.0
247.09683	574.0
203.10674	561.0
289.18192	551.0
245.11635	547.0
327.1586	544.0
198.0675	522.0
253.15773	501.0
205.08656	499.0
181.06378	489.0
256.10992	486.0
243.10262	485.0
169.06596	479.0
197.05983	465.0
259.13281	463.0
185.09625	459.0
217.0864	457.0
179.06879	453.0
185.06027	452.0
85.06418	450.0
171.08017	440.0
285.14896	432.0
203.07184	417.0
69.07056	411.0
165.09096	406.0
188.08224	401.0
195.08092	395.0
201.09067	391.0
187.07756	387.0
129.06969	385.0
303.12122	381.0
219.10263	372.0
141.07065	362.0
233.08076	343.0
233.04488	343.0
241.08655	330.0
225.09407	330.0
221.09323	326.0
83.08497	324.0
193.1011	311.0
199.11092	305.0
128.06247	301.0
196.08902	295.0
227.10573	293.0
284.14102	292.0
215.07088	289.0
143.04924	288.0
187.03871	279.0
183.11752	271.0
238.09857	270.0
229.0878	270.0
145.06404	262.0
175.07437	261.0
183.08043	259.0
257.14072	258.0
169.10034	254.0
228.11491	249.0
153.07016	240.0
152.06247	237.0
242.05925	231.0
253.1219	231.0
235.09769	229.0
143.08556	223.0
81.06908	222.0
275.12708	221.0
165.07083	218.0
213.12909	216.0
227.07031	213.0
201.05457	211.0
155.08578	206.0
269.11868	205.0
211.07657	204.0
285.11423	202.0
223.07674	201.0
221.08302	199.0
193.08887	198.0
177.05617	195.0
182.07202	193.0
270.12381	193.0
174.06761	190.0
131.05112	185.0
224.08426	185.0
159.04291	177.0
214.06091	176.0
223.11183	176.0
178.07805	174.0
240.1158	174.0
207.10136	170.0
217.12537	168.0
147.04541	167.0
159.08121	164.0
191.07047	163.0
179.0845	159.0
149.05936	157.0
213.0576	157.0
179.10809	155.0
249.11464	154.0
266.13058	153.0
205.04871	153.0
243.13927	151.0
154.07755	151.0
167.08774	149.0
271.14206	147.0
177.09135	145.0
142.07631	143.0
229.11301	142.0
257.08102	142.0
247.13223	141.0
229.04778	141.0
163.03738	140.0
255.14064	140.0
299.14935	139.0
255.1031	139.0
215.03354	137.0
242.09277	136.0
258.12323	135.0
261.10889	134.0
127.05478	130.0
189.09232	130.0
225.1264	128.0
209.0977	126.0
210.10583	126.0
95.08607	125.0
242.13086	122.0
209.0807	121.0
190.06053	120.0
212.08376	119.0
123.04426	118.0
239.14247	118.0
91.05372	118.0
115.05222	118.0
175.03809	116.0
200.08363	115.0
202.06264	115.0
203.08719	115.0
273.18436	111.0
228.07794	111.0
166.07776	110.0
168.09317	108.0
157.10231	108.0
163.07491	103.0
191.10703	102.0
181.09937	102.0
238.13635	99.0
251.10497	98.0
155.04797	97.0
171.04558	97.0
173.09598	95.0
67.05466	94.0
273.14713	93.0
105.06977	93.0
186.06755	92.0
147.08223	92.0
233.11815	90.0
255.17819	90.0
156.09364	88.0
137.06075	87.0
245.07956	85.0
184.08894	84.0
158.07236	84.0
263.14011	83.0
235.09018	82.0
225.16167	82.0
204.07936	80.0
53.03711	80.0
144.05959	78.0
184.05307	76.0
199.09433	75.0
198.10335	74.0
172.08853	74.0
59.04855	74.0
171.11859	74.0
165.05698	74.0
119.0863	73.0
161.04639	73.0
133.06459	72.0
219.06639	72.0
145.10179	72.0
208.08774	71.0
267.13651	70.0
327.14621	69.0
267.10449	68.0
237.09013	68.0
207.11688	67.0
189.08289	67.0
103.05464	66.0
254.13261	66.0
206.07236	65.0
160.05486	65.0
187.06551	65.0
137.09628	65.0
243.06902	65.0
210.07036	64.0
193.04939	63.0
259.16751	63.0
162.06842	63.0
175.11453	63.0
309.15305	63.0
210.14276	63.0
177.07571	62.0
218.0948	62.0
289.15363	62.0
79.05531	62.0
256.14597	62.0
187.11507	60.0
107.08617	59.0
232.07556	57.0
93.07031	57.0
213.07619	56.0
220.1244	55.0
207.07883	54.0
327.12671	54.0
181.05191	54.0
249.0899	54.0
216.04147	53.0
203.03416	53.0
131.08588	53.0
71.04861	51.0
191.0813	50.0
219.08089	49.0
247.05988	49.0
235.14876	49.0
247.08144	48.0
217.10516	48.0
160.08707	48.0
193.07526	47.0
240.15071	46.0
141.05435	46.0
252.11786	46.0
259.09497	46.0
193.06165	46.0
254.09514	45.0
230.09247	44.0
232.11287	44.0
220.10988	44.0
237.12784	44.0
57.03256	44.0
171.05966	44.0
117.07276	43.0
230.12663	43.0
179.05305	43.0
238.08649	43.0
201.04207	42.0
172.04871	42.0
192.09395	42.0
241.06981	41.0
109.10127	41.0
219.13742	41.0
197.13133	41.0
174.06245	40.0
189.02632	40.0
186.10228	40.0
222.10503	39.0
139.05501	39.0
151.0569	38.0
201.12817	36.0
244.10692	36.0
216.05443	35.0
191.0285	35.0
223.06064	35.0
202.09883	35.0
150.06546	34.0
129.05522	34.0
248.12167	34.0
256.06918	34.0
284.108	33.0
77.04021	33.0
205.12303	33.0
57.07029	32.0
289.10199	32.0
345.12589	31.0
176.04762	31.0
194.06998	30.0
269.08334	29.0
95.04884	28.0
303.10587	28.0
268.14432	28.0
146.07553	28.0
167.04469	28.0
312.13416	27.0
53.03212	27.0
281.11145	26.0
202.07796	25.0
277.11417	25.0
265.15686	23.0
119.04782	22.0

MSID: 8973
ID: 52
RETENTIONTIME: 14.48412
PRECURSORMZ: 433.114
AREA: 4486443.0
PRECURSORTYPE: [M+H]+
SMILES: OC[C@H]1O[C@H]([C@H](O)[C@@H](O)[C@@H]1O)C1=C(O)C=C(O)C2=C1OC(=CC2=O)C1=CC=C(O)C=C1
NAME: vitexin
FORMULA: C21H20O10
INCHIKEY: SGEWCQFRYRRZDC-VPRICQMDSA-N
CAS: nan
Molecular Weight: 432.384
Number of References: 3541
Class: Flavones
Superclass: Flavonoids
Pathway: Shikimates and Phenylpropanoids
ppm: 0.5249999999250576
CMID: CM243
IONMODE: Positive
COLLISIONENERGY: 40±20eV
INSTRUMENTTYPE: AB SCIEX
INSTRUMENT: Q-TOF
Comment:  
Num Peaks: 36
271.05984	60569.0
153.01808	1339.0
433.11252	1257.0
243.06447	147.0
145.02867	146.0
119.04997	140.0
225.05441	124.0
270.17212	123.0
229.04929	99.0
163.03865	91.0
187.04007	79.0
203.06906	78.0
253.05025	77.0
121.02865	75.0
67.01778	55.0
111.0082	44.0
153.00717	44.0
270.15762	43.0
197.05986	39.0
157.06427	36.0
141.06949	34.0
91.05466	34.0
173.05992	26.0
187.03471	25.0
169.06343	24.0
68.99733	23.0
271.71005	23.0
155.05043	22.0
85.02896	20.0
197.05573	13.0
211.00545	13.0
183.04863	13.0
163.02115	13.0
128.06802	13.0
107.01119	12.0
61.02763	12.0

MSID: 8974
ID: 175
RETENTIONTIME: 27.45257
PRECURSORMZ: 364.2122
AREA: 4443968.0
PRECURSORTYPE: [M+NH4]+
SMILES: CC(C)C1=CC2=C(C(O)=C1O)[C@@]13CCCC(C)(C)C1[C@H](OC3=O)[C@H]2O
NAME: rosmanol
FORMULA: C20H26O5
INCHIKEY: LCAZOMIGFDQMNC-FSTFFMDFSA-N
CAS: nan
Molecular Weight: 346.423
Number of References: 5
Class: Abietane diterpenoids
Superclass: Diterpenoids
Pathway: Terpenoids
ppm: -0.19900000000916407
CMID: CM243
IONMODE: Positive
COLLISIONENERGY: 40±20eV
INSTRUMENTTYPE: AB SCIEX
INSTRUMENT: Q-TOF
Comment:  
Num Peaks: 330
301.18069	63387.0
231.10249	34118.0
283.16968	20066.0
273.18457	18106.0
241.12323	11988.0
217.12265	9216.0
177.09149	9008.0
203.1069	8701.0
347.18704	4334.0
219.10135	4153.0
257.15506	3518.0
223.11201	3425.0
175.07581	2938.0
109.10136	2877.0
215.10696	2829.0
161.0602	2717.0
259.13461	2340.0
149.06067	2287.0
229.12209	2231.0
188.08374	2224.0
191.10718	2099.0
223.09885	2002.0
165.09109	2000.0
199.07515	1861.0
213.12784	1647.0
69.0698	1620.0
157.06561	1555.0
185.09639	1549.0
259.16772	1509.0
245.11655	1404.0
195.11665	1354.0
213.09209	1257.0
189.05476	1240.0
197.09575	1142.0
259.15036	1104.0
205.1232	1072.0
216.07764	1068.0
199.11246	1012.0
149.09535	970.0
265.16187	952.0
181.06656	950.0
55.05452	929.0
131.04898	923.0
67.05392	901.0
255.17371	876.0
173.06004	866.0
240.11447	791.0
157.10243	788.0
243.13794	747.0
237.11295	729.0
171.08159	728.0
195.10161	724.0
201.09084	723.0
187.07503	680.0
95.0852	650.0
189.09111	638.0
145.06651	633.0
233.11684	605.0
183.08057	597.0
227.10887	576.0
143.04819	565.0
329.17435	539.0
81.07003	533.0
179.10562	531.0
239.10631	515.0
225.12952	515.0
185.06042	513.0
142.07759	508.0
128.06146	508.0
163.07755	488.0
141.07076	482.0
169.06482	468.0
208.08932	465.0
129.06979	450.0
167.08534	438.0
200.08241	435.0
165.07095	429.0
153.07028	425.0
169.10303	420.0
83.08593	403.0
225.08984	400.0
239.14569	394.0
180.09528	393.0
267.17514	392.0
159.08009	392.0
195.07971	387.0
205.08533	371.0
198.06905	363.0
203.09015	359.0
155.08591	357.0
259.09677	348.0
143.0845	347.0
213.11067	331.0
195.06604	310.0
123.04436	306.0
170.07362	289.0
211.11089	286.0
197.06	262.0
135.04457	259.0
103.05473	249.0
147.04315	249.0
202.099	248.0
221.09631	246.0
198.1035	244.0
149.07501	242.0
255.13773	236.0
179.08597	234.0
152.06139	230.0
211.07532	226.0
177.05501	226.0
209.09787	222.0
131.08598	219.0
159.04428	219.0
237.16121	214.0
193.10263	210.0
230.13277	210.0
207.0804	209.0
205.10075	209.0
174.06775	207.0
184.08777	206.0
137.05971	199.0
160.05251	197.0
166.07663	196.0
185.07774	192.0
171.11617	183.0
214.10121	181.0
93.07039	180.0
147.08235	176.0
85.06425	175.0
319.19031	173.0
91.05379	173.0
157.08525	171.0
258.12341	171.0
203.07339	167.0
268.14615	166.0
212.08392	165.0
133.0647	161.0
242.12953	160.0
154.07645	155.0
115.05337	146.0
226.09897	145.0
183.11768	145.0
181.10083	145.0
285.18393	143.0
221.11525	143.0
158.07248	142.0
231.13524	142.0
193.12032	140.0
173.09613	140.0
79.0545	140.0
107.08626	139.0
202.06001	137.0
178.07819	136.0
156.09254	133.0
171.04572	130.0
187.11388	130.0
207.11423	128.0
191.07198	128.0
250.13611	126.0
197.07924	126.0
127.05378	124.0
207.06772	122.0
241.15366	122.0
215.07248	121.0
222.10374	121.0
186.06903	119.0
254.12813	117.0
255.16432	115.0
194.07286	114.0
207.10013	112.0
311.16275	110.0
191.08417	109.0
182.07614	107.0
172.08867	105.0
184.05322	104.0
204.07812	102.0
217.08946	101.0
144.05617	101.0
226.06068	100.0
271.16486	99.0
273.16351	99.0
243.10281	91.0
188.04613	91.0
105.07187	91.0
111.07846	89.0
225.11336	86.0
196.09055	85.0
241.08826	85.0
176.04907	85.0
218.1268	84.0
197.13425	80.0
153.05574	79.0
364.21078	78.0
57.06959	77.0
187.04021	77.0
253.1221	76.0
253.16106	76.0
71.04784	74.0
224.12402	73.0
162.06729	73.0
57.03408	72.0
151.07387	72.0
185.1337	72.0
211.14647	71.0
247.14937	71.0
121.10309	71.0
208.12605	70.0
227.14134	69.0
269.11407	68.0
192.0941	68.0
229.10429	68.0
167.07521	68.0
229.08798	66.0
190.06203	64.0
257.12051	64.0
225.08102	63.0
160.08844	63.0
235.10989	63.0
209.13469	62.0
157.05087	62.0
117.06967	62.0
145.1019	62.0
216.11363	60.0
131.03889	60.0
175.04082	59.0
317.17426	58.0
300.19739	57.0
137.09755	56.0
217.08369	56.0
210.10744	56.0
97.06657	55.0
165.05711	55.0
159.11469	54.0
147.11679	54.0
169.04955	53.0
236.11864	50.0
175.05896	50.0
155.04932	48.0
232.14438	48.0
277.13885	46.0
163.04002	46.0
300.18042	46.0
188.06224	45.0
224.08591	45.0
139.05511	45.0
258.10925	45.0
179.06892	44.0
168.05649	44.0
258.16119	44.0
163.05878	43.0
121.06644	43.0
182.10785	42.0
196.12209	42.0
77.03683	42.0
126.04787	41.0
202.05167	41.0
59.0486	41.0
301.15009	41.0
197.12187	41.0
123.03241	41.0
329.14594	40.0
168.09712	40.0
174.05742	40.0
239.18053	40.0
227.06311	39.0
251.10516	39.0
65.03866	39.0
187.09378	39.0
133.10197	38.0
250.12527	38.0
201.07973	36.0
207.05222	36.0
233.0959	36.0
128.04706	35.0
256.11014	35.0
267.13672	35.0
237.09485	35.0
145.05354	35.0
213.05777	35.0
230.09563	35.0
245.14876	34.0
99.08008	34.0
148.04959	34.0
232.1041	33.0
143.06693	33.0
144.0938	33.0
129.05421	33.0
69.06166	32.0
287.12729	32.0
159.03439	32.0
249.1133	32.0
228.11658	31.0
55.01965	31.0
215.06531	30.0
119.08425	30.0
271.16162	30.0
198.08559	29.0
176.08286	29.0
156.05829	29.0
170.05957	29.0
223.06813	29.0
131.06804	28.0
245.07976	27.0
209.07945	27.0
201.12694	27.0
222.08916	27.0
228.07516	27.0
285.14423	26.0
135.08099	26.0
348.68872	26.0
180.05847	25.0
208.06107	25.0
268.11246	25.0
281.13797	25.0
164.05957	25.0
236.09908	25.0
265.11722	25.0
53.03644	25.0
83.07611	25.0
277.07199	25.0
173.00208	24.0
239.073	24.0
137.04594	24.0
289.17883	23.0
183.05804	22.0
109.08192	22.0
232.12051	22.0
185.04311	22.0
89.0408	12.0
55.82825	12.0

MSID: 8975
ID: 327
RETENTIONTIME: 31.14762
PRECURSORMZ: 331.19
AREA: 4435142.0
PRECURSORTYPE: [M+H]+
SMILES: CC(C)C1=CC2=C(C(O)=C1O)[C@@]1(C)CCCC(C)(C)C1=C(O)C2=O
NAME: 14-deoxycoleon U
FORMULA: C20H26O4
INCHIKEY: QDFALZMZLBCVCD-HXUWFJFHSA-N
CAS: nan
Molecular Weight: 330.424
Number of References: 20
Class: Abeoabietane diterpenoids
Superclass: Diterpenoids
Pathway: Terpenoids
ppm: -0.9350000000267755
CMID: CM243
IONMODE: Positive
COLLISIONENERGY: 40±20eV
INSTRUMENTTYPE: AB SCIEX
INSTRUMENT: Q-TOF
Comment:  
Num Peaks: 259
331.19226	5008.0
285.18536	3837.0
217.08643	1278.0
243.13777	1160.0
313.18021	973.0
191.1057	916.0
225.12643	662.0
229.12044	579.0
149.06056	547.0
231.13806	536.0
215.10825	535.0
267.17496	525.0
231.10085	420.0
189.09099	412.0
257.12033	409.0
187.07491	398.0
173.05992	387.0
227.10576	351.0
165.09097	347.0
295.1684	325.0
253.12193	310.0
131.04778	306.0
209.09773	287.0
141.07066	285.0
289.14365	282.0
195.08095	278.0
219.10411	268.0
95.08609	263.0
211.11359	260.0
201.0907	253.0
161.06007	248.0
271.13403	246.0
183.07912	241.0
235.11273	241.0
179.1055	239.0
242.13089	239.0
207.10281	236.0
157.06427	235.0
213.09337	230.0
203.10536	230.0
171.08018	224.0
193.08481	217.0
155.08458	213.0
202.06406	211.0
199.0764	209.0
55.05376	205.0
245.11792	195.0
128.0636	194.0
133.1019	192.0
169.10164	192.0
145.06642	190.0
303.19968	188.0
175.07568	187.0
205.08659	187.0
205.12306	186.0
153.07019	181.0
181.10202	180.0
169.06598	180.0
217.12395	178.0
185.09627	178.0
129.0697	176.0
219.13745	171.0
255.14067	170.0
239.10616	168.0
143.08675	166.0
159.07999	162.0
213.12912	162.0
167.0865	159.0
183.11623	158.0
207.11832	157.0
197.13411	146.0
67.05467	146.0
197.05986	140.0
261.11209	139.0
105.06979	137.0
252.11633	136.0
121.09978	136.0
147.04424	133.0
203.07047	132.0
200.08228	132.0
91.05466	130.0
163.07368	128.0
181.0638	128.0
166.07777	127.0
223.11186	125.0
303.16046	123.0
191.08809	123.0
157.1011	120.0
182.10905	118.0
165.05449	117.0
245.15472	117.0
192.09262	117.0
81.06997	116.0
211.07516	116.0
188.0863	115.0
143.0481	114.0
69.06894	113.0
241.12611	113.0
137.05962	112.0
123.04427	111.0
210.10445	109.0
196.09041	108.0
216.07893	107.0
255.10313	105.0
231.0934	103.0
233.11519	102.0
85.06329	102.0
265.15689	102.0
152.06128	101.0
109.10231	100.0
301.18219	100.0
267.16696	98.0
103.05565	97.0
243.1057	95.0
283.16949	95.0
107.08415	93.0
277.15823	91.0
195.11789	89.0
179.08453	88.0
227.07034	88.0
142.07634	87.0
237.09468	87.0
179.07274	87.0
214.10106	86.0
178.07806	86.0
182.07336	85.0
239.17885	84.0
83.08498	84.0
77.03764	83.0
237.12787	81.0
313.14206	81.0
115.05329	80.0
280.14349	80.0
173.04962	79.0
224.08136	79.0
127.05479	79.0
219.09396	78.0
199.1151	78.0
177.05489	77.0
239.1425	76.0
201.05458	76.0
154.07999	76.0
261.14532	75.0
191.0705	75.0
93.07033	75.0
228.07945	73.0
119.08738	73.0
187.10973	72.0
241.08809	72.0
95.0498	72.0
271.16791	72.0
168.09192	72.0
147.08105	71.0
173.09729	71.0
245.08266	70.0
193.10249	70.0
228.11198	70.0
212.08093	70.0
256.146	69.0
273.18277	69.0
223.07529	67.0
265.125	66.0
174.06892	65.0
185.06163	64.0
227.14561	64.0
224.12094	63.0
225.0941	63.0
201.12541	61.0
270.12222	60.0
285.16718	59.0
145.10063	59.0
123.11707	59.0
180.09515	57.0
214.06667	57.0
208.09059	57.0
220.09102	57.0
160.0524	56.0
57.06955	56.0
259.13443	56.0
131.08589	56.0
217.11241	55.0
79.0527	54.0
156.09366	53.0
119.0489	53.0
189.05463	53.0
287.16525	52.0
172.08598	52.0
273.15201	50.0
242.12328	49.0
240.11279	49.0
155.05043	48.0
209.12888	48.0
159.04417	48.0
269.14926	48.0
219.06497	47.0
216.11205	47.0
249.1626	47.0
285.15063	47.0
202.09747	47.0
57.03404	46.0
205.06555	46.0
270.15762	46.0
213.05478	46.0
151.07617	46.0
131.03656	45.0
269.11871	45.0
187.03874	44.0
184.0903	44.0
257.15488	44.0
168.0551	44.0
186.10364	43.0
238.10162	43.0
144.05725	43.0
176.08403	43.0
215.14417	42.0
221.0816	42.0
267.14133	42.0
295.15494	41.0
198.06616	40.0
117.06747	40.0
171.11862	40.0
159.11705	39.0
266.13062	37.0
196.12607	37.0
181.0862	37.0
233.0808	37.0
234.10315	37.0
183.04466	36.0
121.06528	36.0
214.05234	36.0
162.06718	35.0
177.06921	35.0
190.09972	34.0
284.146	33.0
247.1138	33.0
257.18787	33.0
230.12964	32.0
262.13544	32.0
113.09512	32.0
170.07478	32.0
194.07272	31.0
71.04944	31.0
221.11655	31.0
245.14091	31.0
132.05652	31.0
275.12549	30.0
185.13092	29.0
156.08632	29.0
151.05331	29.0
204.0752	29.0
183.10562	29.0
175.11456	27.0
222.10361	27.0
59.05082	26.0
190.06325	26.0
253.10323	25.0
298.15756	25.0
135.0809	25.0
55.01525	12.0

MSID: 8976
ID: 363
RETENTIONTIME: 31.62818
PRECURSORMZ: 345.1694
AREA: 4399886.0
PRECURSORTYPE: [M+H]+
SMILES: [H][C@@]12[C@@H]3OC(=O)[C@@]1(CCCC2(C)C)C1=C(C=C(C(C)C)C(O)=C1O)C3=O
NAME: galdosol
FORMULA: C20H24O5
INCHIKEY: SWVDNEGGBBYXGS-UWVAXJGDSA-N
CAS: 52591-18-1
Molecular Weight: 344.408
Number of References: 12
Class: Abietane diterpenoids
Superclass: Diterpenoids
Pathway: Terpenoids
ppm: -0.8000000000265572
CMID: CM243
IONMODE: Positive
COLLISIONENERGY: 40±20eV
INSTRUMENTTYPE: AB SCIEX
INSTRUMENT: Q-TOF
Comment:  
Num Peaks: 237
317.17609	9174.0
299.16492	5692.0
217.08662	2651.0
271.16977	2614.0
229.12361	2057.0
345.17172	1894.0
211.11235	1502.0
241.12177	1412.0
215.10844	1282.0
281.1528	1070.0
253.15956	675.0
243.09981	671.0
173.06009	584.0
239.10637	579.0
289.18057	574.0
228.11368	543.0
183.11639	519.0
231.10403	472.0
231.13828	451.0
257.11743	423.0
197.09441	398.0
213.0907	390.0
221.09491	387.0
193.1013	363.0
205.08818	357.0
227.10597	346.0
187.07642	344.0
238.10184	332.0
165.09113	324.0
171.08034	321.0
193.08771	316.0
203.10695	306.0
189.09116	305.0
69.06982	296.0
161.06023	287.0
195.07976	283.0
199.07796	278.0
259.13623	273.0
153.07153	262.0
202.06285	260.0
169.10052	250.0
201.09088	240.0
145.06418	234.0
141.07079	225.0
196.08784	219.0
213.12788	219.0
155.08472	218.0
181.06528	212.0
143.08688	211.0
223.07841	206.0
200.08246	204.0
167.08537	202.0
159.08014	195.0
271.15524	182.0
225.16631	178.0
168.09334	167.0
59.05012	167.0
128.06261	166.0
247.13557	162.0
152.06142	160.0
169.06613	155.0
157.06564	155.0
165.06973	150.0
177.09283	143.0
163.07507	142.0
149.05951	142.0
147.04318	142.0
243.13799	138.0
257.1127	133.0
175.07454	128.0
123.04439	126.0
95.08617	125.0
219.13765	122.0
178.07823	120.0
203.07205	119.0
182.07353	119.0
131.05014	118.0
174.06779	117.0
210.10323	114.0
129.07094	112.0
221.0818	111.0
245.11661	107.0
209.09508	107.0
189.05479	105.0
107.08527	102.0
183.08194	102.0
217.1227	100.0
143.05057	99.0
185.09644	99.0
219.09851	98.0
256.10861	95.0
198.06772	93.0
142.07764	93.0
195.1167	92.0
257.15198	91.0
263.14038	91.0
199.11389	89.0
197.06004	87.0
154.0777	85.0
223.11061	85.0
201.05754	84.0
191.06932	84.0
206.07256	83.0
137.05974	79.0
207.10158	79.0
228.07669	79.0
127.0538	79.0
55.05308	79.0
185.0578	78.0
229.08804	78.0
241.08527	78.0
266.12766	78.0
179.10698	77.0
188.07974	77.0
181.10219	75.0
179.086	75.0
224.08302	75.0
198.1008	73.0
119.08428	73.0
233.09596	73.0
91.05382	72.0
214.09982	71.0
330.14713	71.0
248.12039	71.0
191.10858	71.0
180.09399	70.0
233.11989	70.0
238.13811	70.0
255.13464	69.0
213.05496	69.0
227.07054	69.0
185.13374	69.0
85.06426	69.0
184.0506	68.0
200.04921	68.0
81.06916	67.0
205.12465	66.0
190.06207	66.0
135.04233	65.0
115.05655	65.0
215.07971	64.0
283.17303	64.0
67.05393	62.0
251.10988	60.0
243.17616	60.0
79.05452	60.0
156.09625	59.0
157.10124	59.0
186.06908	59.0
166.07793	59.0
172.08998	58.0
187.11526	57.0
216.11511	57.0
210.14156	57.0
289.16391	57.0
159.0752	56.0
160.05254	55.0
93.06947	55.0
211.07536	54.0
275.12735	54.0
247.09399	54.0
235.09793	53.0
155.04935	53.0
177.05374	52.0
71.04868	52.0
261.11389	51.0
147.08119	50.0
117.0697	50.0
137.09528	50.0
269.16074	49.0
247.11093	49.0
239.14423	48.0
133.06247	48.0
105.06888	48.0
287.1705	48.0
220.12608	48.0
69.06412	44.0
168.0578	44.0
228.09741	44.0
131.08826	44.0
255.10179	44.0
235.15199	44.0
226.09901	43.0
271.12299	43.0
253.12372	42.0
197.13016	42.0
144.0562	41.0
245.15341	41.0
173.09488	41.0
158.0762	40.0
212.12248	40.0
107.04777	40.0
212.08112	39.0
208.09077	39.0
171.06497	38.0
184.09047	38.0
240.11604	38.0
237.09189	37.0
284.14627	37.0
83.04935	36.0
170.07367	35.0
281.13309	35.0
273.1474	35.0
345.14624	34.0
187.05766	34.0
173.04333	34.0
219.08401	34.0
133.10201	34.0
221.11821	34.0
225.08107	33.0
313.14233	33.0
162.07108	33.0
145.05592	33.0
197.04767	33.0
242.09149	33.0
163.03381	33.0
151.03539	31.0
209.05544	31.0
317.14468	31.0
247.16791	31.0
171.04448	31.0
249.11334	30.0
281.12161	30.0
205.06573	29.0
55.01821	29.0
222.11256	29.0
207.07904	28.0
159.03813	28.0
231.08467	28.0
109.06558	28.0
210.0947	27.0
265.12524	27.0
210.06773	26.0
220.09993	25.0
214.05826	23.0
174.03162	23.0
77.04201	12.0

MSID: 8977
ID: 226
RETENTIONTIME: 28.8214
PRECURSORMZ: 315.0856
AREA: 3502734.75
PRECURSORTYPE: [M+H]+
SMILES: COC1=CC=C(C=C1)C1=CC(=O)C2=C(O)C(OC)=C(O)C=C2O1
NAME: pectolinarigenin
FORMULA: C17H14O6
INCHIKEY: GPQLHGCIAUEJQK-UHFFFAOYSA-N
CAS: 520-12-7
Molecular Weight: 314.295
Number of References: 167
Class: Flavones
Superclass: Flavonoids
Pathway: Shikimates and Phenylpropanoids
ppm: -1.265000000046257
CMID: CM243
IONMODE: Positive
COLLISIONENERGY: 40±20eV
INSTRUMENTTYPE: AB SCIEX
INSTRUMENT: Q-TOF
Comment:  
Num Peaks: 138
300.06305	34468.0
315.08606	19344.0
168.00554	11060.0
140.01057	2917.0
257.04645	1450.0
135.04443	1264.0
112.01551	1182.0
84.02047	937.0
133.06569	770.0
229.04922	491.0
272.06851	449.0
299.05615	418.0
56.02522	386.0
285.04141	354.0
68.9965	278.0
132.05873	277.0
174.0663	219.0
55.01814	175.0
254.05606	160.0
269.0817	143.0
155.04794	142.0
271.05655	139.0
201.05452	128.0
226.06194	125.0
66.00975	118.0
198.0661	116.0
70.00568	115.0
227.07027	113.0
131.04997	112.0
213.08902	112.0
139.00186	100.0
71.0131	99.0
94.00425	98.0
269.04956	97.0
183.04329	97.0
107.04865	94.0
77.03848	94.0
228.04092	89.0
199.07495	87.0
161.05879	86.0
159.04289	85.0
297.07443	84.0
213.0547	82.0
243.06746	82.0
185.06024	82.0
128.06355	81.0
157.06546	78.0
284.03366	78.0
169.06467	77.0
230.05826	76.0
256.03464	75.0
158.07233	75.0
171.08142	75.0
79.05268	74.0
145.06401	73.0
200.04759	72.0
184.05437	66.0
255.06552	66.0
127.05365	64.0
137.02289	62.0
282.0531	62.0
117.03247	61.0
146.07314	58.0
215.07228	57.0
89.03886	57.0
115.05116	56.0
241.05	52.0
161.0563	52.0
171.04427	52.0
81.03468	50.0
315.06519	49.0
211.03954	47.0
149.02107	46.0
239.0349	45.0
105.06674	44.0
103.05164	44.0
173.05859	44.0
147.08339	43.0
170.07217	42.0
160.05235	42.0
187.03734	42.0
230.0538	41.0
187.07484	40.0
118.03905	40.0
175.07692	39.0
297.18417	38.0
215.10962	37.0
141.06712	36.0
315.05304	35.0
139.05382	35.0
183.03401	35.0
129.06856	35.0
156.0569	35.0
257.01505	34.0
284.02707	34.0
244.07014	33.0
172.05124	33.0
188.08624	32.0
300.02063	32.0
153.02046	32.0
144.05838	32.0
90.04811	31.0
167.9827	31.0
108.05724	31.0
92.02635	29.0
98.00082	27.0
165.01669	27.0
152.06003	27.0
56.02082	26.0
314.05078	26.0
258.05396	26.0
165.06828	26.0
273.07587	25.0
95.01158	25.0
299.02567	25.0
225.06317	25.0
119.04781	25.0
202.064	25.0
131.03989	24.0
191.1097	24.0
203.0704	24.0
245.15158	23.0
121.9927	23.0
299.08832	22.0
140.06157	22.0
273.14706	22.0
143.05273	22.0
231.12758	21.0
69.07055	21.0
197.05843	21.0
205.08513	18.0
182.06671	18.0
237.12477	18.0
137.01486	13.0
241.03481	13.0
277.2038	12.0
87.77085	12.0
54.00508	12.0

MSID: 8978
ID: 512
RETENTIONTIME: 36.37193
PRECURSORMZ: 345.1689
AREA: 3497937.5
PRECURSORTYPE: [M+H]+
SMILES: [H][C@@]12[C@@H]3OC(=O)[C@@]1(CCCC2(C)C)C1=C(C=C(C(C)C)C(=O)C1=O)[C@@H]3O
NAME: rosmaquinone
FORMULA: C20H24O5
INCHIKEY: IQNNDXVLTVLXLJ-FORWCCJISA-N
CAS: 121927-71-7
Molecular Weight: 344.408
Number of References: 11
Class: Abietane diterpenoids
Superclass: Diterpenoids
Pathway: Terpenoids
ppm: -1.3000000000147338
CMID: CM243
IONMODE: Positive
COLLISIONENERGY: 40±20eV
INSTRUMENTTYPE: AB SCIEX
INSTRUMENT: Q-TOF
Comment:  
Num Peaks: 265
317.1738	13890.0
299.16272	9375.0
271.16931	4995.0
217.08627	4627.0
229.12325	3406.0
345.16934	2954.0
211.11201	2483.0
215.10809	2246.0
241.12137	2106.0
281.15399	2094.0
243.10246	1302.0
253.15913	1230.0
173.0598	1129.0
289.18008	1055.0
183.11742	1020.0
239.10748	904.0
171.08006	762.0
231.13939	747.0
231.10216	719.0
228.11478	695.0
205.08644	692.0
213.09322	682.0
195.08081	658.0
257.117	639.0
189.09085	638.0
187.07477	616.0
69.0697	545.0
238.09993	543.0
161.05872	530.0
223.0766	508.0
203.108	484.0
197.09683	476.0
181.06499	462.0
193.09964	452.0
221.09454	450.0
227.10559	445.0
199.07487	444.0
193.08467	443.0
165.09087	429.0
202.06113	418.0
153.07007	407.0
196.08752	374.0
145.06512	373.0
128.06128	367.0
169.1028	344.0
168.0918	337.0
259.13266	333.0
141.0694	320.0
143.08548	307.0
213.12753	299.0
169.06586	289.0
201.09193	283.0
95.08507	283.0
167.08638	278.0
165.07072	278.0
157.06538	270.0
155.08447	262.0
152.05997	255.0
178.07794	247.0
123.04418	245.0
200.08351	237.0
219.1373	236.0
163.07481	230.0
225.16447	230.0
147.04413	227.0
177.09125	226.0
219.10394	224.0
247.1321	223.0
131.04993	215.0
185.09348	213.0
225.1292	198.0
197.05972	197.0
149.06046	196.0
159.07988	192.0
185.05882	190.0
187.11362	190.0
107.08611	189.0
245.11467	179.0
59.04852	176.0
207.10266	176.0
174.06622	174.0
191.10826	174.0
154.07745	172.0
182.07059	168.0
183.07898	167.0
143.04799	167.0
129.06961	166.0
175.07684	160.0
188.08347	160.0
223.11024	159.0
179.10667	150.0
189.05449	148.0
214.09804	148.0
263.14154	147.0
137.05836	145.0
199.11218	144.0
209.09332	144.0
216.11476	143.0
210.10287	141.0
241.0864	136.0
226.09865	136.0
157.10344	134.0
55.05372	131.0
155.04788	131.0
179.08308	130.0
81.06903	129.0
135.0421	129.0
266.12881	128.0
67.05383	128.0
163.03854	128.0
177.05476	124.0
191.069	123.0
142.07857	122.0
215.09373	121.0
91.05367	120.0
195.11774	119.0
256.10818	118.0
198.06877	118.0
243.13606	118.0
235.14711	115.0
233.08212	112.0
257.14999	112.0
184.05296	108.0
213.05461	106.0
203.07033	105.0
220.12428	103.0
119.08516	103.0
255.13893	103.0
127.0536	102.0
85.06503	101.0
215.07076	99.0
201.12666	96.0
198.10461	94.0
71.05021	93.0
211.07501	92.0
238.13167	92.0
229.08618	92.0
161.09726	91.0
256.14581	91.0
158.06979	91.0
210.1412	90.0
172.08842	90.0
217.12234	89.0
228.07632	87.0
160.05351	87.0
57.034	86.0
159.04529	85.0
93.06837	85.0
197.08997	84.0
212.11786	84.0
251.10791	84.0
281.13593	82.0
205.1187	82.0
248.11844	82.0
115.05321	81.0
202.10011	81.0
180.0937	81.0
55.01739	76.0
166.07639	76.0
233.09708	76.0
224.08266	76.0
79.05265	73.0
233.11652	73.0
133.06564	72.0
275.12527	72.0
198.10046	71.0
117.06845	70.0
237.093	69.0
203.08847	69.0
271.13385	69.0
159.11569	68.0
273.14856	67.0
227.07018	67.0
287.16174	67.0
131.0858	66.0
145.1017	66.0
77.03844	66.0
147.07858	66.0
225.091	65.0
206.07082	65.0
253.12642	64.0
230.09233	63.0
269.11691	61.0
144.05597	61.0
173.09845	61.0
185.13478	60.0
327.16019	60.0
227.1425	59.0
190.06311	59.0
103.0526	58.0
151.0544	58.0
255.10295	56.0
240.11717	56.0
243.17424	55.0
203.08009	55.0
183.09886	54.0
143.07376	54.0
151.03755	54.0
170.1066	54.0
251.13585	53.0
239.14232	53.0
181.0887	52.0
239.08325	52.0
200.0475	51.0
230.12947	51.0
191.08795	50.0
269.15228	50.0
109.10018	50.0
261.11346	49.0
184.08884	49.0
208.09186	47.0
168.05624	47.0
182.10759	47.0
299.1441	46.0
137.09392	46.0
284.14084	46.0
235.09605	46.0
247.11516	45.0
192.09384	44.0
242.09262	44.0
151.07607	44.0
251.14671	44.0
231.09026	43.0
165.05437	43.0
208.05229	43.0
162.06831	42.0
217.05597	42.0
186.10619	41.0
105.07172	41.0
221.06979	41.0
235.11107	40.0
57.06877	40.0
247.09976	40.0
209.06075	40.0
197.12984	38.0
83.0501	38.0
237.12617	37.0
170.07466	37.0
183.04585	36.0
194.07259	36.0
171.11594	35.0
214.06364	34.0
205.0584	34.0
253.09993	34.0
252.11926	34.0
149.09395	34.0
212.08649	34.0
281.11295	33.0
299.12207	33.0
219.06915	32.0
219.11699	32.0
301.17688	32.0
265.12003	32.0
238.0667	31.0
95.05069	31.0
220.0894	31.0
216.08742	31.0
144.09593	29.0
171.04547	29.0
174.03133	28.0
241.06511	27.0
97.06548	27.0
121.10184	24.0
161.04504	23.0
55.01521	20.0

MSID: 8979
ID: 319
RETENTIONTIME: 31.10957
PRECURSORMZ: 378.2263
AREA: 3450634.25
PRECURSORTYPE: [M+NH4]+
SMILES: [H][C@@]12CC(=O)C3=CC(C(C)C)=C(O)C(O)=C3[C@]1(CCCC2(C)C)C(=O)OC
NAME: 7-oxo-carnosic acid
FORMULA: C21H28O5
INCHIKEY: PMVQDYBTFTZMHF-YCRPNKLZSA-N
CAS: nan
Molecular Weight: 360.45
Number of References: 2
Class: Abietane diterpenoids
Superclass: Diterpenoids
Pathway: Terpenoids
ppm: -1.7490000000179862
CMID: CM243
IONMODE: Positive
COLLISIONENERGY: 40±20eV
INSTRUMENTTYPE: AB SCIEX
INSTRUMENT: Q-TOF
Comment:  
Num Peaks: 318
361.20193	50529.0
245.11638	35774.0
231.10085	24532.0
315.19568	24455.0
301.18048	21486.0
283.16949	6030.0
259.13284	4278.0
273.186	3678.0
329.17413	3443.0
215.10681	3396.0
203.07047	3356.0
189.05597	3235.0
241.12155	2921.0
230.09398	2594.0
55.05376	2585.0
297.18427	2475.0
223.11186	1930.0
217.12251	1851.0
216.07748	1576.0
255.13754	1489.0
197.09561	1464.0
83.08498	1405.0
213.09195	1237.0
267.17496	1204.0
227.10724	1183.0
199.0764	988.0
225.1279	969.0
240.11279	836.0
259.09659	750.0
265.15848	701.0
173.05864	686.0
233.11818	653.0
229.12193	644.0
187.07491	578.0
195.11514	543.0
69.07057	543.0
157.06427	536.0
185.05896	532.0
175.07439	510.0
161.05884	509.0
225.08969	503.0
171.08018	502.0
141.0695	498.0
212.08379	493.0
183.08044	488.0
229.08635	483.0
219.10121	481.0
202.09886	471.0
200.08505	454.0
205.08659	451.0
201.08931	450.0
273.15039	436.0
169.09909	427.0
285.18536	422.0
199.11095	415.0
254.13107	410.0
181.0638	408.0
243.1393	408.0
217.08499	378.0
165.06958	377.0
213.12769	365.0
185.09494	353.0
215.07091	336.0
145.06406	328.0
311.16599	318.0
272.14127	317.0
153.06897	314.0
211.11075	312.0
198.06616	296.0
269.18942	293.0
258.12482	292.0
191.10706	281.0
239.10616	276.0
179.08453	270.0
195.07957	269.0
167.08397	249.0
154.07634	249.0
211.0766	245.0
268.14597	242.0
165.09097	241.0
188.08226	238.0
182.07469	236.0
203.10536	234.0
169.06471	231.0
237.12787	229.0
255.17509	225.0
191.06914	225.0
203.0928	221.0
208.08919	220.0
227.13971	217.0
152.06128	214.0
184.08897	211.0
209.09772	207.0
129.0697	204.0
197.05986	200.0
187.10973	199.0
128.0636	199.0
226.09734	191.0
155.08702	191.0
271.17114	190.0
202.06267	188.0
149.05937	182.0
253.15933	180.0
222.10506	173.0
269.15408	170.0
237.16406	170.0
257.15488	170.0
241.10786	165.0
180.09251	160.0
213.11053	160.0
205.12306	158.0
205.10202	157.0
243.10112	154.0
257.1156	147.0
224.11948	145.0
131.08478	144.0
201.05319	143.0
196.08768	142.0
269.11871	142.0
239.1425	141.0
271.13242	140.0
333.20581	135.0
170.07224	131.0
159.07999	130.0
157.10355	129.0
143.08324	127.0
285.14734	125.0
378.22839	124.0
226.06346	124.0
246.12637	119.0
232.10841	118.0
207.08167	115.0
143.04692	114.0
207.1169	113.0
198.10062	112.0
241.08961	112.0
173.09729	111.0
181.10202	111.0
244.10847	109.0
197.13136	109.0
282.16507	108.0
250.13284	106.0
142.0775	104.0
253.12349	100.0
160.05116	100.0
221.0918	99.0
212.11945	99.0
204.07518	99.0
159.04417	98.0
184.05043	96.0
189.08965	96.0
174.06764	95.0
163.07494	94.0
235.10974	94.0
172.08983	93.0
127.05369	92.0
179.1055	91.0
226.13416	91.0
171.11734	90.0
178.07938	90.0
193.09978	90.0
217.05035	87.0
315.16788	86.0
158.07114	85.0
156.09488	85.0
214.10106	83.0
71.04944	83.0
227.12938	83.0
183.11755	81.0
239.17734	81.0
236.11998	80.0
194.0741	80.0
210.10728	80.0
286.1521	79.0
255.09843	79.0
242.12936	77.0
171.04176	77.0
179.07143	77.0
228.11642	75.0
247.12918	75.0
95.08609	74.0
202.07658	72.0
166.07904	72.0
177.05489	72.0
203.04814	70.0
226.05611	70.0
213.05478	70.0
191.08675	70.0
155.05043	68.0
197.07086	64.0
190.06461	64.0
81.06821	63.0
175.0407	63.0
193.06439	62.0
190.07675	62.0
259.17386	61.0
147.04305	60.0
208.12592	60.0
230.07912	60.0
185.13092	59.0
186.10231	59.0
85.06599	58.0
300.17001	57.0
238.13789	57.0
222.14447	56.0
221.08014	56.0
209.12747	56.0
293.15436	54.0
185.08028	54.0
123.0421	54.0
159.07135	52.0
177.08878	52.0
163.03867	51.0
297.15558	51.0
283.13159	51.0
186.06891	51.0
237.11127	51.0
201.12819	49.0
195.09326	49.0
168.0551	49.0
151.05211	47.0
232.12483	47.0
59.04932	47.0
115.05539	45.0
73.0663	45.0
144.0549	45.0
139.05502	44.0
159.11705	44.0
244.07481	44.0
53.03712	43.0
156.05573	43.0
189.0304	43.0
145.09944	43.0
137.06076	43.0
188.05138	42.0
254.16699	42.0
199.03632	42.0
216.11348	42.0
105.06878	41.0
268.11069	41.0
287.12875	41.0
218.08759	40.0
225.16023	40.0
109.1023	39.0
251.10809	39.0
192.09262	39.0
241.15805	38.0
212.10233	38.0
207.11127	37.0
230.12814	37.0
194.11229	37.0
243.06752	37.0
256.10995	36.0
221.12384	36.0
329.14926	36.0
171.11221	36.0
175.11327	35.0
360.02652	35.0
91.05373	35.0
273.11154	35.0
216.04294	35.0
270.13187	34.0
240.14922	34.0
300.18359	34.0
260.13177	33.0
168.09065	33.0
149.0522	33.0
79.05357	33.0
311.13834	33.0
226.08261	33.0
252.15054	33.0
240.08244	33.0
238.0986	33.0
135.07976	32.0
149.09406	32.0
259.16281	32.0
169.08508	32.0
270.16568	32.0
157.09128	31.0
182.10509	31.0
249.12239	30.0
195.0618	30.0
287.2001	29.0
57.0333	29.0
175.05754	29.0
263.12265	29.0
210.06754	29.0
161.04889	28.0
67.05387	27.0
224.15907	27.0
314.15677	27.0
258.10123	27.0
266.12262	26.0
264.14359	26.0
285.12915	26.0
193.08888	26.0
212.05669	25.0
204.064	25.0
207.06053	25.0
77.0385	25.0
279.16083	25.0
133.06348	25.0
210.13994	25.0
185.03099	24.0
196.05202	24.0
269.08658	24.0
236.03871	24.0
107.08618	23.0
103.05565	23.0
279.18045	23.0
176.04504	23.0
208.06657	23.0
235.0872	23.0
359.9949	23.0
239.08646	23.0
303.19287	22.0
126.04449	19.0
50.01376	12.0

MSID: 8980
ID: 281
RETENTIONTIME: 30.46138
PRECURSORMZ: 317.1754
AREA: 3407257.25
PRECURSORTYPE: [M+H]+
SMILES: [H][C@]12CCCC[C@@]1([H])[C@@H]([C@@H](C)C=C2)C1=CC(OCC)=C(C=O)C(=O)O1
NAME: solanapyrone R
FORMULA: C19H24O4
INCHIKEY: KCOWVKVOYPFKNH-HNSFDTNUSA-N
CAS: nan
Molecular Weight: 316.397
Number of References: 2
Class: 2-pyrone derivatives
Superclass: Cyclic polyketides
Pathway: Polyketides
ppm: 0.11499999999387
CMID: CM243
IONMODE: Positive
COLLISIONENERGY: 40±20eV
INSTRUMENTTYPE: AB SCIEX
INSTRUMENT: Q-TOF
Comment:  
Num Peaks: 209
317.17416	4494.0
229.12201	1241.0
271.168	1069.0
299.16306	940.0
215.10689	754.0
211.11366	694.0
217.08507	506.0
173.0587	449.0
253.15785	368.0
257.11728	349.0
183.11496	338.0
181.06519	329.0
281.151	327.0
228.11356	326.0
153.07024	275.0
195.08238	272.0
165.0923	268.0
239.10472	266.0
165.06964	244.0
145.06647	240.0
213.09344	232.0
241.12163	230.0
168.09453	225.0
187.07765	213.0
193.09984	211.0
141.06955	209.0
197.09705	208.0
69.06897	207.0
196.08911	207.0
167.08528	205.0
189.09241	205.0
147.04311	204.0
193.0876	198.0
231.10242	195.0
161.0589	189.0
169.06349	188.0
289.18207	183.0
205.08667	179.0
171.08025	178.0
199.07785	176.0
243.10426	173.0
152.06255	170.0
203.10823	168.0
201.09076	158.0
231.13963	156.0
221.09479	156.0
209.09497	156.0
155.08464	155.0
174.0677	154.0
129.07198	147.0
143.08446	140.0
131.04893	139.0
178.07681	138.0
128.06364	134.0
227.10437	133.0
200.08235	128.0
163.07623	126.0
157.06555	123.0
247.1339	117.0
185.09633	114.0
143.04697	112.0
185.06036	110.0
202.06273	108.0
154.07761	106.0
223.07391	105.0
213.12776	104.0
238.10019	104.0
159.08005	103.0
149.06181	102.0
223.10902	102.0
181.09944	102.0
229.11163	100.0
95.08517	99.0
91.05376	98.0
197.05994	97.0
115.05333	96.0
166.07909	94.0
225.16177	90.0
127.05373	90.0
159.04546	88.0
210.10168	87.0
188.08234	87.0
183.08183	87.0
180.09258	86.0
207.10147	86.0
182.07475	85.0
175.07574	83.0
142.07872	83.0
85.06422	83.0
191.10576	82.0
219.10564	81.0
177.09013	78.0
259.13138	78.0
235.15036	78.0
243.13632	76.0
123.04323	76.0
144.05612	74.0
107.08723	74.0
205.12033	74.0
217.12114	72.0
256.1116	72.0
317.15845	72.0
59.04934	71.0
179.08328	71.0
215.09109	70.0
67.05389	67.0
177.05365	66.0
55.05378	64.0
173.09607	62.0
81.06912	62.0
243.17297	61.0
201.12827	61.0
201.05466	61.0
137.06081	60.0
213.05484	60.0
198.0676	60.0
211.07666	58.0
220.12596	58.0
230.12971	58.0
195.11795	58.0
269.15094	56.0
213.07915	55.0
103.05171	55.0
165.05707	55.0
93.07036	54.0
163.03871	54.0
189.05469	54.0
266.13232	53.0
224.07997	53.0
257.15338	52.0
255.09853	52.0
200.04633	52.0
205.0502	52.0
199.10963	52.0
251.10818	51.0
269.11722	50.0
133.06239	49.0
79.05447	49.0
247.09694	49.0
238.13495	49.0
227.0719	48.0
191.06921	48.0
117.06434	47.0
233.11676	47.0
275.1272	47.0
271.13089	46.0
147.08112	46.0
190.06332	46.0
214.09396	46.0
119.08635	46.0
175.03816	46.0
184.08771	45.0
221.08459	45.0
209.07939	45.0
109.10439	44.0
226.09889	44.0
187.04015	44.0
160.0537	44.0
198.10344	43.0
77.03681	42.0
219.09694	41.0
71.04946	41.0
202.10033	40.0
172.08218	40.0
137.09636	39.0
105.06681	39.0
245.118	39.0
55.01818	38.0
131.08594	38.0
219.13608	38.0
186.06897	37.0
225.08977	37.0
157.10115	37.0
237.09326	37.0
194.10963	36.0
156.09372	36.0
225.12503	35.0
155.04805	34.0
81.03209	34.0
203.07333	34.0
192.09676	34.0
57.06957	33.0
207.07751	33.0
270.12231	33.0
287.16702	32.0
233.07788	32.0
256.14767	32.0
150.06673	32.0
235.0948	32.0
170.0723	31.0
216.11932	30.0
145.10185	30.0
263.13705	29.0
176.0451	29.0
217.05765	29.0
162.06599	29.0
234.08975	28.0
208.08643	28.0
214.05957	27.0
183.09773	27.0
127.04932	26.0
210.06335	26.0
224.11955	25.0
147.11794	25.0
284.14444	24.0
273.15048	23.0
107.04568	13.0
102.04604	13.0
81.47704	12.0

MSID: 8981
ID: 423
RETENTIONTIME: 33.09265
PRECURSORMZ: 471.3466
AREA: 3276672.0
PRECURSORTYPE: [M+H]+
SMILES: [H][C@@]12CC[C@]3(C)[C@]([H])(CC=C4[C@]5([H])[C@](C)(O)[C@H](C)CC[C@@]5(CC[C@@]34C)C(O)=O)[C@@]1(C)C(CO)=CC2(C)C
NAME: hyptadienic acid
FORMULA: C30H46O4
INCHIKEY: YFLYOZWZPSYMPX-DCLYBNOZSA-N
CAS: 128397-09-1
Molecular Weight: 470.693
Number of References: 24
Class: Ursane and Taraxastane triterpenoids
Superclass: Triterpenoids
Pathway: Terpenoids
ppm: -0.8349999999950342
CMID: CM243
IONMODE: Positive
COLLISIONENERGY: 40±20eV
INSTRUMENTTYPE: AB SCIEX
INSTRUMENT: Q-TOF
Comment:  
Num Peaks: 238
471.34509	34223.0
189.16505	3379.0
425.34122	3321.0
235.16978	1967.0
217.16002	1512.0
175.14696	1373.0
271.2066	984.0
201.16429	845.0
407.3309	816.0
135.11732	742.0
133.10075	719.0
119.08524	608.0
199.14824	567.0
187.14723	565.0
95.08513	528.0
159.11703	500.0
121.10192	499.0
177.16435	479.0
107.08617	477.0
173.13336	471.0
191.1788	450.0
145.10179	431.0
317.2124	426.0
147.1143	399.0
247.1692	372.0
253.1967	368.0
105.07079	365.0
453.33844	359.0
435.32684	359.0
227.17955	352.0
81.06997	351.0
163.14871	342.0
161.13466	315.0
207.17326	313.0
205.16092	313.0
197.12997	307.0
93.07032	307.0
109.10229	281.0
171.11732	277.0
215.14558	271.0
149.13112	265.0
215.1815	258.0
213.16484	256.0
161.09612	246.0
157.09985	242.0
389.31973	227.0
219.17223	210.0
123.11707	208.0
131.08589	207.0
241.19453	203.0
185.13223	198.0
203.17793	186.0
267.21335	183.0
149.09523	180.0
183.11754	178.0
143.08557	175.0
285.22174	173.0
245.1869	162.0
229.15897	161.0
257.18942	153.0
229.19307	144.0
137.133	143.0
83.04838	143.0
175.11325	141.0
69.06975	139.0
231.17528	139.0
273.22159	131.0
91.05279	129.0
269.22635	126.0
255.20949	121.0
243.21106	121.0
147.07986	121.0
311.23508	119.0
273.18274	118.0
261.14688	115.0
169.10162	115.0
67.05306	112.0
221.1544	111.0
239.17883	108.0
155.08334	107.0
179.14349	107.0
223.17036	105.0
177.09137	105.0
233.19144	103.0
211.1463	102.0
191.14494	96.0
153.0932	94.0
299.19849	93.0
283.20572	93.0
128.06248	93.0
163.11244	93.0
83.08498	92.0
263.16711	92.0
275.20181	91.0
291.19736	88.0
275.16446	88.0
175.13269	87.0
111.07941	82.0
177.12917	81.0
193.16101	80.0
55.05376	78.0
233.15704	77.0
225.1602	77.0
203.14165	76.0
139.1116	76.0
287.20175	76.0
97.06554	76.0
165.09097	75.0
179.1068	73.0
223.14696	72.0
189.13004	70.0
289.21524	68.0
259.20535	68.0
151.11108	66.0
97.09931	66.0
301.21616	65.0
123.08012	65.0
313.21658	64.0
201.12956	63.0
425.29678	63.0
129.07082	63.0
167.10927	62.0
139.07579	62.0
159.07997	61.0
281.22644	61.0
173.09599	60.0
269.18781	59.0
237.18515	59.0
363.30457	58.0
243.17746	58.0
319.24255	57.0
165.12997	57.0
163.07742	56.0
79.05531	56.0
303.19797	56.0
125.09625	55.0
142.07748	55.0
153.12471	54.0
285.18701	53.0
69.06731	53.0
293.22311	52.0
95.0794	52.0
425.28668	52.0
182.1064	51.0
217.19321	51.0
57.07029	51.0
205.1469	50.0
245.15317	50.0
117.07065	49.0
263.2005	49.0
137.09744	49.0
289.18027	48.0
327.23126	48.0
95.04693	48.0
407.30322	48.0
347.27255	47.0
231.20953	45.0
331.22787	45.0
277.17288	44.0
435.30026	44.0
469.79419	43.0
265.19675	43.0
55.0523	42.0
113.09511	42.0
163.13622	42.0
379.33774	41.0
329.24518	40.0
121.06313	40.0
141.06715	39.0
295.24243	39.0
277.18591	39.0
109.0665	37.0
219.13599	37.0
425.27457	37.0
165.16144	36.0
145.08763	36.0
151.07497	36.0
77.0385	36.0
355.26086	35.0
147.10243	35.0
277.2218	35.0
145.06404	35.0
307.24286	35.0
333.263	34.0
221.118	34.0
249.18268	34.0
156.09364	34.0
367.25977	33.0
235.13824	33.0
193.08751	33.0
237.16856	33.0
184.1235	33.0
297.2197	32.0
407.27161	32.0
343.22897	32.0
321.25812	32.0
471.29834	32.0
279.20825	31.0
209.13596	31.0
209.18694	31.0
199.13165	30.0
453.25922	30.0
205.1946	30.0
229.14563	30.0
337.25299	30.0
365.2486	30.0
139.10814	29.0
251.17947	29.0
99.08195	28.0
151.146	28.0
173.11017	28.0
228.18742	28.0
329.21143	28.0
85.06509	28.0
191.10162	27.0
383.26398	27.0
327.26315	27.0
393.27191	26.0
351.27005	26.0
435.21445	25.0
71.08576	25.0
341.24503	25.0
395.29834	25.0
195.11102	25.0
319.2233	24.0
181.10201	24.0
285.17709	24.0
214.17413	24.0
257.15329	24.0
409.34363	24.0
339.26321	24.0
216.15091	24.0
425.24426	23.0
315.19742	23.0
225.1264	23.0
311.2005	22.0
453.30508	21.0
409.29608	13.0

MSID: 8982
ID: 390
RETENTIONTIME: 32.18185
PRECURSORMZ: 345.1689
AREA: 3221349.5
PRECURSORTYPE: [M+H]+
SMILES: [H][C@@]12C[C@@H]3OC(=O)[C@@]1(CCCC2(C)C)C1=C3C(=O)C(C(C)C)=C(O)C1=O
NAME: columbaridione
FORMULA: C20H24O5
INCHIKEY: ZGIOOTXNBWWRKD-SULUTDIPSA-N
CAS: nan
Molecular Weight: 344.408
Number of References: 4
Class: Abietane diterpenoids
Superclass: Diterpenoids
Pathway: Terpenoids
ppm: -1.3000000000147338
CMID: CM243
IONMODE: Positive
COLLISIONENERGY: 40±20eV
INSTRUMENTTYPE: AB SCIEX
INSTRUMENT: Q-TOF
Comment:  
Num Peaks: 282
215.1067	11553.0
271.16937	11139.0
173.05855	2094.0
327.15848	1740.0
229.12181	1727.0
243.10252	1662.0
211.11206	1565.0
297.14868	1425.0
200.08218	1423.0
197.0955	1365.0
253.15919	1057.0
315.15903	938.0
233.08067	840.0
269.11697	786.0
299.1662	725.0
201.0531	700.0
145.06517	689.0
285.11246	657.0
257.11548	552.0
169.10156	552.0
153.06889	538.0
239.10603	534.0
141.06943	502.0
281.1557	477.0
183.11613	468.0
228.11484	443.0
213.09041	443.0
182.07327	424.0
187.07347	422.0
165.06825	419.0
231.10222	417.0
269.15234	399.0
215.09665	391.0
345.17123	389.0
181.06503	386.0
267.10278	373.0
168.09311	370.0
195.08221	369.0
243.13765	365.0
193.09833	360.0
196.0862	357.0
241.08493	354.0
169.06462	351.0
154.07626	349.0
152.06241	328.0
178.07797	299.0
155.0845	297.0
255.10144	295.0
199.07353	284.0
217.08488	284.0
183.07903	280.0
187.03731	280.0
209.09479	278.0
227.10565	276.0
230.13249	273.0
157.06543	273.0
309.1478	271.0
167.08641	267.0
128.06131	261.0
229.05066	249.0
227.07024	247.0
221.09605	244.0
223.11176	228.0
287.16345	225.0
238.09848	224.0
171.08011	221.0
185.09485	217.0
317.17737	217.0
159.07991	213.0
161.05876	208.0
241.12143	208.0
179.08444	204.0
243.11932	203.0
271.10004	203.0
205.08508	187.0
245.11473	186.0
127.05473	183.0
181.10193	182.0
211.07791	176.0
165.09216	174.0
245.07947	172.0
143.08434	172.0
225.16452	170.0
131.04996	166.0
203.07037	166.0
187.10963	162.0
201.0892	162.0
185.06021	160.0
197.08452	160.0
190.06181	148.0
215.07224	147.0
225.12779	147.0
215.08229	146.0
219.06631	141.0
129.06853	134.0
147.04417	130.0
142.07744	130.0
213.05324	130.0
189.0909	128.0
91.05275	128.0
285.14554	127.0
95.08604	124.0
172.08846	124.0
259.13431	124.0
256.10825	123.0
229.08624	123.0
223.07227	120.0
199.11223	120.0
203.10666	120.0
67.05544	120.0
123.0453	120.0
271.13068	116.0
226.09869	115.0
107.08511	113.0
166.0777	113.0
214.10095	112.0
198.07019	109.0
263.14319	108.0
203.03548	108.0
289.18182	108.0
210.10434	108.0
55.05301	107.0
242.09421	106.0
93.07028	106.0
229.0981	106.0
231.06351	105.0
257.15475	104.0
254.09349	103.0
213.12473	103.0
189.05319	102.0
251.14522	100.0
273.1098	100.0
131.08583	99.0
117.07059	98.0
256.14432	98.0
109.10123	96.0
115.05428	95.0
251.10641	95.0
247.0952	92.0
155.05035	92.0
191.08665	91.0
143.04919	91.0
83.04923	88.0
231.13646	88.0
257.07623	88.0
224.08125	88.0
225.05579	83.0
238.13626	83.0
226.06335	82.0
157.10225	82.0
266.09375	82.0
163.03734	81.0
69.07053	79.0
149.0593	79.0
175.0743	78.0
201.12671	78.0
79.05354	76.0
195.11778	76.0
216.11626	76.0
59.04929	75.0
168.05756	75.0
200.04893	73.0
174.06755	72.0
239.07272	72.0
225.09251	71.0
206.07509	70.0
283.13144	70.0
137.0584	68.0
179.10672	68.0
207.06325	66.0
216.07739	65.0
151.05203	65.0
173.0985	65.0
243.06435	65.0
169.0761	64.0
253.12492	64.0
183.04326	63.0
77.03761	62.0
81.06817	62.0
219.104	62.0
176.04886	61.0
202.06117	61.0
160.05109	61.0
240.07928	60.0
266.13208	60.0
190.07802	60.0
247.13214	60.0
255.09206	60.0
191.0704	59.0
184.05301	59.0
193.06566	59.0
144.05952	58.0
180.09244	58.0
147.08217	58.0
156.09236	58.0
249.08827	57.0
139.05264	57.0
237.08702	55.0
279.09851	55.0
281.11792	54.0
177.08868	54.0
158.0723	54.0
208.08766	54.0
83.08405	54.0
217.0517	53.0
179.06871	53.0
184.0849	53.0
159.04286	53.0
192.09389	52.0
243.07809	52.0
240.11267	52.0
217.12241	52.0
170.07088	52.0
202.09598	52.0
239.14389	51.0
227.1396	50.0
167.04843	50.0
85.06505	50.0
209.08488	49.0
175.0406	49.0
105.06873	49.0
163.07484	48.0
191.03384	48.0
220.12433	47.0
235.15167	47.0
212.08083	47.0
209.05655	47.0
205.06406	46.0
183.10023	46.0
107.04964	46.0
241.10165	45.0
252.07735	45.0
259.17056	44.0
198.10327	44.0
191.10561	44.0
299.12384	43.0
186.07149	43.0
251.07072	42.0
223.1454	42.0
202.07509	42.0
201.07809	42.0
194.07399	42.0
267.08359	41.0
119.08625	41.0
293.11902	41.0
189.07204	41.0
172.05121	40.0
327.13016	40.0
145.10056	39.0
229.06993	39.0
255.13274	39.0
236.11685	38.0
287.12198	38.0
206.11024	37.0
133.06454	37.0
219.07936	36.0
188.06874	36.0
69.03391	35.0
65.04016	35.0
233.11507	35.0
291.14041	34.0
210.06602	34.0
121.06523	32.0
146.07193	32.0
109.09509	32.0
267.1412	31.0
57.03328	30.0
150.04381	30.0
241.15489	29.0
279.14267	28.0
207.11821	28.0
283.16934	27.0
230.11021	27.0
139.06073	27.0
245.15306	27.0
99.08094	26.0
248.12312	26.0
126.04662	25.0
205.12015	25.0
247.11829	25.0
222.09912	23.0
53.04208	12.0

MSID: 8983
ID: 266
RETENTIONTIME: 29.98457
PRECURSORMZ: 313.145
AREA: 3171455.0
PRECURSORTYPE: [M+H]+
SMILES: CC1(C)CCCC2=C1C=CC1=C2C(=O)C(=O)C2=C1OC[C@@H]2CO
NAME: 17-hydroxycryptotanshinone
FORMULA: C19H20O4
INCHIKEY: RLHQXRPMHRPPEA-JTQLQIEISA-N
CAS: nan
Molecular Weight: 312.365
Number of References: 6
Class: Abietane diterpenoids
Superclass: Naphthalenes
Pathway: Polyketides
ppm: 1.0149999999384818
CMID: CM243
IONMODE: Positive
COLLISIONENERGY: 40±20eV
INSTRUMENTTYPE: AB SCIEX
INSTRUMENT: Q-TOF
Comment:  
Num Peaks: 204
313.14374	8269.0
267.13968	1045.0
295.13135	882.0
298.1203	852.0
227.06882	795.0
271.09689	727.0
243.10107	619.0
285.14728	575.0
257.07788	555.0
255.06398	540.0
237.09163	519.0
225.08965	431.0
255.10309	400.0
209.09485	383.0
270.08838	372.0
270.12701	343.0
213.05473	323.0
179.08319	296.0
165.06955	286.0
277.12067	274.0
253.08449	269.0
153.07016	254.0
219.07942	253.0
178.07803	251.0
242.05618	251.0
181.06377	238.0
252.11784	222.0
265.0835	215.0
207.07739	202.0
284.10468	200.0
283.09692	199.0
280.10739	190.0
241.08653	186.0
197.09419	185.0
195.07817	184.0
249.12854	182.0
206.11031	180.0
252.08052	176.0
224.08278	173.0
191.084	172.0
285.11255	172.0
201.05455	171.0
235.07365	159.0
152.06245	158.0
228.07793	153.0
234.10312	142.0
256.0723	138.0
269.08173	134.0
247.0768	134.0
173.06119	134.0
224.11797	134.0
241.05156	133.0
166.07774	133.0
182.07201	132.0
213.09334	131.0
199.07635	127.0
227.10719	124.0
262.09891	121.0
141.07179	121.0
221.13107	120.0
190.07536	118.0
181.10066	116.0
169.10416	116.0
194.06996	116.0
67.05386	115.0
251.0708	114.0
223.07526	112.0
211.07655	112.0
242.09579	111.0
271.13559	111.0
154.07753	111.0
239.14397	110.0
128.06247	108.0
239.07127	106.0
209.06229	102.0
215.10533	102.0
155.10651	102.0
189.06941	100.0
196.09038	99.0
155.08577	97.0
185.06026	97.0
221.05972	88.0
183.08174	85.0
180.09511	83.0
141.12648	83.0
171.08144	82.0
214.06377	80.0
210.06183	79.0
193.1011	79.0
223.11037	78.0
254.09357	78.0
216.09329	78.0
143.08438	77.0
256.06915	76.0
167.08647	76.0
177.06659	75.0
169.06595	74.0
127.05367	73.0
251.10495	73.0
208.08914	73.0
238.10007	72.0
267.09967	72.0
145.06403	71.0
243.06442	70.0
237.05544	70.0
168.05762	68.0
269.11868	68.0
185.09491	67.0
261.09619	66.0
215.07373	66.0
226.06343	65.0
240.07785	63.0
119.08629	63.0
229.08334	61.0
129.06746	61.0
253.12189	61.0
155.04918	60.0
200.04622	58.0
221.09467	58.0
271.07269	58.0
55.05448	58.0
259.10916	57.0
215.08379	57.0
71.08575	57.0
225.05438	56.0
151.11346	55.0
109.10126	55.0
157.06302	55.0
298.09833	55.0
256.11148	53.0
105.07077	53.0
256.10208	52.0
237.07504	51.0
135.11731	51.0
206.07094	51.0
297.11163	50.0
270.07068	50.0
255.03896	49.0
165.06326	49.0
207.11545	48.0
205.06412	48.0
225.06615	48.0
205.10199	48.0
211.15056	48.0
81.06819	48.0
231.11569	48.0
226.09729	47.0
99.07804	46.0
279.10022	46.0
222.06853	45.0
214.09959	45.0
257.15482	44.0
233.09421	44.0
159.07872	43.0
224.11357	43.0
239.13185	43.0
79.05269	43.0
242.12933	42.0
151.05449	42.0
158.0748	42.0
186.06888	40.0
248.07846	40.0
192.09123	40.0
272.10245	38.0
139.05153	38.0
145.1006	37.0
171.043	37.0
249.08989	37.0
71.0486	36.0
217.06474	36.0
193.06299	36.0
277.21851	36.0
195.04398	36.0
218.07164	35.0
184.08894	35.0
198.0675	35.0
202.07237	34.0
235.1097	34.0
239.10611	34.0
55.01742	34.0
187.07889	34.0
142.07864	33.0
169.09142	33.0
283.0755	33.0
219.06638	31.0
212.04239	31.0
201.09343	31.0
163.05113	30.0
295.22723	30.0
236.08081	30.0
95.08703	30.0
115.05327	29.0
183.0433	29.0
187.1097	28.0
245.07954	28.0
93.06937	28.0
150.04626	28.0
203.10393	28.0
216.08034	26.0
266.09222	26.0
168.09062	26.0
267.06125	25.0
107.08515	25.0
312.12378	25.0

MSID: 8984
ID: 187
RETENTIONTIME: 27.64393
PRECURSORMZ: 315.1953
AREA: 3123765.0
PRECURSORTYPE: [M+H]+
SMILES: [H][C@@]12C(=O)C=C3C=C(C(C)C)C(=O)C(O)=C3[C@@]1(C)CCCC2(C)C
NAME: taxodione
FORMULA: C20H26O3
INCHIKEY: FNNZMRSRVYUVQT-AZUAARDMSA-N
CAS: 19026-31-4
Molecular Weight: 314.425
Number of References: 35
Class: Abeoabietane diterpenoids
Superclass: Diterpenoids
Pathway: Terpenoids
ppm: -0.7200000000580076
CMID: CM243
IONMODE: Positive
COLLISIONENERGY: 40±20eV
INSTRUMENTTYPE: AB SCIEX
INSTRUMENT: Q-TOF
Comment:  
Num Peaks: 188
315.08585	944.0
297.18567	722.0
217.12228	620.0
315.19711	609.0
300.06284	484.0
215.10516	472.0
191.10822	345.0
168.00542	332.0
231.13783	224.0
95.08504	219.0
255.14041	212.0
181.06361	192.0
257.1546	190.0
153.07002	184.0
272.06668	183.0
237.12762	183.0
165.07068	179.0
231.10359	178.0
195.07938	172.0
149.05922	160.0
165.09081	157.0
167.08632	155.0
197.09679	152.0
273.1485	150.0
189.09215	148.0
199.07481	143.0
205.12144	140.0
279.17361	138.0
233.11644	136.0
67.0546	131.0
203.10655	128.0
131.04988	127.0
200.08345	126.0
128.06125	125.0
227.10701	124.0
193.08597	120.0
175.0755	120.0
157.06534	115.0
111.07931	112.0
173.05975	111.0
161.05992	111.0
171.08002	111.0
145.06508	110.0
141.07169	110.0
143.08777	108.0
209.09326	107.0
259.13416	106.0
129.06847	104.0
202.09865	101.0
152.06233	99.0
179.08698	99.0
185.09741	98.0
287.16827	97.0
229.04758	93.0
223.1131	90.0
279.1687	90.0
91.05457	89.0
93.06929	88.0
181.10184	85.0
225.08946	85.0
241.12131	85.0
271.17245	84.0
55.05516	84.0
157.10094	83.0
183.08026	79.0
187.07471	79.0
257.03998	78.0
69.06969	78.0
229.12317	77.0
221.0974	75.0
209.13434	75.0
254.13081	75.0
163.07727	74.0
169.09892	73.0
213.09315	73.0
199.11488	70.0
239.10591	69.0
193.10229	66.0
211.07637	65.0
182.0679	64.0
243.13753	63.0
166.07886	62.0
239.14377	62.0
155.08807	61.0
207.10118	60.0
143.04561	60.0
183.02991	59.0
207.08005	59.0
140.00815	57.0
201.09048	56.0
174.06876	56.0
142.07619	56.0
205.08778	55.0
195.11494	55.0
214.09511	54.0
189.05443	54.0
179.104	54.0
269.1554	53.0
103.05257	52.0
135.04549	52.0
107.08405	52.0
222.10483	51.0
83.084	51.0
245.11613	51.0
115.05212	51.0
253.12323	50.0
154.07741	50.0
208.08897	50.0
109.1022	48.0
147.04408	48.0
205.099	48.0
251.13887	47.0
245.15294	47.0
77.03842	47.0
159.08229	47.0
194.10664	46.0
81.06812	46.0
203.06886	46.0
127.05577	46.0
105.06867	46.0
231.08423	45.0
257.14676	45.0
137.09616	44.0
169.06453	44.0
178.07657	44.0
285.18344	43.0
133.0656	43.0
236.12274	43.0
217.08765	43.0
177.0925	43.0
137.05832	41.0
186.06471	40.0
226.10005	40.0
287.1965	40.0
190.07791	40.0
188.08745	38.0
95.0774	38.0
201.08076	37.0
172.08836	36.0
300.034	36.0
125.09504	36.0
148.05054	36.0
219.13722	35.0
198.07008	35.0
55.01738	34.0
131.08353	34.0
233.15233	34.0
156.09473	34.0
159.04524	34.0
200.07791	34.0
145.10283	34.0
117.07053	33.0
187.10954	33.0
272.05215	33.0
297.15527	32.0
170.0695	31.0
268.14249	31.0
315.15015	31.0
158.07344	29.0
69.03307	29.0
235.1125	27.0
179.06862	27.0
191.0703	26.0
227.14096	26.0
215.07068	26.0
83.04829	26.0
144.043	25.0
184.08479	25.0
251.11095	24.0
119.08833	24.0
154.07254	24.0
216.12047	24.0
97.06641	24.0
271.15311	24.0
224.11778	23.0
239.13467	23.0
233.08055	23.0
219.11403	23.0
196.08746	23.0
238.09685	22.0
123.04198	21.0
216.07584	20.0
189.0679	20.0
269.18594	19.0
198.10593	19.0
247.14125	13.0
252.06322	12.0
51.02306	12.0

MSID: 8985
ID: 305
RETENTIONTIME: 30.8222
PRECURSORMZ: 345.1693
AREA: 3097038.25
PRECURSORTYPE: [M+H]+
SMILES: [H][C@]12CCC=C3C(=O)OC[C@@]13CC(=O)[C@@H](C)[C@]2(C)CCC1=CC(=O)OC1
NAME: 7-Keto-neo-clerodan-3,13-dien-18,19:15,16-diolide
FORMULA: C20H24O5
INCHIKEY: AHZVXBSDOABEEU-WWIODWGFSA-N
CAS: nan
Molecular Weight: 344.408
Number of References: 4
Class: Colensane and Clerodane diterpenoids
Superclass: Diterpenoids
Pathway: Terpenoids
ppm: -0.9000000000014552
CMID: CM243
IONMODE: Positive
COLLISIONENERGY: 40±20eV
INSTRUMENTTYPE: AB SCIEX
INSTRUMENT: Q-TOF
Comment:  
Num Peaks: 311
345.16974	12210.0
299.16479	3082.0
205.08528	2366.0
327.16058	2305.0
193.08626	2016.0
239.10626	1771.0
281.15268	1424.0
309.14807	884.0
229.12352	838.0
257.11731	823.0
107.08522	800.0
221.09627	797.0
221.08025	763.0
211.11227	752.0
271.16803	721.0
119.0853	609.0
91.05284	527.0
95.08518	525.0
263.14502	463.0
163.03999	457.0
135.04454	456.0
238.09871	438.0
195.07968	425.0
269.11725	409.0
285.14914	378.0
231.10393	371.0
215.10692	353.0
213.09062	347.0
248.11874	346.0
267.09985	341.0
199.07649	340.0
196.08914	336.0
241.08669	334.0
178.07816	321.0
317.17245	319.0
197.06133	318.0
243.10124	317.0
191.06923	316.0
253.15788	312.0
173.06001	300.0
217.08798	298.0
165.09232	295.0
183.11632	292.0
267.13666	292.0
169.06479	280.0
223.07686	274.0
209.095	269.0
235.1489	264.0
141.07072	257.0
197.0957	257.0
189.09242	251.0
256.10852	251.0
181.06389	245.0
187.07231	243.0
179.07021	241.0
93.06943	227.0
183.08054	227.0
255.10168	226.0
223.11197	226.0
271.13257	226.0
233.0809	224.0
227.10735	212.0
220.12599	211.0
147.0455	207.0
228.11211	205.0
169.10173	200.0
203.10686	198.0
165.07219	196.0
175.07576	194.0
201.0894	193.0
285.11273	193.0
241.12318	193.0
153.07025	192.0
67.0539	189.0
107.04874	189.0
225.09274	184.0
224.08147	181.0
233.09436	181.0
79.05361	179.0
219.10132	178.0
257.14871	176.0
167.08784	175.0
189.05472	175.0
161.05891	173.0
229.08794	169.0
249.09006	167.0
227.0675	164.0
105.06984	163.0
147.07994	163.0
181.10078	162.0
213.05774	159.0
137.09752	152.0
155.08344	146.0
206.07248	145.0
123.04216	141.0
145.06648	140.0
266.12915	138.0
81.07001	137.0
237.09027	136.0
179.08592	136.0
251.10356	135.0
207.06345	135.0
149.05945	134.0
283.13007	133.0
152.06015	132.0
214.09973	132.0
202.06276	132.0
211.07669	132.0
209.08366	131.0
275.12723	130.0
281.1412	130.0
77.03854	129.0
255.13766	128.0
259.0983	128.0
128.06145	127.0
243.14247	126.0
297.14896	124.0
182.07082	124.0
159.08006	123.0
55.05379	123.0
215.06956	119.0
163.07626	119.0
174.06772	117.0
131.04897	117.0
205.06425	116.0
191.08548	116.0
69.06979	115.0
185.05905	114.0
143.04933	113.0
168.09328	113.0
271.09708	111.0
166.07785	111.0
257.08118	110.0
271.14706	110.0
291.13568	109.0
266.0892	109.0
253.12361	107.0
201.05608	107.0
157.09995	105.0
210.10455	104.0
137.06082	102.0
171.08026	100.0
194.07419	100.0
299.13599	99.0
157.06435	98.0
185.09503	97.0
177.05757	97.0
224.11958	94.0
217.12405	94.0
143.08447	94.0
198.06763	92.0
259.13297	92.0
228.07956	91.0
239.14413	91.0
142.0764	90.0
209.05817	90.0
203.07057	90.0
200.08653	89.0
109.10236	88.0
127.05486	88.0
235.11134	87.0
184.05185	86.0
230.11192	86.0
245.1165	85.0
206.11044	85.0
242.09749	84.0
251.07097	84.0
117.06859	83.0
215.08394	83.0
207.09868	82.0
230.09409	81.0
284.14117	81.0
247.10005	81.0
245.1349	81.0
177.09016	81.0
203.08731	81.0
129.06866	80.0
154.07642	79.0
109.06247	79.0
195.11661	78.0
115.0523	78.0
207.08318	77.0
222.10663	77.0
192.09407	76.0
229.10277	76.0
189.06953	75.0
208.0907	74.0
233.11679	73.0
251.14081	72.0
187.03615	71.0
231.13669	71.0
202.07669	70.0
257.09375	70.0
252.07759	69.0
240.07953	69.0
210.06764	69.0
261.11377	69.0
190.07954	68.0
225.16475	68.0
103.05371	68.0
270.12558	67.0
238.13649	66.0
239.08354	66.0
245.0797	66.0
55.01746	65.0
180.09129	65.0
123.08128	64.0
247.13239	64.0
159.04549	63.0
135.07983	63.0
196.12343	62.0
301.14154	61.0
191.10307	61.0
245.15483	60.0
214.0639	60.0
252.1149	60.0
273.11166	59.0
177.0706	59.0
315.15933	59.0
219.06363	59.0
240.11746	58.0
173.09608	58.0
150.07036	57.0
237.12646	55.0
269.151	55.0
254.09218	55.0
243.06306	55.0
158.07245	54.0
221.13268	53.0
131.08708	52.0
97.06655	52.0
121.06427	51.0
65.03786	51.0
216.07616	50.0
197.13145	50.0
226.06653	50.0
289.18045	49.0
265.08206	49.0
59.04859	48.0
225.056	48.0
327.12692	47.0
279.13803	47.0
85.06423	47.0
219.08102	47.0
190.062	47.0
219.13611	46.0
199.11243	45.0
168.05772	45.0
186.06633	45.0
183.04475	44.0
171.04697	44.0
133.06241	44.0
256.14456	44.0
258.08875	43.0
171.11613	43.0
179.10953	43.0
91.0435	43.0
151.04015	43.0
273.15375	43.0
218.05443	43.0
57.03333	42.0
312.13089	41.0
303.1214	41.0
291.12564	41.0
51.02384	41.0
253.09088	41.0
212.08531	41.0
165.05457	40.0
231.08607	40.0
179.0322	40.0
71.0503	40.0
294.12119	39.0
139.05392	39.0
69.03398	39.0
156.09373	38.0
83.04932	38.0
176.06462	38.0
220.08676	37.0
218.09492	37.0
145.10069	37.0
229.06126	37.0
104.06433	37.0
268.1076	36.0
239.07446	35.0
178.05855	35.0
244.10553	34.0
234.06731	34.0
259.07938	34.0
204.09348	34.0
230.08369	34.0
125.09851	33.0
184.09039	33.0
345.13699	32.0
160.05495	32.0
186.10507	31.0
179.05579	31.0
133.0997	31.0
217.05046	29.0
111.08257	29.0
205.04462	29.0
121.09768	29.0
270.1626	28.0
192.0425	28.0
207.04512	28.0
287.16373	28.0
276.11581	28.0
223.05931	27.0
161.04649	27.0
238.07907	25.0
191.03133	25.0
53.49031	12.0

MSID: 8986
ID: 349
RETENTIONTIME: 31.44938
PRECURSORMZ: 378.2281
AREA: 3088303.75
PRECURSORTYPE: [M+NH4]+
SMILES: [H][C@@]12CC(=O)C3=C(C(O)=C(OC)C(C(C)C)=C3O)[C@@]1(C)CCC(=O)C2(C)C
NAME: (4aS,10aR)-5,8-Dihydroxy-7-isopropyl-6-methoxy-1,1,4a-trimethyl-4,4a,10,10a-tetrahydro-1H,3H-phenanthrene-2,9-dione
FORMULA: C21H28O5
INCHIKEY: RXIIHKUHSCUOAN-QKVFXAPYSA-N
CAS: nan
Molecular Weight: 360.45
Number of References: 2
Class: Abeoabietane diterpenoids
Superclass: Diterpenoids
Pathway: Terpenoids
ppm: 0.050999999984924216
CMID: CM243
IONMODE: Positive
COLLISIONENERGY: 40±20eV
INSTRUMENTTYPE: AB SCIEX
INSTRUMENT: Q-TOF
Comment:  
Num Peaks: 364
109.10135	28757.0
361.20215	21770.0
177.09149	21151.0
273.18457	14876.0
301.18066	14571.0
245.11807	12286.0
283.16968	9786.0
237.11293	8303.0
315.19415	7830.0
215.10695	7165.0
205.08672	6780.0
191.10716	5705.0
161.06018	5397.0
67.05391	4934.0
217.12263	4910.0
231.10248	4507.0
329.17435	3654.0
241.12321	3602.0
203.10689	3176.0
223.112	3069.0
149.06065	3039.0
165.09108	2847.0
255.13771	2554.0
219.1028	2499.0
197.09573	2374.0
251.12843	2334.0
267.17673	2302.0
297.18616	2295.0
259.09991	2225.0
175.07449	2218.0
231.13672	1917.0
149.09653	1701.0
225.12804	1606.0
157.0656	1345.0
173.06004	1232.0
265.15866	1180.0
185.09639	1169.0
131.05009	1137.0
81.07002	1115.0
229.12355	1071.0
213.12639	1069.0
69.0698	1064.0
55.05452	1056.0
243.13792	1047.0
169.10175	1018.0
195.11801	990.0
183.08057	973.0
225.11481	908.0
200.08379	887.0
259.13144	878.0
95.08615	839.0
199.11244	831.0
171.08157	830.0
199.07652	806.0
179.10692	769.0
187.07501	768.0
181.06523	756.0
123.04435	727.0
227.10591	725.0
257.15347	678.0
285.1839	666.0
154.07765	657.0
201.09082	631.0
141.07076	626.0
187.11119	590.0
213.09207	589.0
129.06868	580.0
240.11446	574.0
128.06146	565.0
153.07028	547.0
189.09111	545.0
188.08372	536.0
135.04457	531.0
203.07199	527.0
211.11087	515.0
165.07095	511.0
254.1328	506.0
311.16446	504.0
149.0762	500.0
205.09935	487.0
143.04819	471.0
145.06415	461.0
183.06863	430.0
209.08086	417.0
209.09502	413.0
159.08009	411.0
333.20779	408.0
155.08589	404.0
179.08464	403.0
185.05908	402.0
271.1713	402.0
195.08244	400.0
202.09898	397.0
182.07085	387.0
169.06354	386.0
163.07628	372.0
208.08789	367.0
167.08659	365.0
83.08503	362.0
239.10782	349.0
189.05609	339.0
152.06259	334.0
227.14281	330.0
269.11728	310.0
212.08534	306.0
255.17212	287.0
172.08737	287.0
233.11682	283.0
157.1012	280.0
180.09395	279.0
239.14417	275.0
225.09129	269.0
209.11909	268.0
196.0878	263.0
143.08566	261.0
226.06508	251.0
147.08115	247.0
216.07907	245.0
184.08908	244.0
211.07672	236.0
107.08422	234.0
198.1035	229.0
221.08319	227.0
213.11066	224.0
147.04314	221.0
103.05473	219.0
272.13983	213.0
142.07875	210.0
217.10822	207.0
171.11745	207.0
253.15948	205.0
199.09448	205.0
174.06775	203.0
133.06355	202.0
214.09833	199.0
205.12318	196.0
158.07124	195.0
183.11766	194.0
156.09253	193.0
273.16998	193.0
163.03876	193.0
229.08797	192.0
224.12109	192.0
207.11703	190.0
79.0545	190.0
170.07234	189.0
131.08598	188.0
91.05566	187.0
230.09859	184.0
198.06903	182.0
221.0963	181.0
222.10374	178.0
269.18958	178.0
137.05969	176.0
217.08656	174.0
181.10213	174.0
202.06279	170.0
241.08521	170.0
226.10042	165.0
255.11737	163.0
65.03786	162.0
193.10262	156.0
230.12978	156.0
269.15585	152.0
127.05598	145.0
259.16769	144.0
207.08038	142.0
237.16119	142.0
168.09203	141.0
217.05049	140.0
255.16586	140.0
166.07788	138.0
263.12759	131.0
243.10127	130.0
177.07063	127.0
185.13237	125.0
182.10785	125.0
210.10458	123.0
159.04427	122.0
171.0457	120.0
197.13148	119.0
93.06944	113.0
293.15289	112.0
222.14023	111.0
268.14133	111.0
85.06515	110.0
253.12053	110.0
115.05336	109.0
105.07085	109.0
243.1257	109.0
173.09612	107.0
197.05861	107.0
162.06604	106.0
178.07817	106.0
157.08524	106.0
144.05617	105.0
197.08061	103.0
235.14893	102.0
212.11957	101.0
221.11668	100.0
291.1608	100.0
160.05125	99.0
159.11592	99.0
244.10558	98.0
245.09814	97.0
145.09953	96.0
121.10093	94.0
273.15219	94.0
250.13765	93.0
201.05888	92.0
271.13742	89.0
200.06854	86.0
177.0576	84.0
186.06902	84.0
192.09546	83.0
235.11438	83.0
71.04948	83.0
194.07149	83.0
168.05647	82.0
227.07196	82.0
258.1297	79.0
151.07628	78.0
241.15668	77.0
228.1151	77.0
111.08155	77.0
155.0481	76.0
283.14825	75.0
209.13893	75.0
215.07104	75.0
199.03922	74.0
190.07957	73.0
151.05341	70.0
173.04973	70.0
202.08089	69.0
267.13989	67.0
207.10857	67.0
218.13112	65.0
184.05055	64.0
59.05086	64.0
257.1142	64.0
257.12521	64.0
239.12447	62.0
121.06644	62.0
208.12321	61.0
210.13724	61.0
193.12167	60.0
204.11169	59.0
224.15628	59.0
236.12463	56.0
191.06926	56.0
287.12064	55.0
190.06337	53.0
107.05078	53.0
77.03769	53.0
247.14935	52.0
165.05585	51.0
205.06288	51.0
315.17328	51.0
53.03858	51.0
226.13429	50.0
297.1507	49.0
287.13391	49.0
116.05985	49.0
176.04517	48.0
231.06972	48.0
201.12833	48.0
270.15781	47.0
238.13654	47.0
172.07452	47.0
252.15227	47.0
157.05333	47.0
163.06378	47.0
174.10652	47.0
233.10635	47.0
256.11169	46.0
273.11496	46.0
119.08532	46.0
244.07649	45.0
167.04863	45.0
108.74769	44.0
300.19226	44.0
255.08765	43.0
135.08327	43.0
136.05026	43.0
223.08859	43.0
123.02805	42.0
151.03896	42.0
204.07391	42.0
133.10085	42.0
171.06621	42.0
117.06861	42.0
209.0582	41.0
251.09894	41.0
119.05112	41.0
73.06384	41.0
265.13794	41.0
149.04153	40.0
225.16183	40.0
284.18085	40.0
187.06029	40.0
211.14645	40.0
161.09499	40.0
378.22293	39.0
249.16429	39.0
94.07841	39.0
144.09261	38.0
57.06885	38.0
228.07663	37.0
285.16571	37.0
189.13017	37.0
186.09842	37.0
139.05626	36.0
301.14499	36.0
193.06042	36.0
235.10088	36.0
343.1875	36.0
243.0631	36.0
212.06395	35.0
232.10707	35.0
203.05943	34.0
134.07661	34.0
253.08469	34.0
183.05008	32.0
131.07253	32.0
205.05305	31.0
55.01747	31.0
270.12723	31.0
283.13837	31.0
128.05037	30.0
121.05782	30.0
109.0901	30.0
137.09639	30.0
97.06464	30.0
143.07161	29.0
163.05377	29.0
187.03885	29.0
299.19025	29.0
202.04608	29.0
91.04725	28.0
146.07091	28.0
126.04456	27.0
201.04083	27.0
360.01559	26.0
161.03905	26.0
245.08127	26.0
206.11047	26.0
267.09988	26.0
266.17075	26.0
207.06911	26.0
216.03444	26.0
259.06366	26.0
226.03563	25.0
316.71567	25.0
176.08804	25.0
235.13992	25.0
275.14676	25.0
148.04482	24.0
302.17752	24.0
160.08472	24.0
232.12497	23.0
61.02844	22.0
247.09702	22.0
343.15121	13.0
51.99385	12.0

MSID: 8987
ID: 154
RETENTIONTIME: 26.24767
PRECURSORMZ: 315.0859
AREA: 3076978.0
PRECURSORTYPE: [M+H]+
SMILES: COC1=CC2=C(C(O)=C1)C(=O)C(OC)=C(O2)C1=CC=C(O)C=C1
NAME: kumatakenin
FORMULA: C17H14O6
INCHIKEY: BJBUTJQYZDYRMJ-UHFFFAOYSA-N
CAS: 3301-49-3
Molecular Weight: 314.295
Number of References: 120
Class: Flavonols
Superclass: Flavonoids
Pathway: Shikimates and Phenylpropanoids
ppm: -0.9650000000647196
CMID: CM243
IONMODE: Positive
COLLISIONENERGY: 40±20eV
INSTRUMENTTYPE: AB SCIEX
INSTRUMENT: Q-TOF
Comment:  
Num Peaks: 129
315.08661	8524.0
254.05807	5670.0
282.05197	4600.0
300.06357	1600.0
136.01497	1351.0
108.02079	987.0
226.0638	662.0
119.05016	452.0
169.06496	372.0
271.06027	353.0
170.07248	302.0
121.02883	281.0
299.05667	276.0
197.06015	226.0
80.02499	220.0
279.13669	210.0
270.05179	203.0
237.09052	200.0
257.04376	184.0
181.0667	162.0
52.02991	154.0
300.05341	141.0
141.06854	135.0
297.15094	116.0
209.09662	116.0
118.04139	112.0
152.01199	107.0
153.0692	101.0
165.06982	99.0
211.0769	98.0
208.05417	93.0
213.09369	87.0
239.10802	87.0
246.10214	82.0
253.04596	82.0
281.04132	79.0
134.00076	79.0
255.10039	76.0
225.05476	75.0
166.07802	73.0
251.14261	73.0
255.1348	71.0
180.0573	70.0
181.10097	69.0
193.10143	69.0
198.07196	66.0
152.06512	59.0
229.12079	59.0
261.12512	58.0
153.01831	58.0
50.01453	57.0
168.05663	56.0
139.00325	55.0
252.03896	52.0
91.05293	52.0
222.07036	51.0
273.11356	50.0
68.99662	50.0
124.01434	48.0
229.08669	48.0
285.03366	47.0
282.01743	47.0
264.11212	45.0
212.07982	42.0
249.0903	41.0
195.07986	41.0
297.13406	40.0
155.08603	39.0
297.07834	39.0
151.05594	39.0
237.05432	37.0
271.13281	37.0
211.03992	37.0
221.09067	36.0
270.02283	35.0
236.08421	35.0
139.05406	34.0
137.02313	34.0
157.06573	33.0
227.10461	32.0
178.07703	32.0
194.07437	32.0
183.08205	32.0
144.05746	32.0
213.05223	31.0
209.05696	31.0
158.07138	31.0
179.08742	31.0
211.11533	30.0
249.08258	30.0
208.08807	30.0
253.11919	30.0
221.10086	28.0
223.07416	28.0
128.06268	28.0
68.02547	26.0
299.00418	26.0
151.03789	26.0
179.03107	26.0
235.07855	26.0
187.03902	25.0
235.07254	25.0
249.10268	25.0
142.07538	25.0
181.01399	25.0
261.11404	25.0
187.07384	25.0
283.05786	25.0
284.14148	24.0
165.01573	24.0
93.02984	24.0
257.11755	24.0
207.08197	23.0
223.14731	23.0
231.08183	22.0
203.08333	22.0
279.11703	22.0
297.03784	22.0
236.11281	22.0
254.09555	22.0
243.06941	21.0
269.11429	20.0
223.10927	20.0
51.02389	20.0
185.05791	20.0
106.00364	19.0
125.02306	13.0
66.00907	12.0
53.04076	12.0

MSID: 8988
ID: 554
RETENTIONTIME: 37.2803
PRECURSORMZ: 429.3715
AREA: 3068892.0
PRECURSORTYPE: [M+H]+
SMILES: [H][C@@](C)(CCC([H])(CC)C(C)C)[C@@]1([H])CC[C@@]2([H])[C@]3([H])C(=O)C=C4C[C@@H](O)CC[C@]4(C)[C@@]3([H])CC[C@]12C
NAME: 3β-hydroxystigmast-5-en-7-one
FORMULA: C29H48O2
INCHIKEY: ICFXJOAKQGDRCT-ZIHMWMKCSA-N
CAS: nan
Molecular Weight: 428.699
Number of References: 130
Class: Stigmastane steroids
Superclass: Steroids
Pathway: Terpenoids
ppm: -1.7550000000028376
CMID: CM243
IONMODE: Positive
COLLISIONENERGY: 40±20eV
INSTRUMENTTYPE: AB SCIEX
INSTRUMENT: Q-TOF
Comment:  
Num Peaks: 125
165.09085	4488.0
429.37402	4442.0
163.11232	851.0
191.1069	549.0
149.09512	534.0
205.12289	415.0
177.08994	408.0
57.07024	405.0
175.11183	292.0
219.14017	256.0
137.0985	244.0
71.08571	243.0
81.06991	196.0
411.36301	179.0
233.15388	169.0
177.12642	144.0
135.07965	142.0
187.11092	141.0
173.09715	131.0
159.11693	127.0
203.1066	124.0
85.10116	124.0
95.08506	119.0
189.1272	118.0
247.16748	118.0
55.05371	114.0
201.12943	113.0
289.21503	106.0
401.3418	104.0
303.23355	104.0
173.13066	102.0
176.08389	99.0
145.10051	96.0
119.08622	91.0
69.06807	90.0
91.05366	88.0
109.10222	87.0
139.07454	87.0
133.10065	86.0
67.05382	86.0
275.19836	85.0
107.08711	80.0
179.10667	79.0
203.14288	79.0
261.18784	79.0
131.08691	79.0
190.09821	76.0
121.09859	74.0
157.09975	73.0
135.11836	72.0
83.08492	71.0
373.31284	68.0
317.25403	66.0
162.06581	65.0
172.08713	64.0
345.2785	64.0
93.06837	63.0
193.12276	60.0
215.14255	60.0
151.07365	59.0
160.09068	58.0
187.14575	54.0
105.07272	52.0
204.1142	50.0
159.0811	50.0
147.11539	49.0
229.15584	48.0
161.05995	48.0
149.131	47.0
175.07555	47.0
161.09724	46.0
331.26505	46.0
186.10216	46.0
142.07622	46.0
359.29254	44.0
383.36917	43.0
191.09335	43.0
285.21823	42.0
414.354	42.0
129.06961	40.0
219.12567	39.0
189.09084	39.0
145.09814	39.0
158.10426	38.0
143.08311	37.0
218.12791	36.0
257.1908	36.0
111.11752	36.0
97.10213	36.0
123.11589	36.0
137.13174	36.0
171.11848	35.0
85.09664	31.0
79.05438	30.0
217.15842	28.0
393.34933	28.0
177.1147	28.0
243.17728	28.0
109.06437	28.0
387.31808	27.0
174.10109	27.0
151.14468	27.0
429.30298	27.0
271.20316	27.0
411.32129	26.0
191.14075	26.0
177.07559	26.0
163.08481	26.0
247.15979	26.0
121.06088	25.0
199.1481	24.0
99.116	23.0
153.08945	23.0
275.18213	22.0
289.20004	22.0
201.11415	21.0
221.15715	21.0
231.17511	20.0
183.11211	17.0
183.12404	13.0
127.05359	13.0
369.34579	13.0
69.08273	12.0
78.04575	12.0
65.03777	12.0

MSID: 8989
ID: 283
RETENTIONTIME: 30.46138
PRECURSORMZ: 377.1945
AREA: 2993552.5
PRECURSORTYPE: [M+H]+
SMILES: COC(=O)CC[C@@]1(C)[C@@H](CC(=O)C2=C1C(O)=C(O)C(C(C)C)=C2O)C(C)=C
NAME: candesalvone B methyl ester
FORMULA: C21H28O6
INCHIKEY: DGXNORYLNOBGEV-QKVFXAPYSA-N
CAS: nan
Molecular Weight: 376.45
Number of References: 2
Class: Abeoabietane diterpenoids
Superclass: Diterpenoids
Pathway: Terpenoids
ppm: -1.9149999999967804
CMID: CM243
IONMODE: Positive
COLLISIONENERGY: 40±20eV
INSTRUMENTTYPE: AB SCIEX
INSTRUMENT: Q-TOF
Comment:  
Num Peaks: 221
317.1759	6368.0
217.0865	3693.0
299.16306	2501.0
271.168	2185.0
229.12201	1865.0
211.11081	1148.0
215.10689	1117.0
281.15265	696.0
253.15941	636.0
241.12163	629.0
173.0587	626.0
183.11761	528.0
239.10623	511.0
202.06134	485.0
165.09103	476.0
228.11502	432.0
257.11884	415.0
205.08806	406.0
243.10274	391.0
195.08102	371.0
203.10823	351.0
189.09105	341.0
231.10092	329.0
193.1012	303.0
171.08153	300.0
289.17874	286.0
213.09344	286.0
161.0589	286.0
221.0977	284.0
181.0665	274.0
187.07497	271.0
231.13963	263.0
193.08623	262.0
197.0943	251.0
145.06528	241.0
227.10583	238.0
155.08464	238.0
199.07509	236.0
196.08774	223.0
153.06903	220.0
238.1017	216.0
69.06978	209.0
201.09215	201.0
209.09497	198.0
167.08401	194.0
95.08421	193.0
259.13138	192.0
141.07071	190.0
169.1017	189.0
168.09453	187.0
205.12173	182.0
128.06032	171.0
225.16472	168.0
219.10419	163.0
185.09633	163.0
107.08419	162.0
123.04214	162.0
131.05118	147.0
157.06433	146.0
143.08446	146.0
181.09944	145.0
223.07538	143.0
147.04547	139.0
143.04697	138.0
152.06255	135.0
174.06641	134.0
200.08372	133.0
149.06062	132.0
169.06477	130.0
178.07812	130.0
229.1057	125.0
210.10452	123.0
213.12776	122.0
177.05624	121.0
129.06863	120.0
241.08665	120.0
179.10556	116.0
165.06964	116.0
142.07755	114.0
154.07761	113.0
247.12927	113.0
182.07343	113.0
177.09013	112.0
163.07248	112.0
263.1434	111.0
201.05327	105.0
59.05084	105.0
159.08005	104.0
198.0676	102.0
163.03996	102.0
175.07315	102.0
245.11493	99.0
256.10846	98.0
183.08051	96.0
243.17604	95.0
199.11377	94.0
243.13939	94.0
185.05902	92.0
166.07784	91.0
207.09865	91.0
191.06921	89.0
135.04453	88.0
91.0547	88.0
160.05121	87.0
197.05855	87.0
217.12114	87.0
247.0954	87.0
67.05389	87.0
235.14436	86.0
218.09346	85.0
223.11047	85.0
266.12912	83.0
219.13608	83.0
271.13736	82.0
188.08099	82.0
144.05612	82.0
225.12798	82.0
119.08635	79.0
251.10507	78.0
191.10576	78.0
216.11356	75.0
137.05966	74.0
256.14294	73.0
233.11676	71.0
257.15497	70.0
85.06422	70.0
215.07098	69.0
213.05627	68.0
127.05373	68.0
93.06941	68.0
55.05378	67.0
205.10069	66.0
248.1218	65.0
238.13495	64.0
173.09477	64.0
172.08733	64.0
81.07176	63.0
230.13269	61.0
187.11113	61.0
284.14444	61.0
157.10483	60.0
179.08459	60.0
171.1174	60.0
228.07805	59.0
198.10344	59.0
165.05455	59.0
229.08199	58.0
117.06857	58.0
275.1272	57.0
184.05582	57.0
201.12688	55.0
203.06915	54.0
147.07755	53.0
205.07684	52.0
133.06578	52.0
216.07756	51.0
224.08144	50.0
269.15256	50.0
255.09853	49.0
255.13763	49.0
179.06886	49.0
205.05301	49.0
81.03561	49.0
103.0537	48.0
190.06197	47.0
131.08482	47.0
55.01818	47.0
109.1003	47.0
227.07336	46.0
242.09441	46.0
230.11931	45.0
105.06982	45.0
186.0663	45.0
226.10036	45.0
251.14388	44.0
237.12492	44.0
317.14972	43.0
269.1188	42.0
259.16922	42.0
210.14001	42.0
57.0348	42.0
115.05544	41.0
159.11835	41.0
235.1008	41.0
207.06482	40.0
139.05623	40.0
79.05447	39.0
194.07416	38.0
233.10629	38.0
211.06955	38.0
214.06244	38.0
243.07524	38.0
150.06554	38.0
287.15872	37.0
208.09067	36.0
249.1163	36.0
259.15659	36.0
209.13461	35.0
212.11667	35.0
149.0941	35.0
239.08655	34.0
107.05177	34.0
281.12967	34.0
237.09175	33.0
71.05112	33.0
173.13086	32.0
212.08386	31.0
137.02296	31.0
206.11041	31.0
210.06194	30.0
177.07188	30.0
111.04643	30.0
257.09686	30.0
182.10912	30.0
145.0995	30.0
218.0761	27.0
200.05186	26.0
184.09036	25.0
243.12717	25.0
83.0859	12.0
56.24759	12.0

MSID: 8990
ID: 494
RETENTIONTIME: 35.94277
PRECURSORMZ: 411.3624
AREA: 2963275.25
PRECURSORTYPE: [M+H]+
SMILES: [H][C@@](C)(\C=C\[C@@H](CC)C(C)C)[C@@]1([H])CC[C@@]2([H])[C@]3([H])CC=C4CC(=O)CC[C@]4(C)[C@@]3([H])CC[C@]12C
NAME: stigmasterone
FORMULA: C29H46O
INCHIKEY: XWDAKKDQJHVMKG-LPJPOILFSA-N
CAS: 51529-12-5
Molecular Weight: 410.684
Number of References: 20
Class: Stigmastane steroids
Superclass: Steroids
Pathway: Terpenoids
ppm: -0.29000000006362825
CMID: CM243
IONMODE: Positive
COLLISIONENERGY: 40±20eV
INSTRUMENTTYPE: AB SCIEX
INSTRUMENT: Q-TOF
Comment:  
Num Peaks: 148
411.36298	4609.0
163.14859	2274.0
95.08505	1736.0
203.17917	1356.0
107.08508	1210.0
189.1649	1122.0
175.1481	944.0
149.13219	939.0
121.10075	933.0
135.11607	850.0
177.16292	743.0
133.10178	712.0
81.0699	711.0
161.13203	687.0
109.10221	648.0
93.07024	646.0
147.11775	632.0
119.08514	618.0
187.14708	600.0
393.35123	595.0
231.21233	554.0
191.18001	552.0
297.2583	467.0
105.06969	451.0
67.05381	393.0
145.10168	362.0
315.26846	357.0
79.0535	346.0
159.11815	333.0
123.11697	320.0
69.07051	308.0
91.05459	303.0
207.17169	297.0
201.16414	294.0
173.13322	292.0
233.19125	248.0
55.05371	244.0
215.17989	229.0
179.14336	227.0
217.19592	223.0
83.0858	165.0
229.19734	164.0
205.19583	161.0
243.20934	154.0
247.20442	147.0
137.13403	135.0
341.28455	126.0
131.08466	116.0
199.14809	108.0
171.11719	104.0
143.08662	96.0
205.15935	94.0
255.20929	92.0
213.16325	88.0
221.19064	86.0
269.22293	83.0
241.19891	81.0
257.2269	80.0
123.11153	80.0
57.06876	79.0
193.15813	77.0
77.03844	75.0
219.17206	73.0
393.32599	71.0
233.22714	69.0
227.17789	69.0
177.12642	68.0
165.16132	68.0
203.16241	64.0
151.10976	64.0
185.13208	64.0
245.22966	64.0
147.10469	62.0
137.09389	59.0
139.1115	59.0
97.09924	58.0
165.12859	57.0
157.10219	56.0
111.07932	55.0
271.24347	52.0
189.15009	52.0
273.21976	52.0
323.27451	48.0
163.11356	48.0
411.33517	47.0
351.31015	47.0
181.15854	46.0
285.25626	46.0
121.0932	45.0
125.09505	44.0
135.08078	44.0
191.14073	43.0
247.24754	43.0
339.30081	43.0
151.1507	42.0
144.09239	42.0
287.23804	41.0
283.24176	41.0
177.14336	40.0
173.11905	40.0
169.1015	38.0
235.20715	37.0
163.12732	37.0
215.17271	36.0
369.31378	36.0
129.07182	35.0
301.24991	35.0
99.0809	35.0
175.11182	34.0
107.07494	33.0
97.06449	32.0
259.23984	31.0
337.27969	31.0
111.11546	31.0
117.06631	31.0
123.07459	31.0
128.06017	29.0
158.10672	28.0
341.25742	28.0
299.27789	28.0
146.10857	28.0
245.18211	27.0
179.18269	27.0
85.06502	27.0
329.2858	26.0
172.12694	26.0
221.18045	25.0
297.22284	25.0
261.22421	25.0
303.26422	25.0
71.04855	24.0
55.04645	24.0
153.12216	24.0
253.19495	23.0
160.12041	23.0
393.29492	23.0
179.13156	22.0
325.27975	21.0
228.18724	21.0
174.14114	21.0
167.13953	21.0
309.25443	19.0
309.27167	13.0
113.09502	13.0
111.0721	13.0
103.05059	13.0
74.14343	12.0
62.01392	12.0

MSID: 8991
ID: 146
RETENTIONTIME: 26.21045
PRECURSORMZ: 273.1844
AREA: 2950020.25
PRECURSORTYPE: [M+H]+
SMILES: [H][C@@]12CC(=O)C3=C(C=C(O)C(C)=C3)[C@@]1(C)CCCC2(C)C
NAME: nimbiol
FORMULA: C18H24O2
INCHIKEY: XVAVQANUJQBBFF-FUHWJXTLSA-N
CAS: 561-95-5
Molecular Weight: 272.387
Number of References: 41
Class: Podocarpane diterpenoids
Superclass: Diterpenoids
Pathway: Terpenoids
ppm: -1.0550000000648652
CMID: CM243
IONMODE: Positive
COLLISIONENERGY: 40±20eV
INSTRUMENTTYPE: AB SCIEX
INSTRUMENT: Q-TOF
Comment:  
Num Peaks: 82
273.18475	2600.0
217.1228	1082.0
231.13838	538.0
203.10703	471.0
175.07721	411.0
157.06448	311.0
165.08994	284.0
191.1073	256.0
213.12654	245.0
128.06155	232.0
129.06989	193.0
143.08577	187.0
69.06904	167.0
199.11121	161.0
188.08386	157.0
161.05782	156.0
205.12334	151.0
141.06969	145.0
171.08041	144.0
179.10706	141.0
157.1013	138.0
189.09125	133.0
149.06197	124.0
202.10191	123.0
185.09785	123.0
145.06543	120.0
215.10567	117.0
163.07515	114.0
173.06145	107.0
143.05063	102.0
187.07248	101.0
131.04907	99.0
142.0777	94.0
159.08267	92.0
115.05344	89.0
127.05496	77.0
229.1252	76.0
91.05386	75.0
137.05865	71.0
183.08069	70.0
156.09387	66.0
197.09587	66.0
155.08479	63.0
169.06366	63.0
153.06918	62.0
103.05479	60.0
201.08957	59.0
255.17543	59.0
174.06529	56.0
55.05456	54.0
144.05626	52.0
83.0842	50.0
185.13249	50.0
184.08922	48.0
171.11757	48.0
123.04335	47.0
230.12994	47.0
193.12181	46.0
133.06479	46.0
77.03947	45.0
167.08672	43.0
160.05261	43.0
152.0627	41.0
147.04324	40.0
170.07501	39.0
211.10818	38.0
170.11206	37.0
169.1006	37.0
227.14444	35.0
128.05711	33.0
218.12984	30.0
105.06992	30.0
217.09393	29.0
179.09395	29.0
79.05281	27.0
107.08328	25.0
119.08434	24.0
203.08191	24.0
161.03917	24.0
172.08878	24.0
77.03345	22.0
81.07185	13.0

MSID: 8992
ID: 466
RETENTIONTIME: 34.6898
PRECURSORMZ: 283.1688
AREA: 2924749.0
PRECURSORTYPE: [M+H]+
SMILES: CC(C)C1=CC2=C(C(=O)C1=O)C1=C(C=C2)C(C)(C)CCC1
NAME: miltirone
FORMULA: C19H22O2
INCHIKEY: FEFAIBOZOKSLJR-UHFFFAOYSA-N
CAS: 27210-57-7
Molecular Weight: 282.382
Number of References: 70
Class: Abietane diterpenoids
Superclass: Diterpenoids
Pathway: Terpenoids
ppm: -1.0050000000774162
CMID: CM243
IONMODE: Positive
COLLISIONENERGY: 40±20eV
INSTRUMENTTYPE: AB SCIEX
INSTRUMENT: Q-TOF
Comment:  
Num Peaks: 146
283.16928	11383.0
223.11021	8572.0
225.09097	4352.0
240.11412	4207.0
179.08569	4014.0
165.07071	3640.0
265.15826	3619.0
195.11636	2422.0
241.12288	2359.0
178.07793	2135.0
208.08902	2024.0
180.09238	1968.0
207.0815	1889.0
153.07005	1404.0
181.06497	1272.0
254.12932	1044.0
237.16386	985.0
268.14575	971.0
152.06116	942.0
193.10234	898.0
211.07642	870.0
235.11105	749.0
205.10185	724.0
207.11673	711.0
192.09247	690.0
221.09598	681.0
239.10747	652.0
222.10196	645.0
253.12483	625.0
190.0766	586.0
189.07063	563.0
167.08636	547.0
166.07764	478.0
191.08659	421.0
250.13574	392.0
237.12767	382.0
202.07782	346.0
195.08215	344.0
222.14284	343.0
209.09755	317.0
198.06599	314.0
203.08426	309.0
197.06108	304.0
194.10805	298.0
217.10213	289.0
177.06908	268.0
183.08295	262.0
220.08649	262.0
194.07257	256.0
197.09682	255.0
199.07486	253.0
236.11829	250.0
141.07172	238.0
169.06584	236.0
212.08362	229.0
195.09995	217.0
182.07454	210.0
213.12608	207.0
206.0708	201.0
171.08005	200.0
151.05559	181.0
208.12575	168.0
154.07864	164.0
169.10278	156.0
209.13297	154.0
205.06538	154.0
226.10158	153.0
249.12993	148.0
155.08446	144.0
247.149	141.0
193.06288	141.0
164.06183	141.0
224.11783	136.0
204.0946	131.0
211.10915	128.0
205.09485	126.0
176.0618	112.0
210.06879	109.0
128.06238	108.0
208.1201	102.0
181.09792	101.0
241.1031	97.0
163.05354	91.0
215.10521	90.0
219.08073	89.0
210.10712	87.0
224.08264	82.0
150.04616	81.0
206.11017	79.0
143.08429	71.0
221.1324	71.0
196.08751	67.0
255.14203	66.0
232.12166	65.0
157.06415	62.0
183.11607	61.0
180.07397	60.0
215.08366	60.0
129.07182	60.0
170.0721	59.0
238.09991	58.0
207.06599	57.0
234.10297	51.0
231.11853	51.0
180.06084	50.0
55.01666	49.0
55.05299	49.0
185.09479	44.0
240.08528	44.0
217.08914	44.0
192.05989	44.0
181.04915	44.0
227.11	43.0
142.07506	42.0
283.14783	41.0
144.05595	37.0
199.11078	37.0
184.08882	36.0
225.12918	36.0
224.06946	36.0
223.07512	36.0
173.05978	35.0
197.0762	35.0
179.05424	34.0
153.05188	33.0
184.05295	33.0
139.0526	33.0
79.05438	32.0
268.10727	32.0
168.05878	32.0
222.08153	31.0
167.0737	31.0
239.09384	31.0
156.09476	30.0
265.11682	30.0
210.10002	30.0
187.11494	28.0
168.09433	27.0
254.09808	27.0
145.06276	26.0
171.04674	26.0
69.07133	26.0
252.10835	25.0
175.10794	24.0
212.11642	21.0
71.08571	12.0

MSID: 8993
ID: 230
RETENTIONTIME: 28.91302
PRECURSORMZ: 313.1796
AREA: 2816657.75
PRECURSORTYPE: [M+H]+
SMILES: CC(C)C1=C(O)C(=O)C2=C(C=C[C@@]3(C)C2=CCCC3(C)C)C1=O
NAME: salviskinone A
FORMULA: C20H24O3
INCHIKEY: ILUSAGMQCJWVIM-FQEVSTJZSA-N
CAS: 1289423-07-9
Molecular Weight: 312.409
Number of References: 36
Class: Abeoabietane diterpenoids
Superclass: Diterpenoids
Pathway: Terpenoids
ppm: -0.7700000000454565
CMID: CM243
IONMODE: Positive
COLLISIONENERGY: 40±20eV
INSTRUMENTTYPE: AB SCIEX
INSTRUMENT: Q-TOF
Comment:  
Num Peaks: 134
215.10674	7623.0
200.08359	1714.0
229.12332	1615.0
141.06944	724.0
169.06465	472.0
182.0733	470.0
159.07993	448.0
181.06374	368.0
153.07133	364.0
313.18182	332.0
154.07872	328.0
152.06122	219.0
183.0817	213.0
172.08849	191.0
157.06667	184.0
165.07079	184.0
171.08141	181.0
187.07617	174.0
129.06966	173.0
173.05986	159.0
185.09753	158.0
155.08574	157.0
168.09312	147.0
213.09044	146.0
199.07632	143.0
143.08435	140.0
145.06519	133.0
128.06244	127.0
131.0836	126.0
144.05836	118.0
211.11067	113.0
127.05585	112.0
191.10698	109.0
295.16663	106.0
178.07669	105.0
195.08087	103.0
111.08144	103.0
115.05325	100.0
55.05447	99.0
143.04921	99.0
167.08769	91.0
170.07217	88.0
185.06155	87.0
158.07231	84.0
197.09554	80.0
186.06616	79.0
271.13556	79.0
196.0876	76.0
183.1188	76.0
149.05812	73.0
151.05325	73.0
169.10031	73.0
142.07628	72.0
187.11101	72.0
203.10948	71.0
201.0934	69.0
243.13921	69.0
131.04884	66.0
83.04924	63.0
179.08708	63.0
139.05266	62.0
214.09955	61.0
313.16794	58.0
207.11542	57.0
253.1234	57.0
157.10104	56.0
199.11224	55.0
313.1489	54.0
197.06116	54.0
193.0997	53.0
285.15054	53.0
192.0939	53.0
277.15811	51.0
155.04915	50.0
173.09723	49.0
237.13078	48.0
255.13589	48.0
186.1049	48.0
119.08413	47.0
69.06892	47.0
103.05263	46.0
257.12024	46.0
237.09309	43.0
91.05556	42.0
191.08937	42.0
166.07645	41.0
252.11469	41.0
161.06003	41.0
201.12672	41.0
203.08435	39.0
229.08774	38.0
173.05214	37.0
223.11325	37.0
198.07297	36.0
267.17166	36.0
171.04425	35.0
147.043	35.0
67.04984	35.0
239.10455	34.0
225.09401	34.0
271.12427	34.0
183.04327	33.0
81.07171	31.0
201.0573	31.0
170.06578	30.0
189.09091	29.0
93.06935	29.0
174.07016	29.0
235.11115	29.0
265.1217	28.0
144.09129	27.0
167.04973	27.0
153.05559	26.0
212.078	25.0
267.16846	25.0
130.07748	25.0
117.07379	25.0
200.04895	25.0
271.17264	25.0
285.14062	25.0
154.05562	24.0
241.1245	24.0
97.06358	24.0
123.04314	24.0
141.05316	24.0
77.03761	23.0
209.09764	23.0
205.10054	23.0
251.10645	22.0
223.07961	21.0
181.10194	21.0
115.04485	13.0
89.03701	12.0
59.05155	12.0

MSID: 8994
ID: 143
RETENTIONTIME: 25.74933
PRECURSORMZ: 331.1902
AREA: 2773860.0
PRECURSORTYPE: [M+H]+
SMILES: [H][C@@]12CC(=O)C3=C(C(=O)C(O)=C(C(C)C)C3=O)[C@@]1(C)CCCC2(C)C
NAME: 7-oxoroyleanon
FORMULA: C20H26O4
INCHIKEY: OUFALIMUAGMGPU-YUNKPMOVSA-N
CAS: 57685-32-2
Molecular Weight: 330.424
Number of References: 16
Class: nan
Superclass: nan
Pathway: nan
ppm: -0.7350000000201362
CMID: CM243
IONMODE: Positive
COLLISIONENERGY: 40±20eV
INSTRUMENTTYPE: AB SCIEX
INSTRUMENT: Q-TOF
Comment:  
Num Peaks: 223
283.17142	4721.0
223.11208	2209.0
331.189	1747.0
265.16034	1357.0
199.11252	1211.0
241.12178	776.0
227.10599	771.0
313.18051	737.0
215.10703	731.0
195.1167	712.0
240.11455	684.0
165.06975	618.0
225.09285	606.0
231.09958	596.0
157.06442	538.0
181.06529	522.0
243.13953	464.0
153.07033	440.0
203.10695	430.0
208.08797	426.0
179.08601	379.0
285.18399	374.0
180.0927	364.0
141.06964	363.0
185.06047	350.0
187.07642	349.0
229.12363	333.0
235.11147	325.0
257.11743	315.0
225.12665	314.0
253.12218	313.0
129.06873	304.0
173.06009	298.0
267.17361	288.0
197.09579	285.0
207.08046	278.0
169.06615	259.0
209.09509	253.0
183.08063	250.0
195.0825	244.0
207.1171	238.0
185.09645	227.0
213.08929	225.0
295.1687	222.0
237.1658	218.0
81.07005	217.0
254.1282	215.0
167.08665	208.0
181.10088	205.0
211.0768	197.0
268.14301	197.0
143.04941	196.0
152.06264	196.0
245.11815	193.0
205.10081	193.0
166.07668	192.0
128.06261	190.0
239.10638	188.0
155.08595	187.0
250.13774	183.0
271.13107	182.0
178.07693	177.0
184.05061	173.0
205.08539	170.0
193.09996	169.0
143.08571	165.0
161.05899	164.0
219.09998	157.0
165.08987	154.0
192.0928	148.0
222.10382	148.0
201.0909	143.0
199.07521	141.0
200.08524	140.0
169.10052	139.0
255.13779	139.0
197.05867	133.0
188.08244	131.0
221.09637	127.0
203.06787	125.0
247.13405	122.0
145.06537	120.0
182.07091	120.0
211.1138	119.0
191.10858	118.0
190.07693	116.0
193.06458	116.0
212.08257	116.0
198.06635	114.0
156.09137	114.0
159.0789	113.0
171.08292	112.0
236.1187	109.0
194.07428	109.0
217.12128	108.0
171.11623	108.0
277.15851	102.0
215.07111	102.0
147.04439	101.0
149.05951	99.0
187.11259	96.0
127.05382	95.0
217.09962	94.0
210.10181	91.0
95.08618	91.0
220.08687	90.0
184.09048	90.0
269.15112	90.0
191.08693	90.0
242.12808	88.0
222.13885	88.0
208.12329	84.0
154.07771	83.0
175.07455	82.0
189.05615	81.0
131.0479	79.0
199.08902	79.0
196.08923	78.0
219.07967	77.0
226.09756	77.0
157.10002	77.0
252.11192	76.0
189.08849	76.0
189.06828	76.0
257.15356	72.0
197.13292	72.0
115.05445	72.0
227.09712	70.0
177.07199	70.0
57.07035	70.0
243.09982	69.0
229.08508	68.0
237.09039	68.0
91.05476	65.0
247.14944	64.0
67.05393	64.0
177.09155	63.0
55.05309	61.0
205.12186	60.0
224.11823	60.0
214.0984	59.0
257.10959	59.0
207.10159	56.0
206.10913	55.0
163.07509	54.0
183.11641	54.0
275.12088	52.0
224.0845	51.0
228.07967	51.0
123.0444	50.0
231.13979	50.0
174.06522	50.0
177.05376	48.0
168.05653	47.0
69.07064	47.0
202.07817	47.0
151.05345	47.0
79.05365	46.0
144.05504	45.0
195.09482	45.0
186.07042	44.0
209.13617	44.0
210.06491	44.0
160.05008	43.0
228.11369	43.0
213.1279	43.0
139.05515	43.0
285.11618	42.0
245.15036	42.0
216.11658	42.0
204.09357	42.0
202.10045	42.0
168.09082	41.0
176.06082	40.0
231.08171	40.0
265.13641	39.0
170.07623	39.0
107.08932	39.0
182.11188	38.0
129.06093	38.0
247.10941	37.0
77.03771	37.0
262.13568	37.0
181.08505	36.0
313.14755	36.0
234.10188	36.0
103.05376	36.0
301.18588	35.0
285.16745	35.0
239.13969	35.0
169.05595	34.0
267.13998	34.0
155.07863	34.0
219.11592	34.0
179.06505	34.0
179.10306	34.0
133.0636	34.0
270.16595	33.0
239.18059	32.0
223.07112	32.0
117.07077	32.0
105.07089	31.0
249.12419	31.0
211.05972	31.0
271.16333	30.0
248.11887	30.0
155.04936	30.0
251.14249	30.0
71.04951	30.0
123.08025	29.0
273.1442	28.0
119.08536	28.0
69.03564	28.0
280.14868	27.0
266.12927	27.0
201.06172	27.0
165.05212	27.0
227.07794	26.0
253.10347	26.0
238.09581	26.0
298.15448	26.0
303.19485	24.0
115.03555	13.0

MSID: 8995
ID: 289
RETENTIONTIME: 30.61857
PRECURSORMZ: 415.2111
AREA: 2768507.25
PRECURSORTYPE: [M+H]+
SMILES: [H][C@@]12C3OC(=O)[C@@]1(CCCC2(C)C)C1=C(/C=C(C)\C(=O)C(=O)/C(C(C)C)=C\1/O)[C@@H]3OC
NAME: 13,14-dioxo-11-hydroxy-7-methoxy-hassane-8,11-15-trien-(22,6)-olide
FORMULA: C24H30O6
INCHIKEY: NOWLWGTULOTUNP-RYIOOJIHSA-N
CAS: nan
Molecular Weight: 414.499
Number of References: 1
Class: Abietane diterpenoids
Superclass: Diterpenoids
Pathway: Terpenoids
ppm: -0.9650000000647196
CMID: CM243
IONMODE: Positive
COLLISIONENERGY: 40±20eV
INSTRUMENTTYPE: AB SCIEX
INSTRUMENT: Q-TOF
Comment:  
Num Peaks: 45
119.08519	22241.0
91.05463	1153.0
415.21185	635.0
133.06567	406.0
135.08084	348.0
107.08411	314.0
117.0706	285.0
79.05528	149.0
103.05461	143.0
77.03932	135.0
105.06974	121.0
104.06323	112.0
69.0331	106.0
65.03858	85.0
93.07217	60.0
115.05219	58.0
81.03291	52.0
129.05408	48.0
85.02983	47.0
151.0737	46.0
83.04923	43.0
397.19315	42.0
281.13928	42.0
107.08006	39.0
99.04585	36.0
61.02684	36.0
127.04039	36.0
295.11612	34.0
78.04405	32.0
57.03254	30.0
147.05962	30.0
111.04015	28.0
157.06297	24.0
91.04434	24.0
133.04646	21.0
87.04381	19.0
51.02099	14.0
415.13998	13.0
63.02297	12.0
97.03366	12.0
107.17129	12.0
66.61188	12.0
241.08342	12.0
273.1098	12.0
55.05737	12.0

MSID: 8996
ID: 147
RETENTIONTIME: 26.21045
PRECURSORMZ: 283.1695
AREA: 2727305.75
PRECURSORTYPE: [M+H]+
SMILES: CC(C)C1=CC(=O)C2=C(C=CC3=C2CCCC3(C)C)C1=O
NAME: sibiriquinone B
FORMULA: C19H22O2
INCHIKEY: MRPWFJPXXDIFAE-UHFFFAOYSA-N
CAS: nan
Molecular Weight: 282.382
Number of References: 3
Class: Abietane diterpenoids
Superclass: Diterpenoids
Pathway: Terpenoids
ppm: -0.3050000000257569
CMID: CM243
IONMODE: Positive
COLLISIONENERGY: 40±20eV
INSTRUMENTTYPE: AB SCIEX
INSTRUMENT: Q-TOF
Comment:  
Num Peaks: 166
241.12285	6466.0
283.16934	4142.0
223.11308	2984.0
181.06482	2133.0
165.07053	1645.0
199.07474	1534.0
195.1176	1063.0
213.09311	909.0
180.09354	867.0
240.1156	831.0
179.08554	734.0
197.05959	718.0
208.08891	647.0
225.09386	641.0
178.08037	554.0
239.10744	538.0
153.06985	532.0
152.06216	515.0
167.08492	480.0
198.06863	477.0
207.08139	458.0
195.08203	427.0
193.1022	417.0
169.06567	405.0
265.15829	396.0
141.07149	372.0
183.08015	361.0
195.09982	344.0
197.09532	279.0
227.10699	272.0
213.10312	272.0
166.07872	265.0
205.10175	262.0
195.10666	258.0
211.07632	253.0
200.08476	251.0
221.09592	235.0
185.09464	219.0
213.11598	208.0
184.09	190.0
173.05962	189.0
182.07439	188.0
194.07108	183.0
128.06436	165.0
143.08641	156.0
189.0732	153.0
170.07576	149.0
190.07916	146.0
157.06641	141.0
197.07883	140.0
192.09369	139.0
171.08116	136.0
151.05539	135.0
191.08646	134.0
215.10799	123.0
255.13577	116.0
212.08353	114.0
189.0907	114.0
155.08548	110.0
224.08405	97.0
177.06892	95.0
129.07159	93.0
55.05561	93.0
198.10172	92.0
79.05584	92.0
203.08554	91.0
226.09709	90.0
202.07631	90.0
131.0878	89.0
237.16684	87.0
191.10677	86.0
209.09604	80.0
222.10335	80.0
142.08067	80.0
185.05733	80.0
222.13985	78.0
127.05556	77.0
105.07044	76.0
225.11443	75.0
185.09198	74.0
168.05733	73.0
225.12617	73.0
199.11896	73.0
235.114	71.0
91.05431	70.0
131.0508	70.0
210.0687	69.0
207.1124	69.0
115.05609	66.0
268.14578	65.0
208.06772	65.0
199.09546	64.0
211.06494	64.0
81.0705	62.0
154.07845	60.0
207.09972	59.0
220.08786	59.0
177.09108	58.0
77.03815	57.0
254.13243	57.0
206.07492	56.0
155.06963	56.0
157.10446	55.0
253.11705	55.0
139.05469	54.0
198.04933	54.0
255.17175	54.0
185.07732	53.0
184.05147	50.0
190.06836	50.0
145.06255	48.0
103.0553	48.0
223.09259	48.0
117.07137	48.0
215.08214	46.0
237.15176	44.0
209.13145	44.0
149.05785	44.0
283.07541	44.0
67.05353	44.0
212.06926	44.0
196.08876	44.0
69.07104	43.0
213.07881	42.0
95.08479	42.0
221.0799	42.0
176.06294	42.0
250.13728	42.0
201.09181	40.0
237.12311	36.0
121.02723	36.0
239.09229	35.0
116.0626	35.0
159.0809	35.0
135.04414	35.0
93.06903	34.0
55.0171	33.0
210.10419	33.0
236.12276	32.0
185.13461	32.0
237.13216	32.0
182.06911	32.0
166.06737	32.0
217.10205	31.0
187.10542	30.0
123.04501	30.0
211.11333	29.0
194.06152	29.0
187.75304	29.0
193.06683	29.0
121.06709	29.0
147.04628	28.0
150.04836	28.0
203.10509	27.0
97.10283	27.0
179.05933	27.0
167.04947	26.0
83.08641	26.0
222.13109	26.0
180.08038	25.0
242.12915	24.0
97.06519	24.0
119.08169	24.0
143.06767	23.0
174.07249	22.0
181.1004	22.0

MSID: 8997
ID: 301
RETENTIONTIME: 30.79645
PRECURSORMZ: 297.1484
AREA: 2716258.25
PRECURSORTYPE: [M+H]+
SMILES: C[C@H]1COC2=C1C(=O)C(=O)C1=C2C=CC2=C1CCCC2(C)C
NAME: Cryptotanshinone
FORMULA: C19H20O3
INCHIKEY: GVKKJJOMQCNPGB-JTQLQIEISA-N
CAS: 35825-57-1
Molecular Weight: 296.366
Number of References: 1937
Class: Abietane diterpenoids
Superclass: Naphthalenes
Pathway: Polyketides
ppm: -0.6700000000705586
CMID: CM243
IONMODE: Positive
COLLISIONENERGY: 40±20eV
INSTRUMENTTYPE: AB SCIEX
INSTRUMENT: Q-TOF
Comment:  
Num Peaks: 137
297.14709	5629.0
237.09163	824.0
239.10611	731.0
269.15402	636.0
282.1239	608.0
221.09613	495.0
249.0899	468.0
209.09628	460.0
254.12949	423.0
193.10246	382.0
254.09514	374.0
165.06956	365.0
279.1395	315.0
227.10869	307.0
178.07803	282.0
255.1031	270.0
197.09695	268.0
211.11214	266.0
267.10129	249.0
211.07657	248.0
225.08966	238.0
251.1422	226.0
166.07649	218.0
212.08517	218.0
181.06509	206.0
264.1149	186.0
236.08232	175.0
183.08041	172.0
239.06976	166.0
226.09731	159.0
236.11693	155.0
153.06895	147.0
224.08572	146.0
195.08092	144.0
179.0845	139.0
196.08902	138.0
223.07672	129.0
199.11507	129.0
226.13707	128.0
203.0844	125.0
207.08163	123.0
155.08578	122.0
223.11476	117.0
231.07848	116.0
181.10068	112.0
206.07376	112.0
222.06708	111.0
208.08774	109.0
141.07065	106.0
246.10483	105.0
152.06126	105.0
219.08089	102.0
234.06416	100.0
261.12787	97.0
169.06468	96.0
202.07655	95.0
227.13968	94.0
240.11731	93.0
169.10289	90.0
238.09857	90.0
221.05827	88.0
171.08015	86.0
241.16106	86.0
185.09891	84.0
173.0947	82.0
222.10503	80.0
208.12447	80.0
191.084	79.0
194.06998	76.0
197.05846	74.0
189.07076	73.0
235.07516	73.0
251.10495	72.0
182.07069	70.0
183.11752	70.0
268.10904	69.0
167.08647	69.0
145.06404	68.0
223.14694	65.0
213.09048	64.0
180.08986	63.0
154.07632	63.0
199.08051	62.0
185.0616	62.0
225.05293	60.0
204.09195	60.0
177.07181	58.0
168.05762	55.0
240.07481	53.0
253.12344	52.0
212.12083	51.0
192.09395	50.0
241.12152	50.0
211.09648	49.0
269.11707	48.0
198.10335	48.0
129.06969	48.0
226.06197	46.0
227.06589	46.0
128.06247	46.0
105.07078	45.0
198.0675	45.0
237.07204	44.0
218.10782	44.0
143.08791	43.0
157.06425	42.0
227.08949	41.0
245.09488	41.0
205.06412	40.0
237.12782	40.0
184.08231	40.0
187.11104	38.0
201.0865	37.0
142.07631	37.0
210.10158	37.0
210.07034	37.0
151.05569	36.0
233.13161	36.0
219.11568	35.0
250.10184	35.0
217.10083	35.0
170.07094	34.0
256.10834	34.0
171.11603	33.0
225.12787	32.0
263.10355	31.0
252.07742	31.0
212.05951	30.0
127.05698	30.0
213.12909	29.0
164.06445	29.0
253.08606	28.0
223.06064	27.0
176.06192	26.0
195.11786	25.0
254.07484	25.0
135.07747	24.0

MSID: 8998
ID: 142
RETENTIONTIME: 25.37897
PRECURSORMZ: 315.1589
AREA: 2681460.25
PRECURSORTYPE: [M+H]+
SMILES: CC(CO)C1=C(O)C(=O)C2=C(C=CC3=C2CCCC3(C)C)C1=O
NAME: neocryptotanshione
FORMULA: C19H22O4
INCHIKEY: PKEGICXVZMKJPR-UHFFFAOYSA-N
CAS: 120924-86-9
Molecular Weight: 314.381
Number of References: 6
Class: Abeoabietane diterpenoids
Superclass: Diterpenoids
Pathway: Terpenoids
ppm: -0.7350000000201362
CMID: CM243
IONMODE: Positive
COLLISIONENERGY: 40±20eV
INSTRUMENTTYPE: AB SCIEX
INSTRUMENT: Q-TOF
Comment:  
Num Peaks: 188
297.14902	9983.0
269.15427	5191.0
315.15939	1751.0
237.09032	1473.0
227.10591	1435.0
209.09645	1111.0
239.10783	998.0
282.12576	833.0
255.10175	751.0
254.09378	644.0
279.13809	641.0
211.07532	588.0
254.12813	555.0
221.09486	525.0
211.1123	491.0
212.08392	452.0
193.09991	435.0
251.14241	414.0
165.06844	406.0
241.15973	403.0
226.09897	400.0
178.07687	394.0
249.08856	388.0
225.09131	380.0
183.08057	359.0
199.11246	342.0
197.09712	341.0
264.11511	330.0
267.10312	315.0
166.07788	300.0
185.09639	300.0
197.06	290.0
236.11864	269.0
213.09065	252.0
239.06845	234.0
194.07286	233.0
206.07393	230.0
240.116	227.0
222.06873	217.0
181.06656	215.0
226.13579	209.0
236.08401	205.0
181.10083	204.0
179.08728	192.0
141.07076	186.0
195.07971	182.0
184.08644	180.0
224.08298	176.0
221.05846	173.0
185.06042	172.0
171.08159	166.0
169.0661	165.0
212.11816	160.0
157.06438	160.0
152.06018	160.0
198.10352	155.0
153.07028	152.0
180.09264	148.0
211.09666	144.0
261.1265	142.0
155.08591	141.0
198.06767	137.0
227.14134	137.0
273.11334	137.0
203.08597	136.0
240.07654	134.0
235.07835	133.0
251.10826	128.0
158.07494	128.0
191.08417	127.0
231.08015	126.0
246.10657	126.0
167.08661	121.0
245.08282	119.0
199.07654	119.0
219.07961	117.0
173.09483	117.0
182.07217	116.0
196.08917	116.0
207.07899	113.0
208.08791	111.0
128.06369	107.0
223.07253	106.0
241.08826	104.0
234.06735	101.0
208.12465	100.0
157.10243	99.0
201.08945	93.0
238.09724	92.0
194.0674	91.0
202.07811	90.0
169.10303	87.0
145.06534	86.0
227.12068	86.0
235.1129	85.0
253.1221	85.0
253.08626	83.0
223.11055	82.0
142.07759	81.0
233.13329	80.0
135.07872	78.0
222.10376	78.0
218.11089	77.0
268.10605	76.0
213.05635	76.0
225.05605	75.0
154.07645	75.0
259.09363	74.0
241.12476	68.0
243.10281	68.0
143.08568	68.0
171.04315	68.0
189.05611	65.0
245.09509	65.0
199.10002	64.0
242.08839	64.0
205.06429	64.0
193.06453	63.0
170.07234	62.0
263.10538	61.0
192.0941	61.0
210.10318	61.0
171.1149	61.0
217.04762	60.0
227.07788	59.0
190.07689	59.0
156.09254	59.0
129.06979	59.0
237.12802	57.0
215.10553	56.0
194.10696	56.0
267.13834	55.0
187.10718	54.0
220.08826	54.0
217.09956	51.0
222.0585	51.0
168.05902	51.0
223.14128	50.0
199.09035	49.0
225.12511	49.0
210.06343	49.0
256.10855	49.0
237.07072	48.0
157.0607	48.0
297.1254	48.0
159.08257	48.0
227.06902	47.0
253.08159	46.0
81.07091	46.0
228.09145	45.0
247.11397	44.0
201.07001	44.0
186.10645	44.0
69.06899	44.0
177.06674	43.0
55.05452	41.0
315.12637	41.0
236.075	39.0
213.12926	38.0
195.11801	38.0
83.04933	37.0
203.10411	37.0
255.13773	37.0
272.10593	36.0
200.05194	36.0
127.05709	36.0
164.06207	33.0
105.06886	33.0
209.05679	33.0
166.06401	33.0
161.05894	32.0
183.119	31.0
232.0862	30.0
282.09451	30.0
185.08307	29.0
226.06363	29.0
216.03877	28.0
144.05264	26.0
187.04021	26.0
249.07001	26.0
252.07452	25.0
155.04932	25.0
115.05337	25.0
143.05054	24.0
225.07368	24.0
237.05414	24.0
91.05753	12.0
77.03941	12.0

MSID: 8999
ID: 292
RETENTIONTIME: 30.63147
PRECURSORMZ: 331.1898
AREA: 2666743.25
PRECURSORTYPE: [M+H]+
SMILES: CC(C)C1=C(O)C(=O)C2=C(C=CC(C)=C2CCCC(C)(C)O)C1=O
NAME: 4-hydroxy-sapriparaquinone
FORMULA: C20H26O4
INCHIKEY: SETMNJMIFBZFHB-UHFFFAOYSA-N
CAS: nan
Molecular Weight: 330.424
Number of References: 5
Class: Secoabietane diterpenoids
Superclass: Diterpenoids
Pathway: Terpenoids
ppm: -1.1350000000334148
CMID: CM243
IONMODE: Positive
COLLISIONENERGY: 40±20eV
INSTRUMENTTYPE: AB SCIEX
INSTRUMENT: Q-TOF
Comment:  
Num Peaks: 279
331.18848	4136.0
285.18518	1629.0
243.13608	1250.0
313.17999	1037.0
225.12628	828.0
229.12326	828.0
187.07478	702.0
267.17319	646.0
231.10069	613.0
285.1488	419.0
165.09213	375.0
211.11061	353.0
203.10802	352.0
209.09618	352.0
69.06889	350.0
271.13223	344.0
253.12488	333.0
201.09195	330.0
295.16989	327.0
205.08786	325.0
219.09961	314.0
183.08165	307.0
227.10561	290.0
257.117	286.0
161.06122	283.0
173.0611	266.0
217.12381	254.0
95.08507	251.0
141.07057	249.0
159.07864	249.0
215.10524	238.0
239.10902	231.0
169.06459	231.0
242.13074	231.0
313.14185	217.0
195.08218	216.0
245.11929	212.0
197.13397	210.0
211.07503	204.0
217.08917	201.0
215.06932	198.0
255.13737	196.0
301.1752	195.0
197.09547	194.0
283.17096	192.0
210.10289	190.0
223.11026	190.0
213.09323	182.0
179.10669	181.0
183.11743	180.0
197.06111	178.0
188.08348	178.0
241.12291	177.0
55.05372	175.0
273.18582	170.0
191.10692	169.0
145.06514	167.0
165.06947	165.0
233.11653	164.0
157.06416	162.0
207.11676	162.0
243.10249	158.0
181.10059	156.0
179.08441	155.0
193.08467	152.0
207.10126	149.0
235.11108	144.0
128.06018	143.0
155.08691	143.0
175.07686	140.0
252.11307	139.0
167.08511	135.0
143.04683	134.0
105.07072	134.0
153.07008	133.0
171.08263	133.0
196.08754	132.0
271.17258	130.0
189.09221	128.0
214.09805	127.0
152.05997	126.0
169.10025	125.0
224.11786	125.0
149.06166	125.0
242.09264	123.0
216.07878	122.0
81.06904	120.0
91.05367	119.0
67.05463	119.0
225.09395	118.0
270.12204	118.0
199.10805	118.0
109.10019	117.0
237.0885	116.0
163.07483	114.0
185.09348	113.0
142.07741	113.0
199.0735	112.0
133.10068	111.0
265.1615	109.0
193.09828	109.0
181.06367	109.0
107.0851	106.0
195.11775	106.0
205.12152	106.0
231.1394	106.0
201.12807	105.0
144.05716	105.0
179.07262	103.0
208.08905	102.0
192.09384	102.0
203.06894	101.0
131.04657	100.0
303.19608	100.0
129.07074	99.0
168.09308	98.0
239.18021	98.0
121.09969	98.0
182.1076	98.0
143.08665	97.0
238.09843	96.0
245.15303	96.0
123.04202	95.0
200.08353	94.0
154.07625	94.0
261.11349	93.0
147.04414	92.0
267.13477	91.0
137.05952	90.0
228.11627	89.0
240.11566	89.0
213.12755	89.0
257.15628	89.0
185.05751	89.0
157.101	86.0
265.12164	85.0
191.07172	85.0
189.0545	84.0
241.08185	84.0
182.07324	83.0
168.05626	83.0
277.1564	82.0
115.05322	80.0
270.0802	79.0
212.08365	79.0
331.15103	79.0
174.06752	79.0
127.05692	77.0
269.1539	77.0
173.09589	77.0
79.05265	77.0
85.06503	77.0
229.08768	76.0
271.09515	74.0
93.06837	74.0
119.08624	73.0
166.07767	73.0
180.09241	71.0
273.14536	69.0
283.12976	69.0
270.15906	68.0
259.17368	67.0
83.08671	67.0
95.04783	66.0
227.07019	66.0
207.08435	66.0
216.11478	65.0
177.09387	65.0
280.14005	64.0
123.11481	64.0
303.18756	64.0
77.03759	63.0
117.06846	63.0
181.0874	62.0
298.15738	61.0
253.16072	61.0
256.14584	61.0
223.07808	61.0
261.15146	60.0
259.13269	60.0
233.07765	59.0
191.08391	59.0
201.05168	58.0
177.05086	58.0
209.133	58.0
269.11533	57.0
147.07977	57.0
221.11786	56.0
205.10188	56.0
211.09921	55.0
190.06177	55.0
158.07227	54.0
230.13097	54.0
289.14182	54.0
219.06482	54.0
271.15161	53.0
83.04832	52.0
220.08505	52.0
251.14207	51.0
189.08144	50.0
194.10944	50.0
287.16342	50.0
57.034	48.0
156.09355	48.0
97.06644	48.0
201.08084	47.0
97.10311	47.0
226.09572	47.0
196.11908	47.0
135.11383	47.0
59.04777	46.0
206.1102	46.0
178.07664	46.0
103.05459	45.0
285.11243	44.0
198.06879	44.0
151.11099	44.0
224.08414	44.0
213.05177	44.0
214.06079	43.0
119.05096	43.0
197.05423	42.0
171.11594	42.0
186.10619	42.0
200.04335	42.0
221.09456	42.0
249.12842	42.0
162.06833	41.0
256.10196	41.0
202.05974	41.0
55.0174	41.0
99.08287	40.0
111.07729	40.0
252.15039	39.0
240.07773	39.0
224.1516	39.0
222.10054	39.0
194.07123	39.0
244.10832	38.0
233.10905	38.0
254.13091	38.0
199.05968	37.0
165.05563	36.0
167.0788	36.0
331.10648	36.0
172.08714	35.0
139.11037	35.0
133.06677	35.0
247.09207	35.0
187.04933	35.0
177.07301	35.0
150.06538	34.0
215.14833	34.0
137.05035	34.0
184.08752	33.0
268.07523	33.0
221.07272	33.0
259.12323	32.0
121.06521	32.0
193.0697	32.0
316.08463	31.0
209.07776	31.0
228.07782	31.0
234.14047	30.0
155.0735	29.0
160.04733	29.0
170.07468	29.0
71.04857	29.0
262.13525	28.0
253.08281	28.0
289.10516	26.0
121.0609	26.0
205.07103	25.0
249.15779	25.0
222.13849	24.0
227.14398	24.0
261.13879	22.0
89.04253	12.0
53.04065	12.0

MSID: 9000
ID: 324
RETENTIONTIME: 31.12218
PRECURSORMZ: 329.1754
AREA: 2617654.25
PRECURSORTYPE: [M+H]+
SMILES: [H][C@@]12C=CC3=C(C[C@@]11CCC[C@]2(C)CO1)C(=O)C(O)=C(C(C)C)C3=O
NAME: 19-deoxyicetexone
FORMULA: C20H24O4
INCHIKEY: DIBRAIUMKYKKOZ-KPOBHBOGSA-N
CAS: nan
Molecular Weight: 328.408
Number of References: 4
Class: Icetexane diterpenoids
Superclass: Diterpenoids
Pathway: Terpenoids
ppm: 0.11499999999387
CMID: CM243
IONMODE: Positive
COLLISIONENERGY: 40±20eV
INSTRUMENTTYPE: AB SCIEX
INSTRUMENT: Q-TOF
Comment:  
Num Peaks: 235
273.1846	3568.0
215.10698	2405.0
259.0968	2358.0
283.16971	2027.0
267.17517	1316.0
197.09576	1274.0
301.18073	1159.0
329.17441	1068.0
223.11351	728.0
225.1266	698.0
69.06981	647.0
183.0806	635.0
165.06972	610.0
200.08382	587.0
173.06136	573.0
153.06909	544.0
231.13527	469.0
169.10051	445.0
181.06393	414.0
241.12326	370.0
217.12268	361.0
226.06364	357.0
141.06961	351.0
157.06439	344.0
243.13797	335.0
182.07352	331.0
195.11667	301.0
265.15869	300.0
179.08598	298.0
154.07646	286.0
225.09134	280.0
311.16797	268.0
209.09506	268.0
155.0847	262.0
195.07837	261.0
128.06038	250.0
175.07712	248.0
167.08662	241.0
211.11375	238.0
213.12785	218.0
240.1145	217.0
55.05453	216.0
208.08794	215.0
217.05052	208.0
171.07904	207.0
229.1236	200.0
187.11256	199.0
231.09953	199.0
205.08536	198.0
227.10594	196.0
169.06485	193.0
199.07379	192.0
203.10692	191.0
161.06145	182.0
201.09085	180.0
152.06261	177.0
185.09775	173.0
269.11734	170.0
191.10585	169.0
129.06981	166.0
165.08986	159.0
145.06653	155.0
241.08524	154.0
199.11249	149.0
207.07761	149.0
255.10333	149.0
172.0874	147.0
180.09267	144.0
170.07492	141.0
196.0892	136.0
271.17136	135.0
171.04445	131.0
183.11902	130.0
127.05489	129.0
213.09354	126.0
224.11966	126.0
211.07533	120.0
143.05055	119.0
237.12805	118.0
178.0782	116.0
193.10129	115.0
143.08687	112.0
255.17216	112.0
198.06631	111.0
207.11989	106.0
257.15665	104.0
215.09549	104.0
187.07773	103.0
253.15953	102.0
245.11812	101.0
85.06516	101.0
149.05949	99.0
168.09332	98.0
199.03786	97.0
269.1543	96.0
239.14572	95.0
157.09999	93.0
181.1048	93.0
83.08415	92.0
207.11424	91.0
167.08156	90.0
131.08488	87.0
213.05637	86.0
115.05548	85.0
329.1051	84.0
159.08258	83.0
253.12213	83.0
184.08778	83.0
189.09114	82.0
254.12816	81.0
205.10219	81.0
222.10378	81.0
237.16122	79.0
190.0769	79.0
217.10103	79.0
210.10178	78.0
163.07506	78.0
203.07202	77.0
197.13289	75.0
159.11594	73.0
293.15628	71.0
198.1049	71.0
228.07964	69.0
173.09743	69.0
192.09413	69.0
285.18561	68.0
190.06206	68.0
205.11902	67.0
225.16481	67.0
189.05208	67.0
193.06454	66.0
235.11142	65.0
188.08376	65.0
259.13147	64.0
191.08418	64.0
244.07501	63.0
256.10547	63.0
268.07401	63.0
219.10573	62.0
209.06107	60.0
117.06863	58.0
194.07014	56.0
215.07251	56.0
174.06648	56.0
233.11537	54.0
239.10938	54.0
271.13748	54.0
255.14088	54.0
147.04436	54.0
203.08459	53.0
158.07249	53.0
191.07065	52.0
155.05055	51.0
128.05815	51.0
216.07767	51.0
151.05342	51.0
259.06369	50.0
197.05589	49.0
209.12904	48.0
177.06937	48.0
212.0811	47.0
250.13614	47.0
195.06879	47.0
179.10826	46.0
229.0806	46.0
242.12956	46.0
98.9836	46.0
189.0696	45.0
179.07025	45.0
221.09488	45.0
202.07675	45.0
236.12016	45.0
313.073	45.0
71.04702	45.0
226.10194	44.0
267.15277	44.0
55.01675	43.0
219.11588	43.0
123.04329	43.0
227.06757	43.0
184.05191	43.0
159.04182	42.0
222.13734	41.0
168.05397	40.0
296.06784	40.0
229.10135	39.0
156.09134	39.0
211.08672	38.0
223.15009	38.0
201.05614	37.0
59.04936	37.0
143.08101	37.0
91.05567	37.0
329.12463	37.0
273.16519	37.0
249.1226	36.0
139.05283	36.0
267.13516	36.0
182.10919	36.0
209.08514	36.0
137.06201	35.0
251.14709	35.0
230.12982	35.0
245.10585	35.0
155.07373	34.0
196.12212	34.0
164.05959	34.0
79.05451	34.0
210.0677	34.0
105.06886	34.0
213.11212	34.0
182.06294	33.0
228.11513	33.0
69.06086	33.0
211.14648	32.0
238.13354	32.0
163.03754	32.0
194.10973	31.0
249.16588	31.0
171.11363	30.0
144.09029	30.0
287.12564	29.0
224.15338	28.0
265.1348	28.0
187.03755	27.0
108.01664	27.0
314.08759	26.0
285.07645	26.0
237.07376	26.0
154.06187	24.0
176.06339	24.0
242.10518	23.0
233.09593	23.0
160.05252	22.0
259.1709	20.0

MSID: 9001
ID: 21
RETENTIONTIME: 10.20895
PRECURSORMZ: 227.1276
AREA: 2599346.0
PRECURSORTYPE: [M+H]+
SMILES: OCC\C=C/CC1C(CC(O)=O)CCC1=O
NAME: tuberonic acid
FORMULA: C12H18O4
INCHIKEY: RZGFUGXQKMEMOO-UPHRSURJSA-N
CAS: 221682-86-6
Molecular Weight: 226.273
Number of References: 61
Class: Jasmonic acids
Superclass: Octadecanoids
Pathway: Fatty acids
ppm: -0.7349999999917145
CMID: CM243
IONMODE: Positive
COLLISIONENERGY: 40±20eV
INSTRUMENTTYPE: AB SCIEX
INSTRUMENT: Q-TOF
Comment:  
Num Peaks: 105
149.09662	5014.0
91.05384	5009.0
131.08493	4652.0
79.05367	4551.0
85.06519	3612.0
77.03859	3250.0
67.05395	2940.0
191.10863	2450.0
105.06991	1984.0
93.07043	1921.0
145.10197	1784.0
167.10695	1459.0
209.1178	1444.0
107.08631	1409.0
163.11264	1130.0
129.06985	852.0
71.0487	827.0
119.08538	817.0
107.04881	802.0
55.05383	784.0
121.10099	717.0
121.06543	678.0
165.09117	676.0
83.04937	629.0
65.03869	593.0
81.06918	580.0
117.07079	558.0
128.06152	495.0
57.07036	469.0
95.04896	468.0
55.01749	460.0
173.09492	453.0
115.05553	419.0
137.09647	384.0
116.06308	366.0
111.04446	352.0
227.12521	351.0
147.07886	322.0
51.02317	300.0
153.05461	299.0
97.06469	290.0
53.0386	268.0
109.06458	262.0
130.0788	256.0
103.05478	250.0
135.11749	231.0
125.05807	229.0
69.06902	206.0
57.03411	198.0
155.07013	166.0
135.07993	151.0
127.05495	139.0
133.06476	131.0
155.0872	129.0
69.03403	127.0
133.09979	125.0
163.07262	124.0
99.0811	119.0
107.06401	118.0
95.0862	114.0
123.08027	106.0
123.04442	104.0
137.05862	104.0
99.04504	100.0
135.04578	82.0
81.0348	80.0
145.06305	79.0
139.07365	76.0
141.05338	73.0
179.10571	69.0
147.11687	64.0
78.04764	63.0
161.09756	63.0
149.06075	60.0
197.11371	58.0
121.0816	55.0
104.0604	53.0
109.02675	50.0
131.04793	49.0
137.07927	48.0
50.0159	47.0
143.0799	47.0
158.07256	44.0
108.05638	43.0
151.11368	43.0
153.07521	43.0
92.06219	42.0
113.06088	40.0
106.07722	40.0
51.01898	38.0
87.04487	37.0
152.06267	36.0
80.06264	36.0
167.06644	36.0
134.07555	34.0
139.11177	33.0
151.07756	33.0
94.04047	31.0
126.04683	30.0
68.9966	29.0
125.09531	28.0
148.08661	28.0
59.05089	26.0
111.07542	26.0
61.12951	12.0

MSID: 9002
ID: 485
RETENTIONTIME: 35.56323
PRECURSORMZ: 455.3501
AREA: 2596407.75
PRECURSORTYPE: [M+H]+
SMILES: [H][C@@]12[C@@H](C)[C@H](C)CC[C@@]1(CC[C@]1(C)C2=CC[C@]2([H])[C@@]3(C)CCC(=O)C(C)(C)[C@]3([H])CC[C@@]12C)C(O)=O
NAME: ursonic acid
FORMULA: C30H46O3
INCHIKEY: MUCRYNWJQNHDJH-OADIDDRXSA-N
CAS: nan
Molecular Weight: 454.693
Number of References: 184
Class: Ursane and Taraxastane triterpenoids
Superclass: Triterpenoids
Pathway: Terpenoids
ppm: -2.4200000000291766
CMID: CM243
IONMODE: Positive
COLLISIONENERGY: 40±20eV
INSTRUMENTTYPE: AB SCIEX
INSTRUMENT: Q-TOF
Comment:  
Num Peaks: 246
437.3396	4446.0
203.17918	4029.0
189.16357	3672.0
455.35266	3276.0
201.16415	3026.0
247.16902	2087.0
409.34534	2084.0
133.10179	2005.0
147.11658	1749.0
119.08515	1261.0
161.1333	1234.0
145.10051	1167.0
95.08506	1132.0
215.1799	1108.0
175.14812	1091.0
229.19588	1078.0
107.0861	1026.0
135.11722	1025.0
163.14735	1010.0
159.11569	1002.0
187.14844	889.0
173.13324	865.0
391.33762	795.0
191.18137	708.0
243.21242	698.0
121.10075	671.0
207.17453	671.0
149.13101	617.0
109.10222	593.0
177.16554	560.0
221.19066	542.0
105.0697	477.0
93.06931	475.0
131.0858	439.0
81.06903	432.0
255.21088	416.0
235.16962	376.0
179.13943	369.0
275.19998	364.0
217.19305	334.0
213.16327	331.0
301.21594	311.0
69.0697	303.0
177.08994	294.0
241.19588	290.0
315.2337	279.0
123.11589	277.0
219.17497	269.0
261.18466	268.0
231.20937	267.0
289.21671	261.0
227.18086	256.0
67.05462	251.0
199.1481	243.0
143.08546	240.0
171.11592	230.0
229.16029	225.0
269.22617	212.0
287.19989	209.0
91.0546	202.0
185.1321	200.0
55.05372	199.0
137.13289	194.0
165.12987	193.0
295.24054	187.0
249.18559	182.0
79.05351	181.0
153.09187	179.0
83.08402	157.0
341.25201	155.0
157.09975	146.0
253.19341	146.0
261.21948	145.0
419.33298	144.0
299.20169	138.0
257.22534	138.0
267.20837	138.0
233.15688	133.0
205.19865	129.0
255.20462	129.0
273.18094	125.0
205.15938	120.0
57.06951	120.0
239.17714	115.0
163.07605	112.0
335.27182	112.0
233.18828	110.0
313.21634	110.0
151.11218	109.0
303.23184	105.0
455.33801	102.0
321.26141	100.0
381.27606	100.0
151.07365	99.0
225.1674	97.0
409.3176	93.0
281.23117	92.0
111.0814	91.0
327.22925	91.0
129.06961	91.0
189.14742	91.0
207.1393	91.0
349.2865	88.0
313.25275	86.0
179.10799	86.0
395.29221	85.0
211.14758	80.0
165.08958	78.0
128.06349	77.0
367.25949	76.0
144.09241	76.0
77.03672	75.0
130.07742	74.0
245.222	72.0
169.09897	70.0
151.14951	69.0
394.28418	69.0
119.07553	68.0
197.13258	67.0
135.07965	66.0
139.07339	65.0
217.1613	64.0
209.1528	64.0
193.15678	63.0
117.07162	63.0
183.12138	62.0
245.15759	61.0
303.22675	60.0
259.21307	60.0
309.25446	58.0
174.13728	58.0
97.1002	58.0
160.12538	53.0
158.10919	53.0
283.24179	53.0
231.16766	53.0
193.12411	52.0
329.24673	52.0
123.08003	52.0
167.10915	51.0
205.1243	51.0
231.19894	50.0
191.10419	50.0
125.09616	49.0
259.16891	49.0
285.18848	49.0
137.09505	48.0
257.20493	47.0
145.08517	47.0
95.07455	47.0
173.11649	47.0
186.14091	47.0
149.09512	47.0
141.06822	45.0
215.15692	44.0
313.24234	43.0
353.2403	43.0
455.29623	42.0
317.24182	42.0
263.19711	41.0
219.20978	41.0
279.21625	41.0
153.13066	40.0
191.16241	40.0
173.09457	40.0
142.07622	40.0
411.36899	40.0
257.19394	39.0
163.11357	39.0
109.09404	39.0
339.26837	38.0
281.22458	38.0
277.21835	38.0
217.11656	38.0
297.26001	37.0
172.12823	37.0
121.09106	37.0
184.12338	36.0
413.31	36.0
343.26865	36.0
177.0782	35.0
171.10439	35.0
175.13387	35.0
261.17044	35.0
159.09715	34.0
223.16582	34.0
146.10977	34.0
289.19839	33.0
271.24188	31.0
339.2305	31.0
265.19177	31.0
307.24265	31.0
247.20906	31.0
299.17627	31.0
177.12904	30.0
409.27795	30.0
301.18704	30.0
271.17093	30.0
188.15601	29.0
379.25735	29.0
159.0811	28.0
165.16385	28.0
267.20197	28.0
156.09109	27.0
57.034	27.0
147.0952	27.0
235.14409	27.0
226.17081	26.0
170.11041	26.0
355.25323	26.0
367.30078	26.0
323.26923	26.0
85.06322	26.0
127.111	25.0
393.34155	25.0
189.12451	25.0
313.19556	25.0
125.0633	25.0
195.17793	25.0
79.04742	25.0
291.23056	25.0
293.22122	25.0
251.17308	25.0
212.15067	24.0
245.1852	24.0
295.20013	24.0
109.06335	24.0
243.17882	24.0
128.05907	24.0
83.04742	23.0
283.20389	23.0
139.11266	23.0
198.13905	23.0
160.1068	23.0
242.19624	23.0
115.05425	23.0
367.21259	23.0
71.08571	22.0
437.26996	22.0
71.04691	21.0
259.13739	13.0
141.06473	13.0
343.25232	13.0
285.17026	13.0
92.03289	12.0
73.06792	12.0

MSID: 9003
ID: 483
RETENTIONTIME: 35.56323
PRECURSORMZ: 437.3411
AREA: 2566868.5
PRECURSORTYPE: [M+H]+
SMILES: [H][C@@]12CC[C@]3(C)C(=CC=C4[C@]5([H])[C@@H](C)[C@H](CO)CC[C@]5(C)CC[C@@]34C)[C@@]1(C)C=CC(=O)C2(C)C
NAME: 3-oxo-30-hydroxy-urs-1,9,12-triene
FORMULA: C30H44O2
INCHIKEY: FVDQDIJTPFIXPB-ZAGGFFBDSA-N
CAS: nan
Molecular Weight: 436.678
Number of References: 1
Class: Lupane triterpenoids
Superclass: Triterpenoids
Pathway: Terpenoids
ppm: -0.8550000000582259
CMID: CM243
IONMODE: Positive
COLLISIONENERGY: 40±20eV
INSTRUMENTTYPE: AB SCIEX
INSTRUMENT: Q-TOF
Comment:  
Num Peaks: 185
437.34164	6712.0
201.16415	1708.0
189.16357	1562.0
203.17918	1239.0
145.10051	996.0
159.11693	966.0
133.10179	938.0
243.21089	924.0
95.08506	859.0
391.33566	844.0
175.14682	824.0
119.08515	803.0
147.11658	802.0
215.18135	795.0
187.14844	658.0
247.17056	578.0
161.1333	520.0
173.13196	517.0
105.0697	428.0
121.10075	413.0
107.0861	410.0
229.19588	402.0
109.1012	384.0
163.14735	367.0
191.18137	366.0
217.19594	350.0
131.08467	331.0
177.16423	328.0
149.1322	279.0
255.21088	273.0
135.11722	268.0
213.16183	263.0
93.07025	259.0
81.06991	244.0
123.11697	222.0
295.24054	215.0
241.19437	205.0
199.1481	204.0
69.0697	185.0
185.13077	177.0
171.11592	173.0
239.18018	163.0
55.05444	162.0
67.05302	153.0
157.10097	151.0
91.0546	148.0
83.08581	136.0
349.29016	133.0
143.08429	131.0
285.1868	124.0
227.17938	122.0
183.11609	122.0
137.13405	120.0
267.21158	118.0
177.09384	112.0
229.16177	104.0
367.26514	102.0
341.24658	101.0
79.05438	98.0
261.18152	98.0
321.2579	97.0
211.149	96.0
269.22617	95.0
281.22623	94.0
212.15352	92.0
197.13396	92.0
249.18095	91.0
221.15279	91.0
128.06349	91.0
419.33096	90.0
253.19341	90.0
153.09187	89.0
335.27002	88.0
287.19821	86.0
97.1031	82.0
57.06951	82.0
353.24765	82.0
381.2818	81.0
327.22925	81.0
169.09897	80.0
225.16151	79.0
235.16512	79.0
301.21255	78.0
129.07072	77.0
299.20169	77.0
313.21634	77.0
144.09241	76.0
243.19867	76.0
158.10919	75.0
395.30194	74.0
159.10828	73.0
163.07605	73.0
233.15388	70.0
273.18579	67.0
155.08446	64.0
165.08958	61.0
193.15952	61.0
293.22458	60.0
283.23849	59.0
179.10536	59.0
161.12086	58.0
307.24091	57.0
205.19585	57.0
289.21671	56.0
186.14091	55.0
271.17093	55.0
173.1255	54.0
259.1705	54.0
251.17929	53.0
231.20937	53.0
207.1393	53.0
325.21445	53.0
275.20325	53.0
141.06938	50.0
315.23022	49.0
437.29861	49.0
295.22537	48.0
142.07739	48.0
167.10915	48.0
107.08002	48.0
173.09715	47.0
131.07121	46.0
174.14116	46.0
149.09752	45.0
196.12317	44.0
151.07607	44.0
193.1214	43.0
409.34732	43.0
279.20807	43.0
215.13968	43.0
151.14468	42.0
191.10555	41.0
195.11636	41.0
159.07863	41.0
219.13583	40.0
117.07056	39.0
219.17497	39.0
245.14993	39.0
97.0645	38.0
172.12695	37.0
209.15138	36.0
237.16537	36.0
160.12042	36.0
203.14149	36.0
146.10858	36.0
221.18921	36.0
231.13937	35.0
241.15787	34.0
203.15685	34.0
339.2305	33.0
329.24496	33.0
363.29871	33.0
191.14211	33.0
219.16193	32.0
257.15311	32.0
243.17422	32.0
181.12033	31.0
341.23392	31.0
128.05463	31.0
71.08571	31.0
175.12868	31.0
156.09354	28.0
111.11753	27.0
419.3089	26.0
139.0757	26.0
179.14206	26.0
307.23062	25.0
245.22813	25.0
343.25778	25.0
391.28143	24.0
355.26801	24.0
231.17363	24.0
188.15062	24.0
135.03983	24.0
187.10959	24.0
111.07933	24.0
69.06075	24.0
223.14095	24.0
269.18759	23.0
77.03672	23.0
265.19336	21.0
224.1545	20.0
59.04852	12.0
257.72354	12.0
91.20792	12.0

MSID: 9004
ID: 245
RETENTIONTIME: 29.36315
PRECURSORMZ: 297.1483
AREA: 2555326.75
PRECURSORTYPE: [M+H]+
SMILES: CC1COC2=C1C(=O)C(=O)C1=C3CCCC(C)(C)C3=CC=C21
NAME: (+/-)-cryptotanshinone
FORMULA: C19H20O3
INCHIKEY: GVKKJJOMQCNPGB-UHFFFAOYSA-N
CAS: nan
Molecular Weight: 296.366
Number of References: 71
Class: Abietane diterpenoids
Superclass: Naphthalenes
Pathway: Polyketides
ppm: -0.7700000000454565
CMID: CM243
IONMODE: Positive
COLLISIONENERGY: 40±20eV
INSTRUMENTTYPE: AB SCIEX
INSTRUMENT: Q-TOF
Comment:  
Num Peaks: 180
297.14883	12092.0
237.09016	1770.0
269.15408	1593.0
239.10464	1476.0
282.12393	1389.0
209.09631	1146.0
221.09763	948.0
165.07085	931.0
254.12952	873.0
178.07806	820.0
279.13956	797.0
211.07375	730.0
193.10114	726.0
211.11075	670.0
254.09517	651.0
249.08994	647.0
227.10724	565.0
225.08969	537.0
166.07777	487.0
255.10313	481.0
267.10294	474.0
212.08237	464.0
197.09561	455.0
251.14224	439.0
181.06644	414.0
183.07912	373.0
264.11334	339.0
226.09734	333.0
236.12149	315.0
179.08716	309.0
221.05977	285.0
239.07738	270.0
224.08429	265.0
199.11234	258.0
238.0986	256.0
195.08095	253.0
196.08768	240.0
236.08537	239.0
203.08583	233.0
246.10332	228.0
222.06712	225.0
181.10333	221.0
152.06248	219.0
227.14267	218.0
153.07019	217.0
206.07239	213.0
226.13564	210.0
240.11432	209.0
251.10655	205.0
207.07886	204.0
261.1279	204.0
185.09761	203.0
231.07852	189.0
197.06123	188.0
194.0741	182.0
241.1611	179.0
155.08458	176.0
235.0752	175.0
211.10506	165.0
223.11333	163.0
141.07066	161.0
182.07205	158.0
191.08539	158.0
219.08382	155.0
184.08897	151.0
208.12592	151.0
212.11945	150.0
142.07867	147.0
167.0865	147.0
223.07822	146.0
189.06944	146.0
202.07799	145.0
240.0779	140.0
169.06598	139.0
208.08919	136.0
198.10614	127.0
269.13641	123.0
171.0789	121.0
222.10214	120.0
253.08609	112.0
221.07578	111.0
190.07811	110.0
180.09253	109.0
223.14552	105.0
168.05638	104.0
249.07294	102.0
135.07977	102.0
268.11069	102.0
234.0672	101.0
169.10292	101.0
235.11124	101.0
210.06897	99.0
205.06555	99.0
217.10231	99.0
157.06305	94.0
241.08658	93.0
232.08752	92.0
250.09723	91.0
201.08792	90.0
192.09262	86.0
213.09052	86.0
128.06139	86.0
220.08812	86.0
143.08206	85.0
199.0764	85.0
236.10643	82.0
151.05452	82.0
154.07634	80.0
263.10361	79.0
193.06575	79.0
245.09645	78.0
297.13193	76.0
129.0686	76.0
218.1093	75.0
225.12936	75.0
233.13164	74.0
177.06923	72.0
170.07478	72.0
185.05763	71.0
207.1169	70.0
157.10356	70.0
227.09248	69.0
269.11871	69.0
227.0733	68.0
210.10161	68.0
227.12643	66.0
176.06454	65.0
225.08087	65.0
187.11107	64.0
209.06232	62.0
201.06709	62.0
55.05449	60.0
158.07237	59.0
172.08727	58.0
139.05502	57.0
173.09729	56.0
168.09447	55.0
252.08058	54.0
196.05339	52.0
267.09012	51.0
233.09575	50.0
194.10957	50.0
145.06406	50.0
281.11642	49.0
67.05467	48.0
242.0928	48.0
213.12627	48.0
226.06494	48.0
186.10231	48.0
279.19684	47.0
131.05115	47.0
79.05445	47.0
219.06932	47.0
225.05737	47.0
183.11888	46.0
156.09244	46.0
214.06094	45.0
265.11862	43.0
127.05479	43.0
231.07405	43.0
204.09058	42.0
208.05104	42.0
213.05478	41.0
95.08609	41.0
256.10995	40.0
248.08315	38.0
237.12938	38.0
171.11606	37.0
247.1138	36.0
243.11792	36.0
81.06821	36.0
164.06322	36.0
235.06018	35.0
197.04199	33.0
159.08122	31.0
266.08908	29.0
215.10681	28.0
191.0705	27.0
229.0997	25.0
117.06641	13.0

MSID: 9005
ID: 40
RETENTIONTIME: 12.86068
PRECURSORMZ: 481.1339
AREA: 2548514.75
PRECURSORTYPE: [M+H]+
SMILES: COC1=C(O[C@@H]2O[C@H](CO)[C@@H](O)[C@H](O)[C@H]2O)C=C2OC(CC(=O)C2=C1O)C1=CC=C(O)C(O)=C1
NAME: 5,7,3',4'-tetrahydroxy-6-methoxyflavanone-7-O-β-D-glucopyranoside
FORMULA: C22H24O12
INCHIKEY: FXNVAMVSMZPUDG-BNIRWLJWSA-N
CAS: nan
Molecular Weight: 480.425
Number of References: 1
Class: Flavanones
Superclass: Flavonoids
Pathway: Shikimates and Phenylpropanoids
ppm: -0.7050000000390355
CMID: CM243
IONMODE: Positive
COLLISIONENERGY: 40±20eV
INSTRUMENTTYPE: AB SCIEX
INSTRUMENT: Q-TOF
Comment:  
Num Peaks: 137
319.08188	48574.0
183.02892	33168.0
168.00574	12474.0
163.0388	8166.0
145.02879	1135.0
140.00957	971.0
301.07028	891.0
135.04346	540.0
169.01392	495.0
209.0455	400.0
112.01564	279.0
117.03367	272.0
205.0489	215.0
277.07043	211.0
135.04004	196.0
241.04877	185.0
85.02813	182.0
269.04504	180.0
187.04158	178.0
89.03896	164.0
84.02056	161.0
123.04438	151.0
304.06006	145.0
286.04633	137.0
181.04814	137.0
283.06262	133.0
177.05634	128.0
139.03781	112.0
213.05495	104.0
149.02243	102.0
159.04553	100.0
137.02419	97.0
127.03835	84.0
194.02242	84.0
56.02455	83.0
255.06424	77.0
136.05144	74.0
227.03365	71.0
225.03993	70.0
217.05054	68.0
258.05109	68.0
199.03926	67.0
185.06178	66.0
303.04648	63.0
97.028	62.0
245.04759	61.0
273.07455	58.0
113.02648	56.0
69.03563	55.0
327.07211	54.0
203.03296	53.0
249.0376	52.0
182.02199	50.0
107.05182	49.0
231.06531	49.0
165.01814	49.0
195.0305	49.0
151.00288	48.0
227.07053	48.0
161.05898	48.0
259.05899	47.0
182.42918	47.0
145.017	47.0
141.02077	47.0
68.99821	47.0
145.04767	46.0
93.03356	44.0
155.03471	43.0
137.06317	42.0
61.02922	42.0
166.02365	41.0
189.05748	38.0
244.03677	38.0
261.04108	38.0
57.03187	38.0
143.04822	38.0
55.01748	37.0
71.01401	37.0
195.04419	35.0
223.03745	35.0
201.05615	35.0
157.06563	35.0
173.06265	35.0
166.9993	34.0
57.03409	34.0
163.01505	33.0
185.04314	32.0
167.98035	31.0
301.02948	30.0
191.06931	29.0
188.04482	29.0
123.03569	29.0
139.99683	28.0
138.99855	28.0
427.09668	26.0
123.00961	25.0
251.02916	25.0
234.01645	25.0
170.02257	25.0
262.05161	25.0
317.99988	24.0
481.11926	24.0
240.04167	24.0
109.02671	24.0
177.04201	24.0
171.04575	24.0
153.05577	24.0
99.04403	24.0
117.02519	24.0
227.06168	23.0
199.03096	23.0
319.05389	23.0
309.05695	23.0
91.03886	23.0
331.09094	22.0
77.03685	22.0
79.05538	22.0
291.05225	22.0
169.05084	22.0
184.04527	22.0
111.01037	21.0
279.05142	21.0
361.09427	21.0
287.04935	20.0
291.08899	20.0
122.00257	20.0
209.02568	20.0
319.44061	20.0
179.03226	19.0
97.02414	19.0
270.05164	18.0
240.04016	13.0
129.0676	13.0
81.0383	12.0
419.68271	12.0
63.02227	12.0
438.41626	12.0

MSID: 9006
ID: 441
RETENTIONTIME: 33.67605
PRECURSORMZ: 301.1796
AREA: 2545810.75
PRECURSORTYPE: [M+H]+
SMILES: CC(C)C1=C(O)C(=O)C2=C(C=C3[C@]2(C)CCCC3(C)C)C1=O
NAME: dichroanone
FORMULA: C19H24O3
INCHIKEY: VWUGNBHOYLFPRZ-IBGZPJMESA-N
CAS: 221462-89-1
Molecular Weight: 300.398
Number of References: 5
Class: Abeoabietane diterpenoids
Superclass: Diterpenoids
Pathway: Terpenoids
ppm: -0.7700000000454565
CMID: CM243
IONMODE: Positive
COLLISIONENERGY: 40±20eV
INSTRUMENTTYPE: AB SCIEX
INSTRUMENT: Q-TOF
Comment:  
Num Peaks: 178
259.13248	19974.0
301.18176	6875.0
241.1212	1912.0
161.05984	1288.0
223.11154	934.0
143.04788	801.0
157.06528	762.0
215.10794	716.0
189.05437	688.0
175.07674	555.0
129.06952	516.0
195.11624	495.0
128.0623	492.0
217.12076	487.0
199.11066	438.0
226.0985	436.0
283.17075	419.0
203.07018	414.0
141.07047	411.0
213.12738	389.0
165.06935	384.0
69.06966	373.0
231.10051	355.0
199.07611	348.0
153.06996	344.0
171.11581	339.0
173.0584	338.0
215.07204	320.0
181.06487	317.0
216.07718	314.0
217.08612	307.0
115.05418	304.0
171.07994	295.0
143.0842	295.0
185.06003	276.0
208.08888	267.0
147.04285	261.0
169.10268	260.0
180.09489	250.0
201.08902	246.0
171.04408	233.0
197.09671	229.0
195.08067	223.0
265.15811	211.0
183.08018	209.0
169.06447	204.0
213.09164	202.0
244.10812	201.0
185.09868	196.0
187.07463	196.0
156.09344	194.0
123.04301	191.0
163.07594	187.0
155.08681	182.0
167.08499	181.0
209.09459	179.0
179.0869	179.0
191.07022	174.0
211.07487	170.0
127.05351	168.0
152.06227	168.0
205.0863	151.0
165.05803	151.0
145.06384	150.0
142.0773	139.0
149.06155	138.0
189.09207	130.0
229.08603	128.0
225.09084	125.0
159.08099	124.0
166.07753	122.0
205.10033	120.0
160.05217	115.0
198.06863	113.0
81.06985	107.0
231.13477	105.0
222.10475	104.0
215.06485	102.0
216.11317	102.0
212.08206	102.0
55.01881	102.0
154.07855	99.0
157.10333	98.0
258.12759	97.0
198.10172	91.0
235.11241	90.0
91.05453	89.0
174.0674	88.0
170.07071	86.0
217.10056	84.0
55.05296	84.0
202.09857	83.0
225.12904	82.0
178.0778	82.0
250.13249	80.0
194.07245	79.0
182.0731	78.0
175.03915	78.0
185.13199	75.0
131.08459	75.0
221.09877	73.0
131.04871	72.0
207.08138	72.0
241.15923	70.0
139.05367	66.0
129.06285	66.0
177.05464	66.0
83.04916	64.0
268.14236	62.0
255.17317	61.0
95.085	61.0
227.10544	61.0
203.10368	60.0
188.07932	59.0
193.10222	58.0
199.09546	57.0
147.07967	57.0
117.06943	56.0
155.05022	56.0
187.11348	55.0
97.06637	55.0
79.05434	55.0
186.06464	54.0
137.05942	54.0
144.05821	53.0
239.14519	53.0
200.08337	53.0
99.08085	53.0
105.06963	53.0
213.11023	49.0
236.11813	49.0
133.06555	49.0
173.04422	49.0
161.04742	49.0
253.12157	49.0
243.10229	44.0
109.10113	43.0
67.05458	43.0
190.07648	43.0
203.08554	42.0
240.10942	42.0
258.28497	42.0
143.07249	41.0
207.11661	41.0
183.11729	40.0
180.08176	40.0
123.1169	40.0
151.05309	40.0
255.14032	39.0
189.12709	39.0
193.06276	38.0
93.06736	38.0
168.05994	37.0
177.09113	37.0
158.06845	37.0
245.11911	36.0
301.14438	35.0
170.10904	34.0
230.09514	34.0
243.13895	33.0
163.05469	33.0
211.11044	33.0
159.04395	33.0
257.11682	32.0
187.03445	32.0
180.05678	32.0
111.08029	31.0
148.05286	30.0
176.08249	30.0
196.08601	29.0
239.10429	26.0
220.0878	26.0
121.06404	25.0
192.09914	24.0
123.07887	21.0
92.05538	12.0
124.05543	12.0
75.29729	12.0

MSID: 9007
ID: 562
RETENTIONTIME: 38.00097
PRECURSORMZ: 317.1732
AREA: 2542843.75
PRECURSORTYPE: [M+H]+
SMILES: C[C@@H](CO)C1=C(O)C(O)=C2C(CCC3=C2C(=O)CCC3(C)C)=C1
NAME: 11,12,16-Trihydroxy-20-nor-abieta-5(10),8,11,13-tetraen-1-one
FORMULA: C19H24O4
INCHIKEY: ZCQUVVZAHUULFP-JTQLQIEISA-N
CAS: nan
Molecular Weight: 316.397
Number of References: 1
Class: Icetexane diterpenoids
Superclass: Diterpenoids
Pathway: Terpenoids
ppm: -2.085000000022319
CMID: CM243
IONMODE: Positive
COLLISIONENERGY: 40±20eV
INSTRUMENTTYPE: AB SCIEX
INSTRUMENT: Q-TOF
Comment:  
Num Peaks: 203
271.16922	1990.0
317.17545	1708.0
229.12169	1474.0
299.16263	1383.0
211.11194	1251.0
215.10802	952.0
173.05974	552.0
183.11736	537.0
253.15906	479.0
289.18164	440.0
195.07938	394.0
181.0636	388.0
228.11322	343.0
213.08885	323.0
231.13931	319.0
243.10239	289.0
171.08	285.0
187.07471	275.0
257.11847	266.0
168.09302	264.0
189.09213	264.0
169.10146	255.0
153.07002	254.0
69.0705	235.0
161.06116	234.0
128.06235	233.0
203.10654	230.0
217.0862	227.0
152.06233	223.0
197.09402	221.0
155.08563	217.0
145.06625	211.0
167.08632	211.0
281.1506	200.0
241.12433	199.0
199.0748	193.0
200.08067	192.0
231.09911	186.0
141.06702	182.0
165.09081	177.0
196.08884	159.0
169.06326	155.0
193.08733	155.0
227.10257	152.0
143.08542	151.0
205.08638	148.0
239.10892	148.0
193.09956	147.0
165.06815	143.0
143.04794	143.0
177.08989	137.0
185.09607	136.0
159.07858	131.0
247.13354	130.0
182.07185	130.0
154.07619	128.0
225.16586	127.0
157.0641	118.0
129.06956	114.0
259.1373	112.0
191.10414	110.0
209.0975	110.0
178.07657	107.0
217.12372	106.0
131.04764	106.0
201.0891	105.0
225.12619	103.0
147.04408	102.0
197.05965	101.0
85.065	98.0
95.08503	97.0
183.07892	97.0
210.10564	95.0
149.05922	95.0
142.07619	94.0
243.13751	93.0
127.05466	92.0
123.04197	92.0
137.05832	91.0
91.05457	91.0
241.08479	91.0
221.09738	90.0
185.05876	89.0
187.11087	88.0
115.05422	88.0
179.10793	85.0
175.0755	84.0
174.06616	84.0
213.12602	84.0
163.07851	83.0
179.08302	82.0
157.10338	81.0
173.09453	79.0
67.0538	77.0
219.09952	76.0
181.10051	72.0
256.10654	71.0
245.11459	71.0
238.09834	70.0
223.07506	70.0
154.07375	69.0
59.0485	68.0
243.17416	66.0
189.05577	65.0
207.09976	65.0
105.07068	64.0
223.10724	64.0
188.08206	64.0
205.12285	63.0
199.11211	62.0
214.09653	61.0
117.06947	61.0
159.04153	60.0
219.13577	59.0
233.11493	59.0
133.0656	59.0
119.08511	59.0
317.14578	58.0
166.07759	58.0
255.09816	58.0
200.07791	57.0
195.11494	57.0
202.06245	55.0
216.11757	55.0
177.0547	55.0
263.13986	54.0
191.07164	54.0
79.05698	54.0
77.03756	52.0
243.08711	50.0
170.07205	50.0
209.08051	49.0
198.06595	49.0
159.11565	49.0
180.09102	48.0
202.09586	48.0
257.10748	47.0
210.14256	47.0
150.06772	47.0
235.15004	47.0
233.08055	47.0
107.08404	46.0
160.05098	45.0
55.05297	45.0
156.09227	44.0
186.06737	44.0
172.09222	44.0
81.07077	44.0
257.15146	43.0
147.07971	43.0
228.07773	43.0
284.1424	42.0
194.07524	42.0
193.07236	41.0
165.05682	40.0
163.03723	40.0
183.07495	40.0
183.04182	40.0
203.07304	40.0
271.12891	39.0
235.09747	39.0
144.05475	39.0
287.1666	39.0
220.12129	39.0
253.11855	38.0
209.13148	38.0
242.09407	38.0
191.08519	36.0
145.10046	36.0
238.13914	36.0
216.07582	35.0
225.08652	35.0
103.05355	35.0
255.13414	33.0
227.06567	33.0
224.08406	32.0
170.10526	32.0
184.05556	32.0
195.06158	31.0
208.08896	31.0
161.0972	31.0
135.04547	30.0
151.05194	30.0
181.05305	30.0
251.10472	28.0
230.12939	28.0
164.06053	27.0
109.10014	27.0
266.13354	26.0
137.01933	25.0
212.11778	24.0
209.05927	24.0
83.08578	24.0
273.15173	24.0
91.0499	24.0
269.11362	24.0
155.04051	24.0
171.04413	23.0
226.09563	22.0
200.0502	21.0
57.07171	12.0
83.09025	12.0
86.17423	12.0

MSID: 9008
ID: 341
RETENTIONTIME: 31.41223
PRECURSORMZ: 315.1953
AREA: 2487462.0
PRECURSORTYPE: [M+H]+
SMILES: CC(C)C1=CC2=C(C=C1O)[C@@]1(C)CCCC(C)(C)C1=C(O)C2=O
NAME: 6-Hydroxy-5,6-dehydrosugiol
FORMULA: C20H26O3
INCHIKEY: XLUHSPYVUOVWRM-HXUWFJFHSA-N
CAS: nan
Molecular Weight: 314.425
Number of References: 28
Class: Abietane diterpenoids
Superclass: Diterpenoids
Pathway: Terpenoids
ppm: -0.7200000000580076
CMID: CM243
IONMODE: Positive
COLLISIONENERGY: 40±20eV
INSTRUMENTTYPE: AB SCIEX
INSTRUMENT: Q-TOF
Comment:  
Num Peaks: 193
215.10693	7333.0
200.08377	1445.0
297.18613	1357.0
95.08614	1309.0
241.12167	966.0
237.12799	880.0
181.06522	783.0
279.17569	766.0
153.07027	736.0
157.06436	678.0
185.06039	581.0
255.13925	546.0
223.11052	523.0
152.06136	475.0
128.06145	472.0
195.08105	425.0
231.14117	419.0
227.10736	407.0
67.05471	403.0
199.07512	392.0
182.07082	385.0
213.09062	373.0
165.06842	368.0
185.0977	333.0
154.07643	323.0
167.08658	321.0
197.09709	315.0
229.12056	314.0
129.06978	305.0
203.07057	301.0
179.08463	300.0
171.08156	292.0
315.19586	277.0
173.06001	274.0
143.05051	270.0
189.08974	259.0
69.06898	255.0
143.08449	245.0
141.06841	244.0
209.095	241.0
257.15344	227.0
209.13182	225.0
245.11804	224.0
199.11105	222.0
172.08736	214.0
191.10445	207.0
169.10173	206.0
217.12119	204.0
55.05379	201.0
203.10547	197.0
181.10211	194.0
127.05376	186.0
175.07448	178.0
259.13614	174.0
156.09251	171.0
254.1281	169.0
169.06607	165.0
161.06017	164.0
180.09656	160.0
178.07686	155.0
183.08186	153.0
208.08505	151.0
221.09337	149.0
166.07787	149.0
205.12317	147.0
142.07758	146.0
145.06531	145.0
239.1093	143.0
181.05994	142.0
243.13789	142.0
157.09996	141.0
198.06764	139.0
149.05945	136.0
193.10124	136.0
251.14236	135.0
285.18222	134.0
228.11507	133.0
213.13066	132.0
195.11525	130.0
207.07895	126.0
115.05441	122.0
155.08345	121.0
222.1008	116.0
212.08247	115.0
201.09081	113.0
187.075	110.0
151.05339	107.0
211.07385	106.0
194.11104	105.0
187.11252	103.0
269.15262	102.0
144.05615	101.0
158.07123	96.0
165.08981	92.0
93.06944	91.0
203.08733	89.0
251.17651	87.0
235.10986	85.0
225.09274	84.0
268.14932	84.0
207.1156	82.0
315.15933	81.0
273.14731	79.0
236.12161	78.0
242.12645	76.0
170.07359	73.0
193.0645	72.0
193.08763	71.0
131.04785	67.0
163.07376	66.0
253.12363	65.0
107.08624	64.0
81.07001	64.0
226.09894	63.0
71.08581	63.0
271.16806	63.0
57.07106	62.0
184.08774	61.0
231.10097	60.0
167.04987	59.0
191.08414	59.0
91.05565	59.0
239.10173	59.0
147.04314	57.0
225.12802	56.0
214.09831	56.0
173.09224	55.0
233.11681	55.0
183.11632	55.0
197.05722	54.0
145.10306	53.0
219.11292	52.0
159.07884	52.0
249.13026	50.0
315.08807	50.0
267.13989	50.0
177.07323	50.0
179.10953	50.0
139.05394	49.0
168.05646	48.0
174.06644	48.0
190.07956	47.0
57.03333	46.0
227.14131	46.0
297.16922	45.0
202.07948	45.0
267.17349	44.0
188.07834	44.0
143.06573	43.0
165.05206	43.0
223.14563	43.0
167.07393	42.0
125.09633	42.0
181.08893	42.0
256.14615	42.0
117.07072	42.0
282.16522	41.0
217.08655	41.0
300.06329	41.0
264.1485	41.0
105.06683	41.0
210.10313	40.0
279.15768	40.0
103.05074	40.0
151.04977	40.0
237.09331	40.0
205.09932	38.0
164.06079	37.0
287.19693	36.0
191.07195	36.0
240.11444	36.0
79.05536	36.0
160.05	35.0
250.13298	34.0
157.05086	34.0
131.08484	33.0
77.03768	32.0
186.06233	32.0
152.04567	31.0
204.09068	31.0
200.0533	31.0
137.09868	31.0
257.14246	30.0
224.08441	29.0
176.05943	28.0
272.14142	27.0
119.08424	27.0
192.08865	26.0
189.06012	24.0
199.05716	23.0
111.07742	22.0
80.06084	12.0
53.04071	12.0

MSID: 9009
ID: 214
RETENTIONTIME: 28.58622
PRECURSORMZ: 301.1799
AREA: 2479557.75
PRECURSORTYPE: [M+H]+
SMILES: [H][C@@]12CC(=O)C3=C(C=C(C)C(=C3)C(O)=O)[C@@]1(C)CCCC2(C)C
NAME: margolone
FORMULA: C19H24O3
INCHIKEY: GIJYIDPOODRNAM-QFBILLFUSA-N
CAS: 120092-51-5
Molecular Weight: 300.398
Number of References: 5
Class: Podocarpane diterpenoids
Superclass: Diterpenoids
Pathway: Terpenoids
ppm: -0.4700000000639193
CMID: CM243
IONMODE: Positive
COLLISIONENERGY: 40±20eV
INSTRUMENTTYPE: AB SCIEX
INSTRUMENT: Q-TOF
Comment:  
Num Peaks: 182
273.18436	1315.0
301.18045	827.0
231.10081	766.0
231.13803	549.0
217.12248	525.0
157.06302	413.0
69.07056	359.0
175.07565	328.0
241.12152	327.0
203.10533	312.0
213.12766	254.0
223.11037	237.0
215.10678	228.0
283.16782	220.0
183.08174	211.0
189.0546	204.0
128.06136	202.0
191.10838	194.0
165.09096	180.0
161.06131	177.0
129.07303	169.0
259.13281	169.0
145.06404	167.0
173.05862	166.0
253.16086	153.0
216.0789	152.0
141.06831	150.0
131.04887	148.0
245.11635	147.0
205.08516	146.0
189.09232	144.0
171.08145	142.0
213.09048	141.0
185.09625	137.0
165.06831	136.0
229.12041	135.0
190.06187	132.0
195.11649	131.0
143.04924	131.0
211.11214	130.0
197.09695	129.0
185.0616	125.0
283.13651	120.0
153.06895	116.0
181.06509	116.0
163.07616	115.0
201.09344	112.0
149.06055	112.0
199.11368	109.0
143.08556	107.0
203.06905	102.0
179.0845	102.0
155.08456	102.0
199.07498	101.0
169.09908	100.0
55.05303	98.0
243.13774	91.0
152.06247	91.0
188.08224	90.0
205.12303	86.0
215.07088	84.0
167.08774	83.0
179.07008	81.0
208.09056	79.0
255.17662	79.0
168.09444	78.0
127.05589	78.0
180.0925	75.0
207.08305	75.0
219.09973	75.0
239.13943	75.0
230.12961	74.0
123.03991	73.0
187.07487	72.0
142.07748	71.0
183.11356	70.0
171.11731	69.0
215.10104	68.0
195.07956	67.0
271.16949	66.0
301.14645	64.0
105.06877	64.0
198.06889	63.0
103.05464	63.0
257.1517	63.0
154.07632	63.0
157.09862	63.0
144.05841	62.0
202.10162	60.0
200.08502	58.0
265.16006	58.0
178.07935	57.0
203.09557	56.0
173.09598	56.0
133.06459	55.0
255.13908	54.0
227.10573	54.0
259.16278	52.0
160.05113	52.0
169.06468	52.0
225.1264	52.0
174.07021	51.0
233.11516	51.0
212.08234	51.0
158.07112	50.0
197.06259	50.0
237.12482	49.0
184.08894	49.0
212.12083	49.0
225.09261	49.0
117.06958	48.0
159.08121	48.0
59.04931	48.0
67.05547	48.0
156.09486	48.0
166.07901	47.0
137.06189	47.0
147.0466	46.0
182.07335	45.0
265.12018	45.0
77.03763	44.0
201.08372	43.0
91.05372	42.0
95.08607	42.0
207.11687	42.0
115.05537	42.0
193.09975	42.0
210.13991	41.0
185.13356	41.0
259.12494	41.0
181.10332	40.0
223.09721	40.0
226.10025	40.0
240.11276	40.0
203.08859	40.0
170.07094	39.0
71.04861	37.0
93.06937	37.0
254.13104	37.0
237.16101	36.0
83.08408	35.0
177.05226	35.0
173.04573	35.0
222.10358	35.0
172.08723	35.0
225.16608	35.0
184.05307	34.0
159.04167	34.0
301.07169	34.0
81.06731	34.0
196.08902	34.0
240.12338	33.0
166.07271	33.0
135.07974	32.0
239.10309	32.0
191.07588	31.0
197.13271	31.0
170.10925	30.0
228.11343	29.0
167.05103	28.0
187.11105	28.0
214.06235	28.0
231.077	27.0
209.09486	27.0
217.08351	26.0
193.12152	25.0
121.10299	25.0
189.04114	25.0
255.10153	25.0
189.02768	24.0
139.05499	24.0
69.06161	24.0
253.12657	23.0
250.13747	23.0
187.04005	23.0
79.05705	23.0
53.03854	22.0
152.05522	22.0
188.04866	21.0
293.89432	12.0
57.07102	12.0
51.02521	12.0

MSID: 9010
ID: 379
RETENTIONTIME: 32.04302
PRECURSORMZ: 329.1754
AREA: 2432097.75
PRECURSORTYPE: [M+H]+
SMILES: CC(C)C1=CC2=C(C(=O)C1=O)C(CCC(=O)C(C)(C)O)=C(C)C=C2
NAME: 8-(4-Hydroxy-4-methyl-3-oxo-pentyl)-3-isopropyl-7-methyl-[1,2]naphthoquinone
FORMULA: C20H24O4
INCHIKEY: VDYQVYQVQLEJQY-UHFFFAOYSA-N
CAS: nan
Molecular Weight: 328.408
Number of References: 3
Class: Secoabietane diterpenoids
Superclass: Diterpenoids
Pathway: Terpenoids
ppm: 0.11499999999387
CMID: CM243
IONMODE: Positive
COLLISIONENERGY: 40±20eV
INSTRUMENTTYPE: AB SCIEX
INSTRUMENT: Q-TOF
Comment:  
Num Peaks: 178
329.1741	1082.0
261.11206	582.0
311.16422	553.0
272.10733	303.0
273.11151	294.0
314.15326	284.0
269.11389	207.0
257.08105	203.0
253.08452	170.0
245.1179	158.0
211.07515	149.0
259.09656	148.0
223.11478	127.0
296.13837	127.0
268.11227	124.0
229.05075	114.0
219.06349	107.0
227.10574	105.0
251.10962	104.0
286.12061	103.0
255.10155	102.0
225.08968	99.0
227.06589	99.0
274.12244	98.0
241.08504	95.0
283.16617	94.0
253.12346	93.0
271.09854	92.0
273.15036	91.0
165.06831	90.0
213.05618	90.0
179.08583	89.0
231.0636	88.0
241.12154	83.0
301.18045	83.0
254.0936	80.0
285.11258	78.0
217.04745	77.0
293.15436	77.0
189.05595	76.0
191.07048	76.0
272.09439	74.0
203.07185	73.0
281.11639	72.0
299.12906	72.0
197.06259	69.0
208.08493	69.0
183.08308	68.0
267.10291	68.0
287.16855	67.0
243.10568	67.0
215.10536	65.0
213.0905	64.0
229.08929	64.0
197.09834	64.0
212.08092	60.0
235.07367	58.0
265.16006	58.0
207.08447	57.0
271.134	57.0
178.07674	56.0
233.11667	56.0
239.07584	56.0
175.07826	56.0
243.06903	56.0
201.05318	55.0
193.06709	55.0
195.0782	54.0
167.08649	53.0
283.12991	52.0
181.06509	51.0
230.05385	51.0
237.08864	51.0
301.17368	50.0
250.09875	50.0
269.15085	50.0
199.075	50.0
185.06161	49.0
257.11716	49.0
173.05992	49.0
236.08534	49.0
185.09358	48.0
152.06126	48.0
239.10765	48.0
209.09488	48.0
180.09514	47.0
245.07803	46.0
225.12788	46.0
273.18436	46.0
239.06978	46.0
203.03278	46.0
129.06859	45.0
286.1554	44.0
287.12375	44.0
195.11377	44.0
157.06425	43.0
143.05042	43.0
278.12756	43.0
314.14285	43.0
205.1006	43.0
240.07483	42.0
153.07138	42.0
145.06287	41.0
154.07877	39.0
214.06378	38.0
263.1004	38.0
300.13098	37.0
166.07649	36.0
235.10971	36.0
267.13812	35.0
329.11725	35.0
268.07376	35.0
182.07071	34.0
217.08498	34.0
199.11093	34.0
143.08557	34.0
248.1001	33.0
133.06798	33.0
194.10818	33.0
105.06777	33.0
226.09732	32.0
247.09991	31.0
215.06657	31.0
256.07233	31.0
128.06248	31.0
228.07796	31.0
259.08713	31.0
141.07181	30.0
187.07489	30.0
223.0782	30.0
205.08377	29.0
329.13678	29.0
171.08273	29.0
69.03313	29.0
240.11125	29.0
155.08701	28.0
210.06894	28.0
261.07883	28.0
282.13049	28.0
222.10504	28.0
169.06851	28.0
221.05829	27.0
256.10992	27.0
225.05441	27.0
179.07404	27.0
198.07028	27.0
329.09592	26.0
233.09573	26.0
259.13126	26.0
249.093	26.0
299.10703	25.0
109.10127	25.0
201.08791	25.0
209.05948	25.0
219.0519	24.0
268.09464	24.0
191.0407	24.0
238.1001	24.0
98.98643	24.0
265.15051	23.0
174.06892	23.0
233.07181	23.0
152.04919	22.0
329.08173	22.0
190.06323	22.0
98.98157	22.0
252.08211	22.0
270.12701	22.0
219.09975	21.0
244.0748	20.0
203.10953	20.0
274.10785	20.0
314.12027	19.0
95.08704	18.0
309.14792	13.0
55.28072	12.0
81.06908	12.0
53.03783	12.0

MSID: 9011
ID: 394
RETENTIONTIME: 32.22093
PRECURSORMZ: 315.1588
AREA: 2362591.5
PRECURSORTYPE: [M+H]+
SMILES: C[C@H](CO)C1=C(O)C(=O)C2=C(C=CC3=C2CCCC3(C)C)C1=O
NAME: (+)-neocryptotanshinone
FORMULA: C19H22O4
INCHIKEY: PKEGICXVZMKJPR-SNVBAGLBSA-N
CAS: nan
Molecular Weight: 314.381
Number of References: 3
Class: Abeoabietane diterpenoids
Superclass: Diterpenoids
Pathway: Terpenoids
ppm: -0.8350000000518776
CMID: CM243
IONMODE: Positive
COLLISIONENERGY: 40±20eV
INSTRUMENTTYPE: AB SCIEX
INSTRUMENT: Q-TOF
Comment:  
Num Peaks: 192
315.1593	13146.0
272.10422	2680.0
297.14893	1447.0
286.12073	1397.0
300.1362	1105.0
255.1001	1066.0
257.07959	974.0
209.09497	951.0
229.04938	758.0
211.07524	705.0
269.15256	691.0
239.0714	590.0
243.06609	578.0
273.11163	542.0
237.09024	523.0
285.11105	454.0
254.0937	440.0
267.10303	437.0
165.06964	408.0
282.12567	408.0
239.10623	365.0
201.05327	343.0
279.13638	337.0
227.10732	332.0
251.14078	307.0
226.09889	307.0
221.09624	278.0
271.09705	254.0
213.05486	252.0
197.05994	244.0
181.10077	241.0
253.08463	200.0
254.13116	198.0
225.09123	184.0
193.10121	179.0
178.07812	178.0
225.05745	175.0
240.07494	175.0
249.09157	165.0
185.05902	163.0
215.07242	160.0
166.07909	155.0
230.05544	154.0
229.08643	147.0
179.08591	133.0
244.07184	130.0
183.07918	129.0
236.12006	128.0
264.11502	128.0
194.07416	122.0
173.0587	121.0
269.1188	119.0
221.05838	118.0
257.11728	115.0
209.08221	112.0
155.08586	111.0
169.06349	109.0
231.06371	109.0
153.06903	108.0
181.06519	108.0
207.08032	107.0
273.10355	107.0
258.08557	102.0
193.06583	99.0
141.06955	95.0
242.0563	91.0
268.11237	91.0
227.06747	87.0
168.05769	84.0
212.08243	83.0
128.06253	81.0
180.0939	79.0
243.09814	79.0
139.05623	78.0
208.09067	78.0
191.08411	78.0
157.0631	76.0
152.06134	74.0
224.08144	74.0
251.10974	73.0
199.1124	72.0
252.08066	72.0
219.07954	70.0
229.03307	69.0
235.07378	69.0
226.05913	68.0
236.08244	67.0
187.07362	67.0
300.11752	66.0
190.07951	66.0
195.07828	66.0
203.0831	65.0
187.11247	63.0
256.07556	63.0
241.08362	63.0
210.06761	62.0
184.05183	61.0
145.06529	60.0
197.09843	58.0
259.09668	58.0
227.13979	57.0
257.06546	57.0
161.0589	57.0
127.05484	55.0
223.07538	55.0
191.07327	55.0
254.07652	54.0
167.04985	54.0
282.10593	53.0
222.06865	53.0
167.08403	52.0
255.07507	52.0
297.1236	52.0
231.09944	51.0
169.1017	51.0
208.12033	50.0
206.06964	49.0
155.04927	49.0
201.08937	49.0
198.06622	49.0
182.07211	49.0
247.0954	48.0
238.09868	48.0
229.12201	47.0
234.07027	47.0
205.06563	46.0
181.05464	45.0
202.07666	45.0
261.12326	45.0
250.09886	45.0
212.04535	44.0
209.07513	43.0
200.04771	43.0
213.09059	43.0
129.07086	43.0
237.12492	42.0
270.0885	42.0
242.09441	42.0
159.08005	41.0
189.05739	41.0
151.05215	40.0
193.09167	39.0
283.13168	39.0
171.07768	39.0
281.11652	39.0
183.04474	39.0
215.10689	39.0
184.09169	38.0
265.12509	38.0
143.08446	38.0
273.08899	36.0
67.0555	36.0
245.11034	36.0
253.12514	36.0
207.06624	36.0
185.09367	35.0
300.06494	35.0
211.10797	35.0
213.02197	35.0
217.09949	34.0
233.1347	34.0
284.10318	32.0
218.10648	32.0
131.08594	32.0
267.07101	31.0
163.07498	31.0
238.06694	31.0
239.04718	30.0
95.08612	30.0
171.04309	30.0
153.06055	29.0
174.0677	28.0
194.11099	28.0
214.061	27.0
287.11722	27.0
192.09404	27.0
147.04311	26.0
199.06955	26.0
228.04256	26.0
233.08087	26.0
240.10985	26.0
175.07315	25.0
179.06886	25.0
209.05815	25.0
263.10049	25.0
287.20023	25.0
232.0876	24.0
115.05123	24.0
255.06255	24.0
215.02933	21.0
133.06126	14.0
83.08679	12.0

MSID: 9012
ID: 259
RETENTIONTIME: 29.74593
PRECURSORMZ: 347.1844
AREA: 2302738.5
PRECURSORTYPE: [M+H]+
SMILES: [H][C@@]12C[C@@H]3OC(=O)[C@@]1(CCCC2(C)C)C1=C(O)C(O)=C(C=C31)[C@@H](C)CO
NAME: 16-hydroxycarnosol
FORMULA: C20H26O5
INCHIKEY: MWLHJCBZAWPKEY-UEHSGRLWSA-N
CAS: 149697-32-5
Molecular Weight: 346.423
Number of References: 5
Class: Abietane diterpenoids
Superclass: Diterpenoids
Pathway: Terpenoids
ppm: -1.4500000000339242
CMID: CM243
IONMODE: Positive
COLLISIONENERGY: 40±20eV
INSTRUMENTTYPE: AB SCIEX
INSTRUMENT: Q-TOF
Comment:  
Num Peaks: 211
231.10226	8017.0
301.17871	6990.0
347.18671	5178.0
329.17581	2622.0
189.05458	1650.0
259.16904	1054.0
283.17105	818.0
259.13437	740.0
216.07744	721.0
165.09219	669.0
219.0997	600.0
241.123	582.0
245.11784	513.0
161.06003	438.0
55.05375	404.0
217.12389	399.0
259.16275	376.0
223.11327	363.0
319.19	345.0
205.08513	343.0
311.16071	325.0
203.07181	323.0
269.11703	319.0
149.05933	288.0
179.10677	286.0
203.10809	270.0
157.06422	266.0
213.09189	258.0
243.10258	245.0
233.11661	234.0
199.07634	199.0
175.07434	193.0
83.08674	186.0
107.08514	179.0
285.14893	179.0
185.05757	178.0
173.05859	167.0
227.10718	165.0
188.08356	165.0
265.16	164.0
215.10675	163.0
225.08815	153.0
69.06892	146.0
145.0652	146.0
191.07179	140.0
198.06747	140.0
197.09692	139.0
287.12866	137.0
277.18262	137.0
185.09488	136.0
227.0688	135.0
167.10544	135.0
268.10901	133.0
171.08014	132.0
177.05484	132.0
159.04536	131.0
213.12334	128.0
123.04424	126.0
143.04922	126.0
181.06375	124.0
131.04886	120.0
174.0676	119.0
251.10336	118.0
273.18268	118.0
255.17502	116.0
191.10429	114.0
189.08958	113.0
255.10463	113.0
240.11121	113.0
163.07489	112.0
201.09064	112.0
187.07753	110.0
195.11783	108.0
258.1279	108.0
257.11713	104.0
199.11365	103.0
165.06953	102.0
95.08606	100.0
170.07091	99.0
141.06946	99.0
209.08209	95.0
137.05957	88.0
183.08304	87.0
208.08771	84.0
283.15292	82.0
128.06355	80.0
271.12912	79.0
195.08089	77.0
147.04538	77.0
197.0598	72.0
293.1543	71.0
211.07227	71.0
111.08042	70.0
242.09578	70.0
153.07014	70.0
91.05557	69.0
201.05592	69.0
159.08365	68.0
180.08853	66.0
129.06967	66.0
169.06339	66.0
269.10901	65.0
286.11887	64.0
209.09483	64.0
207.0661	64.0
184.05038	62.0
142.07863	61.0
347.15933	59.0
207.09853	59.0
221.08154	58.0
163.04112	58.0
268.14749	57.0
181.08746	57.0
200.04205	56.0
218.09332	55.0
160.05112	55.0
253.08601	55.0
167.08266	53.0
149.09641	53.0
247.09525	52.0
239.10457	52.0
157.0986	52.0
212.08372	52.0
133.06458	52.0
152.06244	52.0
155.08453	51.0
269.14917	51.0
181.10196	51.0
267.14285	50.0
237.16098	50.0
115.05221	50.0
253.12497	49.0
229.08331	48.0
67.05466	48.0
171.11601	48.0
71.04777	48.0
103.05662	48.0
143.08319	48.0
191.08263	47.0
190.0605	47.0
263.12735	46.0
243.13617	45.0
55.01814	44.0
173.09724	44.0
166.07773	44.0
150.06664	44.0
219.13884	44.0
296.14001	43.0
283.1315	43.0
205.1216	42.0
233.10765	42.0
257.1077	40.0
103.04866	40.0
239.07277	40.0
182.07332	40.0
231.13503	39.0
117.06956	39.0
193.10245	39.0
57.03403	38.0
203.08995	38.0
156.09483	38.0
232.10835	38.0
189.03842	38.0
223.07816	38.0
205.05006	37.0
200.08499	37.0
189.02629	37.0
233.08073	37.0
187.10968	36.0
241.08803	36.0
125.09622	36.0
105.06674	36.0
93.0703	36.0
235.11118	36.0
299.16626	36.0
237.10818	35.0
221.09319	35.0
81.07259	34.0
226.09727	34.0
187.03734	34.0
222.10062	34.0
209.05943	34.0
79.0553	33.0
161.04636	33.0
83.05014	33.0
193.12013	32.0
228.07939	32.0
197.05431	32.0
193.08475	31.0
231.071	31.0
267.10446	30.0
202.05983	30.0
282.12384	30.0
143.04102	29.0
121.10081	28.0
199.06252	28.0
254.13101	28.0
157.09369	28.0
165.05569	27.0
285.12906	26.0
239.14091	26.0
224.08423	26.0
198.04543	25.0
268.08493	25.0
261.15314	25.0
155.04916	24.0
190.07671	24.0
186.06351	22.0
144.05486	21.0
139.03534	18.0
55.49938	12.0

MSID: 9013
ID: 232
RETENTIONTIME: 28.91302
PRECURSORMZ: 331.1899
AREA: 2272811.75
PRECURSORTYPE: [M+H]+
SMILES: [H][C@]12CCC=C3C(=O)OC[C@@]13C[C@@H](O)[C@@H](C)[C@]2(C)CCC1=COC=C1
NAME: 1-deoxybacrispine
FORMULA: C20H26O4
INCHIKEY: AQIUXCCPCWXHJS-WNRRLTEBSA-N
CAS: 78499-91-9
Molecular Weight: 330.424
Number of References: 4
Class: Colensane and Clerodane diterpenoids
Superclass: Diterpenoids
Pathway: Terpenoids
ppm: -1.0350000000016735
CMID: CM243
IONMODE: Positive
COLLISIONENERGY: 40±20eV
INSTRUMENTTYPE: AB SCIEX
INSTRUMENT: Q-TOF
Comment:  
Num Peaks: 271
215.10674	29983.0
229.12332	9586.0
200.08359	6053.0
313.18182	3424.0
141.0706	2736.0
169.06465	2201.0
159.08116	1575.0
295.1683	1361.0
153.06891	1280.0
182.0733	1090.0
154.07872	915.0
181.06505	906.0
185.09486	805.0
165.06952	767.0
157.06544	716.0
152.06122	701.0
285.18527	690.0
331.19211	635.0
187.07617	603.0
195.08087	591.0
211.11209	590.0
128.06355	590.0
203.10669	566.0
155.08574	537.0
183.08038	528.0
171.08012	526.0
129.06966	513.0
167.08644	506.0
243.13768	499.0
253.1234	489.0
173.05858	484.0
257.11865	479.0
213.09044	463.0
197.09691	444.0
199.07632	442.0
143.0867	435.0
235.11415	433.0
271.13232	423.0
172.08849	417.0
111.08041	411.0
191.10698	399.0
143.04921	396.0
145.06519	384.0
168.09312	378.0
239.10606	354.0
197.05978	352.0
55.05519	343.0
131.08585	339.0
255.13589	309.0
186.0675	309.0
223.11179	302.0
201.09201	298.0
169.10031	292.0
142.07861	292.0
196.08623	288.0
183.11748	286.0
83.05013	282.0
283.1694	280.0
170.07344	274.0
187.11234	274.0
252.11469	271.0
178.0793	263.0
144.05719	261.0
179.08446	257.0
115.05325	257.0
214.09955	245.0
69.06892	244.0
209.09764	244.0
199.11363	242.0
131.04997	242.0
149.06171	235.0
231.10075	228.0
237.12929	227.0
158.07231	226.0
127.05475	223.0
161.06003	211.0
277.15976	209.0
157.10104	206.0
207.114	205.0
225.12929	205.0
193.10243	204.0
201.13091	203.0
227.10568	196.0
225.09108	195.0
267.17166	195.0
243.10408	192.0
185.06155	190.0
173.09465	186.0
151.05446	173.0
171.04297	163.0
166.07771	158.0
139.05382	156.0
195.11644	155.0
241.1245	149.0
91.05463	148.0
211.07794	146.0
271.16782	144.0
168.05377	142.0
192.09526	139.0
207.07877	137.0
219.08228	130.0
240.11574	130.0
193.06705	128.0
267.13965	127.0
165.08966	127.0
189.09091	127.0
83.08495	125.0
205.08511	119.0
220.08803	118.0
103.05561	118.0
177.06915	118.0
93.06935	115.0
217.10078	115.0
224.08275	113.0
55.01814	111.0
208.08769	111.0
242.09727	109.0
270.12534	108.0
238.10002	106.0
186.1049	106.0
261.11197	105.0
155.05037	103.0
217.12099	103.0
207.10414	102.0
175.07692	102.0
174.06758	101.0
226.09872	97.0
213.12617	97.0
167.04846	94.0
107.08513	94.0
224.1194	87.0
221.09462	87.0
77.03848	87.0
95.08605	85.0
249.16559	85.0
180.09114	84.0
253.15767	83.0
212.08656	83.0
184.0889	79.0
280.1434	79.0
209.13448	78.0
227.07173	78.0
205.12158	77.0
255.10304	77.0
223.07375	76.0
205.10194	76.0
201.05591	76.0
202.0974	74.0
67.05465	74.0
71.04942	74.0
173.05342	73.0
265.12332	73.0
265.15839	73.0
249.12694	73.0
189.07207	71.0
161.09856	71.0
194.07538	71.0
189.05186	70.0
234.10307	69.0
147.04419	69.0
179.07397	68.0
200.06281	68.0
251.1468	67.0
245.15309	67.0
301.17868	67.0
203.08435	66.0
331.15646	66.0
331.17075	66.0
194.11086	66.0
185.07755	66.0
219.11417	66.0
163.07738	65.0
262.13535	65.0
198.06883	64.0
190.06319	64.0
228.11487	62.0
176.06187	62.0
214.05942	62.0
97.06454	61.0
188.08623	60.0
275.13187	60.0
117.07061	59.0
123.08117	58.0
233.1151	58.0
153.05922	58.0
239.1409	57.0
202.07651	56.0
231.14096	56.0
59.04929	55.0
210.10295	55.0
219.07648	54.0
57.03254	54.0
160.05357	53.0
289.14188	53.0
150.04623	53.0
119.08306	53.0
135.07971	52.0
219.13882	51.0
193.09425	51.0
269.15396	51.0
210.06746	51.0
144.09247	50.0
177.05742	50.0
271.09845	50.0
211.06371	50.0
246.08786	50.0
331.13687	49.0
237.16246	48.0
247.11369	48.0
313.13156	48.0
206.10745	47.0
145.0994	47.0
81.06906	47.0
275.11563	46.0
109.06647	46.0
79.05267	46.0
140.05923	45.0
209.06224	45.0
159.04288	45.0
245.11783	43.0
205.06688	42.0
222.10643	42.0
137.05841	40.0
247.13217	40.0
196.12463	40.0
227.147	40.0
171.11728	40.0
165.0582	39.0
255.11868	39.0
216.11629	39.0
277.13855	39.0
230.13252	39.0
123.04423	39.0
227.09091	39.0
214.40202	37.0
215.078	37.0
164.0619	36.0
254.12787	36.0
182.11031	36.0
197.12854	36.0
259.13275	35.0
234.14203	35.0
233.08369	35.0
209.08774	35.0
163.05235	34.0
266.13211	34.0
172.05251	34.0
105.06975	34.0
248.11853	33.0
295.13129	33.0
181.08482	33.0
200.05034	33.0
131.07127	33.0
170.10794	32.0
256.1412	32.0
206.06949	31.0
303.16034	31.0
224.07394	30.0
210.09727	30.0
239.18027	29.0
298.15747	28.0
85.06506	28.0
236.11838	28.0
173.07919	26.0
268.14426	25.0
218.07016	25.0
144.03839	24.0
295.19186	24.0
97.05296	12.0
90.04253	12.0
51.99238	12.0

MSID: 9014
ID: 373
RETENTIONTIME: 31.80722
PRECURSORMZ: 291.1954
AREA: 2264482.75
PRECURSORTYPE: [M+H]+
SMILES: CC1=CC2=C(C=C1O)[C@@]1(CO2)CCCC(C)(C)[C@@H]1CCO
NAME: abrotafuran
FORMULA: C18H26O3
INCHIKEY: QPXOEGOTDMBBFH-WMZOPIPTSA-N
CAS: nan
Molecular Weight: 290.403
Number of References: 1
Class: nan
Superclass: Diterpenoids
Pathway: Terpenoids
ppm: -0.6200000000262662
CMID: CM243
IONMODE: Positive
COLLISIONENERGY: 40±20eV
INSTRUMENTTYPE: AB SCIEX
INSTRUMENT: Q-TOF
Comment:  
Num Peaks: 105
67.0547	1647.0
91.05284	939.0
95.04889	930.0
79.05361	675.0
81.06913	466.0
57.03407	460.0
105.06983	458.0
55.05451	411.0
273.18451	387.0
131.0826	332.0
147.07994	313.0
93.06848	305.0
129.06976	304.0
143.08565	303.0
117.06965	290.0
77.03854	284.0
145.10069	268.0
65.03864	230.0
109.06348	222.0
95.08517	214.0
128.06033	205.0
55.01746	203.0
159.11589	167.0
121.06535	165.0
119.0853	162.0
107.04772	159.0
115.05334	158.0
133.10081	157.0
69.06898	155.0
217.15724	137.0
85.06422	131.0
53.03857	128.0
133.06467	124.0
107.08522	122.0
157.10117	114.0
161.09496	108.0
141.07072	105.0
175.11205	101.0
135.08096	100.0
97.06462	94.0
116.06194	90.0
142.07874	86.0
183.11763	85.0
171.11613	84.0
103.05272	82.0
291.19751	81.0
111.08051	80.0
163.11253	79.0
147.11676	79.0
201.12828	78.0
199.14835	77.0
169.10172	77.0
69.03235	77.0
255.17365	75.0
71.047	69.0
83.08769	67.0
130.07759	65.0
227.17525	65.0
109.10133	65.0
121.10091	65.0
145.06531	64.0
155.08344	64.0
149.09412	63.0
127.05264	57.0
195.11661	56.0
245.19011	56.0
173.13217	56.0
51.02244	51.0
237.16115	50.0
137.09407	50.0
149.13239	48.0
205.12035	48.0
173.09351	47.0
177.12665	47.0
219.14046	47.0
123.0791	46.0
185.12967	45.0
181.1021	45.0
163.07626	42.0
137.05853	40.0
187.10982	40.0
81.03386	38.0
135.11398	37.0
233.15567	36.0
97.1013	36.0
146.07326	36.0
185.09636	34.0
69.02747	32.0
132.05771	31.0
167.08405	28.0
157.06189	28.0
95.06417	27.0
156.09251	26.0
94.03756	25.0
119.05003	24.0
227.14276	24.0
123.04433	23.0
106.07917	22.0
183.10968	13.0
203.12221	13.0
115.04494	13.0
74.01624	12.0
69.30033	12.0
63.02458	12.0
97.62894	12.0

MSID: 9015
ID: 186
RETENTIONTIME: 27.64393
PRECURSORMZ: 297.1855
AREA: 2244014.75
PRECURSORTYPE: [M+H]+
SMILES: CC(C)C1=CC(=O)C2=C(C=CC(C)=C2CCCC(C)=C)C1=O
NAME: 12-deoxysalvipisone
FORMULA: C20H24O2
INCHIKEY: QZHCFWZNJMMIQX-UHFFFAOYSA-N
CAS: nan
Molecular Weight: 296.409
Number of References: 8
Class: Secoabietane diterpenoids
Superclass: Diterpenoids
Pathway: Terpenoids
ppm: 0.04499999994322934
CMID: CM243
IONMODE: Positive
COLLISIONENERGY: 40±20eV
INSTRUMENTTYPE: AB SCIEX
INSTRUMENT: Q-TOF
Comment:  
Num Peaks: 120
297.18427	1921.0
237.12938	455.0
241.12155	393.0
165.06833	346.0
255.13911	345.0
153.06897	295.0
215.10538	259.0
279.17392	258.0
181.06512	254.0
179.08585	242.0
167.08397	241.0
223.11041	229.0
195.07959	228.0
152.06371	222.0
254.12796	217.0
209.09773	216.0
193.10114	209.0
95.08418	204.0
239.10616	197.0
213.09195	193.0
180.09253	175.0
178.07938	175.0
199.07364	159.0
221.09471	143.0
225.09117	139.0
227.10577	135.0
209.13171	121.0
200.08366	111.0
251.14224	109.0
268.14276	109.0
211.0766	106.0
181.10202	104.0
67.05387	104.0
208.08636	100.0
166.07651	99.0
235.11424	96.0
141.0695	95.0
203.10397	94.0
191.08539	93.0
197.09561	91.0
253.12349	91.0
207.11691	81.0
182.07338	81.0
251.18105	80.0
207.07603	78.0
236.11998	76.0
282.16342	73.0
192.09262	71.0
194.07137	69.0
195.11789	68.0
212.08093	67.0
189.07079	63.0
222.10652	62.0
269.15408	62.0
198.06616	61.0
69.06895	59.0
157.06305	58.0
226.09441	57.0
197.05986	55.0
151.05452	54.0
221.13403	54.0
173.06122	54.0
107.08619	54.0
229.12489	53.0
145.06288	53.0
169.06471	52.0
205.10062	52.0
129.07083	51.0
177.06792	50.0
203.08862	50.0
250.1313	50.0
267.13654	48.0
249.1255	48.0
183.07913	48.0
240.11432	46.0
155.0858	44.0
93.06938	43.0
165.09099	43.0
190.07675	43.0
149.06177	43.0
154.07391	42.0
191.10434	42.0
115.05225	40.0
189.08696	40.0
143.08559	39.0
202.07799	38.0
209.12747	37.0
128.06027	37.0
220.08667	37.0
131.05002	35.0
57.06881	34.0
193.06577	34.0
55.05304	34.0
204.08919	33.0
256.14758	33.0
217.12106	33.0
224.07697	32.0
242.13091	32.0
201.08792	32.0
206.07239	32.0
161.05884	31.0
91.05467	31.0
264.14993	30.0
199.11095	30.0
239.08949	29.0
171.0789	29.0
281.04745	29.0
210.06897	29.0
185.0643	26.0
180.05835	26.0
184.05708	24.0
175.07698	24.0
79.05532	23.0
237.10223	23.0
187.11375	22.0
142.0775	22.0
172.08598	21.0
147.04425	19.0
141.0602	13.0
52.00653	12.0

MSID: 9016
ID: 309
RETENTIONTIME: 30.86142
PRECURSORMZ: 315.1953
AREA: 2217131.0
PRECURSORTYPE: [M+H]+
SMILES: CC(C)C1=CC2=C(C(O)=C1O)[C@@]1(C)CCCC(C)(C)C1=CC2=O
NAME: salvinolone
FORMULA: C20H26O3
INCHIKEY: NPADGWOASIJKSB-FQEVSTJZSA-N
CAS: 120278-22-0
Molecular Weight: 314.425
Number of References: 13
Class: Abietane diterpenoids
Superclass: Diterpenoids
Pathway: Terpenoids
ppm: -0.7200000000580076
CMID: CM243
IONMODE: Positive
COLLISIONENERGY: 40±20eV
INSTRUMENTTYPE: AB SCIEX
INSTRUMENT: Q-TOF
Comment:  
Num Peaks: 435
217.12639	53904.0
191.1066	23462.0
315.2005	20400.0
273.14835	12994.0
202.0984	11548.0
69.06935	10568.0
55.05411	9593.0
111.08104	9562.0
149.05891	8606.0
175.07523	7881.0
231.13762	7637.0
257.15601	7098.0
131.04956	7019.0
215.1078	6440.0
67.05507	6203.0
205.12401	6176.0
197.09515	6045.0
81.07131	5782.0
95.08566	5710.0
145.06477	5199.0
141.07021	5194.0
189.09053	4837.0
128.06203	4691.0
129.07036	4571.0
297.18726	4512.0
255.14024	4096.0
103.05421	4057.0
157.06627	3551.0
171.08101	3249.0
185.09581	3161.0
97.0651	3122.0
203.10631	2969.0
165.09178	2966.0
163.07571	2963.0
187.07578	2926.0
173.06076	2861.0
79.05402	2861.0
93.06989	2842.0
91.05517	2768.0
83.04885	2657.0
219.13699	2415.0
279.23239	2369.0
115.05389	2366.0
237.12892	2333.0
183.08131	2240.0
177.09091	2193.0
201.09163	2159.0
239.14357	2140.0
195.08049	2112.0
259.134	2102.0
193.12245	2080.0
153.06972	2000.0
245.13742	1932.0
167.08603	1850.0
117.07021	1828.0
143.04997	1754.0
245.12209	1718.0
184.08719	1704.0
169.10118	1703.0
109.10084	1683.0
142.0782	1682.0
77.03894	1632.0
181.06598	1621.0
161.06087	1469.0
169.06552	1448.0
179.10373	1434.0
107.08574	1401.0
179.088	1393.0
127.05434	1377.0
245.15428	1368.0
200.08459	1312.0
147.04497	1275.0
165.07164	1232.0
261.22244	1221.0
105.07135	1220.0
229.12148	1200.0
199.07594	1166.0
152.06203	1132.0
174.06847	1119.0
159.08076	1103.0
143.08395	1086.0
121.10148	1071.0
241.12263	1042.0
155.08534	1013.0
169.08081	995.0
213.09149	989.0
182.07291	967.0
199.09114	963.0
199.09805	960.0
271.16748	952.0
125.0958	936.0
143.07224	934.0
57.0344	873.0
199.11049	842.0
154.07831	833.0
188.08315	829.0
227.1068	803.0
203.10072	800.0
143.05934	799.0
71.04986	793.0
144.05797	765.0
166.07857	759.0
123.04491	714.0
119.08479	694.0
216.11447	685.0
139.11346	664.0
214.09917	614.0
178.07761	554.0
135.11574	533.0
151.0733	526.0
243.13885	520.0
211.11314	520.0
133.06415	519.0
209.13268	516.0
156.0932	515.0
99.08054	513.0
209.09727	507.0
222.10315	482.0
83.06046	479.0
285.18332	466.0
148.05261	460.0
213.11865	453.0
113.09779	453.0
123.11553	451.0
137.05916	450.0
53.03745	443.0
83.08456	434.0
213.10722	421.0
160.05194	416.0
209.12276	414.0
171.09637	406.0
65.03822	391.0
287.19971	386.0
170.07304	385.0
209.1086	385.0
180.09337	373.0
147.11623	369.0
57.0699	365.0
194.1091	353.0
137.13254	346.0
225.09218	343.0
196.08722	342.0
223.10995	335.0
279.17514	334.0
221.09717	320.0
193.10068	319.0
116.06144	306.0
279.2095	306.0
97.07958	298.0
172.08809	296.0
254.12752	291.0
133.1003	290.0
198.10292	275.0
85.06557	265.0
227.14221	261.0
185.07449	259.0
59.04968	252.0
300.06271	248.0
208.08873	247.0
183.09456	239.0
226.09836	237.0
146.07272	236.0
147.07941	236.0
97.09116	235.0
269.1633	234.0
242.13046	234.0
176.08357	231.0
272.14249	228.0
155.07071	223.0
207.09953	222.0
186.06711	221.0
181.09102	214.0
279.18823	208.0
211.07756	203.0
228.1145	202.0
211.14587	200.0
251.17906	200.0
131.0675	199.0
147.05922	197.0
151.05525	190.0
135.08159	185.0
212.08191	182.0
203.07141	182.0
181.09892	181.0
173.13292	178.0
198.06708	177.0
207.08403	172.0
158.07437	170.0
195.0928	168.0
253.15733	165.0
51.02344	165.0
121.06483	164.0
168.09654	164.0
168.05972	162.0
253.12462	162.0
139.05457	161.0
166.071	160.0
236.11803	160.0
240.11539	158.0
227.12894	157.0
261.20819	155.0
162.06798	151.0
192.09352	149.0
152.05598	147.0
168.00639	147.0
201.1069	146.0
155.1073	146.0
173.09683	142.0
185.06117	142.0
216.09431	141.0
137.09929	139.0
235.1093	137.0
243.1297	135.0
211.12878	133.0
177.07266	133.0
159.06471	132.0
209.15251	132.0
207.11926	132.0
251.14491	131.0
183.13962	130.0
183.10782	130.0
194.075	126.0
168.06987	126.0
189.07303	126.0
131.08319	126.0
225.12598	125.0
223.16847	124.0
150.06622	123.0
269.19382	123.0
130.07707	123.0
109.09572	122.0
145.08482	118.0
167.10629	118.0
241.11351	116.0
177.06485	115.0
126.04513	113.0
297.16867	113.0
233.15512	112.0
190.07899	111.0
233.11475	109.0
153.12547	106.0
190.0979	105.0
130.04245	105.0
149.09598	104.0
287.18311	104.0
272.06815	103.0
211.09749	102.0
221.11755	99.0
205.10156	98.0
224.1205	98.0
102.04556	98.0
182.06102	98.0
269.17935	96.0
231.1123	96.0
123.05685	95.0
57.05955	93.0
151.06367	92.0
73.06505	91.0
169.12029	90.0
230.1292	89.0
249.12814	88.0
233.22841	87.0
243.17857	87.0
187.14946	87.0
156.07607	86.0
287.1665	85.0
174.10464	85.0
170.08455	85.0
165.12701	84.0
121.081	83.0
176.06148	80.0
215.07907	80.0
315.08923	80.0
168.07877	79.0
257.11517	79.0
256.14713	79.0
243.21217	79.0
183.11842	78.0
159.11783	78.0
195.10922	77.0
71.08453	76.0
170.10753	76.0
282.16135	75.0
216.41405	75.0
243.1068	73.0
123.07859	73.0
243.203	72.0
196.12561	72.0
230.10245	72.0
119.05059	71.0
225.08043	70.0
229.04588	70.0
195.13521	70.0
174.09431	70.0
267.1329	69.0
268.14392	68.0
140.06114	68.0
240.09869	68.0
287.15488	68.0
181.12132	68.0
187.0999	68.0
151.09016	67.0
160.0668	66.0
243.1129	64.0
137.12451	64.0
151.1347	63.0
163.05446	62.0
133.089	62.0
135.04402	62.0
105.05027	62.0
109.06503	62.0
159.04617	61.0
161.09193	61.0
285.16843	61.0
201.14996	61.0
141.08998	61.0
179.14699	60.0
212.11899	60.0
258.16217	59.0
50.01408	59.0
177.12611	59.0
151.0372	58.0
183.1277	58.0
201.0708	58.0
250.13861	57.0
300.05594	57.0
164.06149	57.0
182.10991	56.0
170.09859	56.0
264.14951	55.0
237.09877	55.0
244.10803	54.0
229.08591	54.0
156.56219	54.0
167.14174	54.0
222.1411	54.0
107.06648	54.0
153.06123	53.0
206.10988	53.0
202.08727	52.0
223.15237	51.0
236.15565	51.0
123.10575	51.0
107.05027	51.0
267.16974	50.0
187.06239	50.0
91.04489	50.0
151.15036	49.0
151.10341	49.0
191.08087	49.0
204.11531	48.0
172.07396	48.0
204.09431	47.0
314.15115	47.0
161.13297	47.0
193.08162	47.0
180.07892	45.0
283.16907	45.0
233.08484	45.0
251.13094	44.0
269.13275	44.0
122.07343	44.0
272.1344	44.0
109.03026	44.0
241.16826	43.0
258.28177	43.0
217.79797	43.0
101.06155	43.0
251.22096	43.0
218.32875	43.0
271.13199	43.0
193.4615	42.0
136.08971	41.0
238.09967	41.0
315.164	40.0
135.07133	40.0
276.25198	40.0
235.13632	40.0
208.10426	40.0
190.06145	40.0
133.05963	39.0
189.05417	39.0
196.46179	38.0
192.07587	38.0
96.05651	38.0
258.12753	38.0
219.10655	38.0
155.05972	38.0
198.04778	38.0
160.08911	37.0
254.11348	37.0
258.10394	36.0
181.15559	35.0
238.13594	34.0
234.1087	34.0
164.07655	34.0
216.42558	34.0
230.38779	34.0
177.04791	34.0
150.04343	33.0
194.64436	33.0
208.12122	33.0
223.13921	32.0
140.01131	32.0
243.07014	32.0
265.94647	32.0
129.05591	30.0
108.05887	30.0
153.10851	30.0
172.04955	30.0
178.06715	29.0
206.07193	29.0
226.0645	29.0
190.06955	29.0
247.13799	28.0
219.52428	28.0
210.07703	28.0
156.06017	28.0
228.07605	27.0
246.12593	27.0
104.06284	27.0
221.07095	26.0
186.10318	25.0
249.11423	24.0
240.08047	24.0
218.09726	24.0
257.03979	23.0
283.14435	21.0
80.06125	20.0
223.09532	20.0
218.12764	20.0
212.07191	20.0
84.02097	18.0
96.74406	18.0
62.58563	12.0

MSID: 9017
ID: 235
RETENTIONTIME: 29.12655
PRECURSORMZ: 345.1691
AREA: 2201757.75
PRECURSORTYPE: [M+H]+
SMILES: [H][C@]12C[C@@H](O)C=C3C(=O)OC[C@@]13CC[C@]1(C)O[C@H](C[C@]21C)C1=COC=C1
NAME: salvisplendin D
FORMULA: C20H24O5
INCHIKEY: NGOVWADMNNYPDU-UYGWLRSGSA-N
CAS: 918802-68-3
Molecular Weight: 344.408
Number of References: 3
Class: Colensane and Clerodane diterpenoids
Superclass: Diterpenoids
Pathway: Terpenoids
ppm: -1.1000000000080945
CMID: CM243
IONMODE: Positive
COLLISIONENERGY: 40±20eV
INSTRUMENTTYPE: AB SCIEX
INSTRUMENT: Q-TOF
Comment:  
Num Peaks: 274
327.1586	10026.0
299.16458	2469.0
271.09528	2149.0
281.15414	1441.0
296.14005	1159.0
253.0876	1103.0
257.11716	976.0
197.09695	934.0
239.10762	911.0
193.1011	911.0
221.09613	872.0
281.11639	864.0
309.14789	849.0
238.09856	823.0
255.10309	774.0
225.08818	711.0
179.08582	704.0
215.10822	673.0
263.14328	667.0
243.10107	656.0
297.14877	593.0
345.16769	580.0
209.09627	519.0
254.09669	473.0
178.07803	409.0
267.13809	376.0
237.09163	354.0
195.07954	337.0
269.11548	332.0
229.04926	330.0
165.06956	330.0
239.14095	329.0
169.09906	329.0
207.07881	318.0
223.11183	315.0
223.07672	307.0
235.14725	303.0
267.10449	301.0
211.11214	300.0
253.12189	299.0
220.12585	294.0
181.06508	294.0
283.13318	268.0
285.1506	262.0
279.13458	258.0
182.07466	244.0
141.07063	241.0
227.07178	233.0
213.09048	228.0
153.06895	218.0
227.10867	214.0
211.03815	213.0
173.05861	213.0
154.07632	213.0
197.05983	212.0
152.06247	208.0
257.15485	205.0
224.08279	200.0
240.07481	199.0
167.08647	199.0
280.14838	194.0
205.10339	191.0
185.06026	188.0
196.08765	188.0
251.14531	187.0
183.08041	182.0
298.15244	181.0
229.0863	178.0
266.09543	176.0
181.10068	175.0
201.09067	174.0
248.12012	173.0
183.04332	170.0
155.0504	168.0
229.12041	166.0
271.17108	165.0
225.0544	164.0
199.07359	164.0
238.13634	164.0
83.04926	163.0
235.11121	161.0
55.05375	159.0
239.0728	159.0
253.15929	158.0
251.10651	153.0
263.10831	152.0
282.12552	151.0
228.08089	149.0
265.12497	148.0
241.08501	145.0
155.08455	144.0
211.07799	142.0
233.0957	142.0
195.11649	142.0
200.08224	141.0
269.15244	138.0
235.07516	138.0
187.07353	135.0
249.09299	134.0
213.0576	133.0
208.08914	127.0
169.06595	126.0
248.0831	122.0
157.06548	120.0
128.06357	120.0
189.07076	119.0
191.08536	117.0
255.13751	116.0
291.13715	112.0
256.10992	111.0
129.06969	111.0
166.07774	109.0
206.07375	106.0
171.08144	105.0
201.05455	104.0
219.07942	103.0
212.08232	100.0
193.09158	99.0
184.08762	93.0
207.11827	93.0
284.10468	91.0
127.05698	90.0
268.10904	90.0
285.11255	88.0
198.06612	87.0
249.12854	87.0
237.12631	86.0
220.08952	84.0
185.09224	84.0
145.06522	84.0
210.06609	83.0
200.049	82.0
203.08578	81.0
210.10583	81.0
215.07088	81.0
194.06996	81.0
224.12091	80.0
206.1089	80.0
228.11639	79.0
180.09381	79.0
202.09883	79.0
236.12144	78.0
168.09317	78.0
158.07234	78.0
299.14258	78.0
157.09984	77.0
222.10211	77.0
247.11221	77.0
183.11885	75.0
267.1189	75.0
192.09395	75.0
143.04924	75.0
187.11372	73.0
202.07933	73.0
143.08556	72.0
159.04414	72.0
69.06812	72.0
190.07538	71.0
228.04095	71.0
219.11566	70.0
240.11275	69.0
211.14771	69.0
142.07631	68.0
81.06996	68.0
226.06343	67.0
294.12772	67.0
217.08784	67.0
264.11487	66.0
215.0881	65.0
221.12962	65.0
204.09334	65.0
256.07385	64.0
295.1347	63.0
184.0504	63.0
207.07318	62.0
234.10162	61.0
230.11177	61.0
238.07892	61.0
256.14597	60.0
223.14841	60.0
242.09276	59.0
214.09673	59.0
232.08897	59.0
252.11319	59.0
217.06619	58.0
238.06833	57.0
117.07169	57.0
270.1254	57.0
209.05804	57.0
284.13934	57.0
217.09938	56.0
255.06711	55.0
193.06436	54.0
69.03312	54.0
173.0947	54.0
251.06615	54.0
97.0636	54.0
234.07016	52.0
271.12109	52.0
278.12592	50.0
231.08295	50.0
245.08415	49.0
159.08119	48.0
139.05499	48.0
250.13591	47.0
57.0688	47.0
250.09409	46.0
268.15073	45.0
245.10101	45.0
156.09363	45.0
153.05925	44.0
222.06708	44.0
276.1124	44.0
203.10672	44.0
187.03737	44.0
279.10187	43.0
168.05762	43.0
131.04887	43.0
296.11139	43.0
55.01888	43.0
243.13467	43.0
227.09244	43.0
195.06587	43.0
327.13202	42.0
151.05449	42.0
238.05322	42.0
225.12344	41.0
182.10638	41.0
245.12862	41.0
177.07179	41.0
160.0536	40.0
312.1376	40.0
159.11578	39.0
59.05006	39.0
196.12193	39.0
164.06319	39.0
229.07445	38.0
175.07565	38.0
167.04596	38.0
189.0923	38.0
259.09497	38.0
171.10193	37.0
201.07121	37.0
261.11203	36.0
226.08994	36.0
247.07373	35.0
149.05696	35.0
161.05757	35.0
202.06403	35.0
197.13133	35.0
235.06015	35.0
144.0584	35.0
282.1568	34.0
67.05386	34.0
203.07043	34.0
269.09619	34.0
119.08415	33.0
262.09891	33.0
145.10178	32.0
179.06354	32.0
221.06117	32.0
265.0867	32.0
198.10609	32.0
147.08104	32.0
201.049	31.0
85.06418	30.0
171.04173	29.0
95.08512	29.0
109.09922	29.0
244.10538	29.0
251.09409	28.0
189.0546	28.0
176.06322	27.0
79.05966	12.0

MSID: 9018
ID: 118
RETENTIONTIME: 22.63465
PRECURSORMZ: 331.1904
AREA: 2173278.25
PRECURSORTYPE: [M+H]+
SMILES: CC(C)C1=CC2=C(O)C(O)=C3C(C)(C)CCC[C@]3(C)C2=C(O)C1=O
NAME: 5,6-didehydro-7-hydroxy-taxodone
FORMULA: C20H26O4
INCHIKEY: JHWIFWLZAZIZIY-HXUWFJFHSA-N
CAS: nan
Molecular Weight: 330.424
Number of References: 4
Class: Abeoabietane diterpenoids
Superclass: Diterpenoids
Pathway: Terpenoids
ppm: -0.5350000000134969
CMID: CM243
IONMODE: Positive
COLLISIONENERGY: 40±20eV
INSTRUMENTTYPE: AB SCIEX
INSTRUMENT: Q-TOF
Comment:  
Num Peaks: 161
215.10849	1345.0
229.12219	473.0
200.08389	403.0
313.18054	395.0
295.17044	370.0
235.11301	268.0
141.06966	189.0
165.06978	182.0
181.06532	146.0
153.07156	144.0
169.06873	136.0
207.11714	132.0
277.16019	128.0
157.06567	126.0
152.06146	113.0
182.07358	113.0
253.12067	111.0
211.07399	103.0
173.06142	103.0
185.09381	102.0
252.11195	99.0
111.08161	97.0
241.12183	94.0
285.1824	93.0
331.19263	92.0
154.08017	89.0
192.09283	87.0
167.08542	85.0
211.10956	84.0
199.11255	83.0
128.06152	82.0
179.08736	82.0
271.13113	81.0
283.16983	78.0
129.07097	77.0
227.1075	77.0
193.06734	76.0
199.07663	75.0
197.09721	75.0
171.08167	75.0
191.08426	73.0
181.10222	71.0
255.1394	71.0
195.11674	71.0
169.10184	71.0
203.10699	69.0
201.0937	68.0
225.13109	68.0
143.08691	67.0
251.14253	66.0
142.07883	65.0
145.0654	65.0
195.08253	64.0
209.0923	64.0
237.09344	64.0
69.06983	64.0
223.11066	63.0
187.07512	63.0
172.08875	61.0
243.13347	60.0
217.12276	60.0
166.07671	59.0
214.09987	59.0
331.15518	59.0
143.0506	57.0
183.08199	57.0
269.15277	56.0
265.1572	55.0
213.09076	53.0
237.12512	53.0
233.09601	52.0
267.17368	52.0
55.05382	49.0
180.09535	46.0
159.08141	44.0
165.0899	44.0
207.08049	43.0
155.08598	43.0
147.0444	42.0
234.10641	42.0
127.05273	42.0
257.15833	42.0
225.08995	42.0
219.07971	41.0
241.15985	40.0
202.07681	40.0
57.06962	40.0
262.13257	39.0
238.09737	39.0
217.10399	39.0
239.10945	39.0
178.07826	39.0
149.06194	38.0
229.08513	38.0
190.07697	38.0
220.08691	38.0
197.06146	37.0
331.08569	37.0
193.09999	37.0
191.11133	37.0
131.04904	37.0
231.09813	36.0
316.05908	36.0
202.0977	36.0
205.06439	36.0
158.07256	35.0
267.14163	35.0
259.17572	35.0
210.10185	35.0
174.06525	33.0
221.10078	33.0
189.0912	33.0
205.10506	32.0
234.14238	32.0
257.12219	32.0
93.06949	31.0
196.08789	31.0
91.05383	30.0
81.07007	30.0
168.0553	30.0
239.1458	30.0
222.10385	30.0
203.08606	29.0
270.12735	29.0
186.06511	28.0
206.11058	28.0
259.13315	28.0
287.16394	27.0
194.07568	27.0
219.1145	27.0
107.08427	26.0
208.08659	26.0
215.08838	26.0
265.12213	26.0
161.06274	26.0
247.10945	26.0
188.08383	25.0
109.06356	25.0
207.10587	25.0
313.12161	25.0
115.05237	25.0
226.09613	25.0
245.155	24.0
165.05846	24.0
243.10292	24.0
249.12578	23.0
281.15125	23.0
236.11574	23.0
95.08907	23.0
117.06973	23.0
83.08508	21.0
223.15163	21.0
228.11372	21.0
216.09645	20.0
245.04919	20.0
175.07329	20.0
151.05228	14.0
311.1698	13.0
137.05748	13.0
73.06554	12.0
77.04117	12.0

MSID: 9019
ID: 27
RETENTIONTIME: 11.94752
PRECURSORMZ: 197.1172
AREA: 2153816.5
PRECURSORTYPE: [M+H]+
SMILES: C[C@@]12C[C@@H](O)CC(C)(C)C1=CC(=O)O2
NAME: Loliolide
FORMULA: C11H16O3
INCHIKEY: XEVQXKKKAVVSMW-WRWORJQWSA-N
CAS: nan
Molecular Weight: 196.246
Number of References: 605
Class: Apocarotenoids (β-)
Superclass: Apocarotenoids
Pathway: Terpenoids
ppm: -0.5700000000103955
CMID: CM243
IONMODE: Positive
COLLISIONENERGY: 40±20eV
INSTRUMENTTYPE: AB SCIEX
INSTRUMENT: Q-TOF
Comment:  
Num Peaks: 64
179.10689	2509.0
91.05377	2318.0
133.10081	1993.0
105.06983	1641.0
107.08522	1280.0
197.11769	1024.0
77.03854	915.0
135.11739	848.0
161.09621	817.0
79.05361	692.0
93.07037	611.0
65.03943	483.0
67.0547	385.0
81.06913	287.0
119.0853	251.0
55.05451	225.0
117.06859	206.0
51.02384	190.0
115.05439	179.0
103.05371	172.0
131.04895	147.0
109.10236	142.0
131.08484	134.0
146.07207	131.0
95.04984	125.0
121.06642	107.0
59.04859	105.0
128.06366	98.0
137.06082	95.0
95.08613	94.0
118.07851	93.0
53.03785	87.0
151.11116	84.0
123.04433	78.0
143.08447	76.0
137.09866	75.0
119.05003	64.0
109.06553	63.0
123.11713	62.0
92.06307	62.0
67.05069	59.0
69.06897	55.0
50.01517	53.0
78.04671	52.0
55.01746	51.0
57.07032	50.0
145.06412	50.0
85.06603	49.0
69.03235	48.0
71.04782	44.0
116.063	43.0
135.10715	43.0
135.08096	41.0
120.09421	40.0
129.07088	39.0
107.04874	38.0
91.0435	34.0
127.05154	34.0
57.03407	31.0
121.10091	28.0
63.0238	26.0
83.04663	23.0
113.05663	14.0
113.06601	13.0

MSID: 9020
ID: 540
RETENTIONTIME: 37.0794
PRECURSORMZ: 763.4407
AREA: 2133699.25
PRECURSORTYPE: [M+H]+
SMILES: [H][C@](C)(CC)CCCCCCCCCCC(=O)OC[C@H](CC1=CC(OC)=C(O)C=C1)[C@H](COC(=O)\C=C\C1=CC(OC)=C(O)C=C1)CC1=CC=C(O)C(OC)=C1
NAME: Lignandiester
FORMULA: C45H62O10
INCHIKEY: KMPWSNNOFALAPV-VKYULJBKSA-N
CAS: nan
Molecular Weight: 762.981
Number of References: 1
Class: nan
Superclass: nan
Pathway: Shikimates and Phenylpropanoids
ppm: -1.4250000000401997
CMID: CM243
IONMODE: Positive
COLLISIONENERGY: 40±20eV
INSTRUMENTTYPE: AB SCIEX
INSTRUMENT: Q-TOF
Comment:  
Num Peaks: 122
177.0547	40781.0
145.02852	8746.0
327.16006	7093.0
137.05946	3185.0
295.13275	1615.0
203.10654	1028.0
163.07475	830.0
117.03344	777.0
151.07602	765.0
521.22064	561.0
149.0592	481.0
189.09079	459.0
569.38074	439.0
133.06447	429.0
263.10648	399.0
89.0388	314.0
763.44379	314.0
175.0742	175.0
171.07744	155.0
184.07283	152.0
763.6062	132.0
763.50336	130.0
157.06656	128.0
121.06516	111.0
763.42487	110.0
134.03557	106.0
191.10684	99.0
195.06433	99.0
443.3158	97.0
235.11398	95.0
325.14371	93.0
187.07471	82.0
131.04764	76.0
245.09619	71.0
143.05145	67.0
145.06508	67.0
763.5575	64.0
178.05957	58.0
295.10583	58.0
397.16168	56.0
175.06772	54.0
201.0891	51.0
188.08072	48.0
122.03696	46.0
163.05725	46.0
107.0506	46.0
569.34802	45.0
135.07962	42.0
176.48045	41.0
103.05355	41.0
94.04216	39.0
443.30756	37.0
763.4032	36.0
569.31531	36.0
133.0509	34.0
143.08894	33.0
201.07658	32.0
159.08229	32.0
187.06532	31.0
345.17102	31.0
91.05363	31.0
139.07104	31.0
123.08325	30.0
176.47134	30.0
165.09081	30.0
141.06818	29.0
147.07733	29.0
151.14705	28.0
106.04269	28.0
191.09467	28.0
128.06456	28.0
95.08694	28.0
101.03826	27.0
271.09344	27.0
327.11578	27.0
189.07732	27.0
296.13809	26.0
81.07253	25.0
203.0856	25.0
178.04912	25.0
97.10018	25.0
445.33072	25.0
162.03085	25.0
109.09912	24.0
295.0907	24.0
136.05347	24.0
233.0955	24.0
763.66034	23.0
178.16022	23.0
63.02216	23.0
202.07637	23.0
179.06862	23.0
763.341	22.0
153.05548	22.0
665.62531	22.0
521.14911	22.0
207.06593	22.0
267.13306	21.0
79.05262	21.0
220.08643	20.0
176.45312	20.0
207.21394	20.0
119.04771	20.0
123.07999	20.0
146.0316	20.0
248.07979	19.0
159.04523	18.0
312.12521	18.0
328.15817	16.0
762.54834	14.0
85.10023	13.0
127.05135	13.0
117.01649	13.0
131.03418	13.0
173.04944	13.0
717.50079	12.0
86.2397	12.0
77.03756	12.0
69.0705	12.0
65.03696	12.0
62.01777	12.0
53.03849	12.0

MSID: 9021
ID: 392
RETENTIONTIME: 32.18185
PRECURSORMZ: 362.1959
AREA: 2060594.25
PRECURSORTYPE: [M+NH4]+
SMILES: [H][C@@]12C(=O)[C@@H]3OC(=O)[C@@]1(CCCC2(C)C)C1=C3C=C(C(C)C)C(O)=C1O
NAME: isogaldosol
FORMULA: C20H24O5
INCHIKEY: LGMZDFRDZKIULZ-UWVAXJGDSA-N
CAS: 142570-05-6
Molecular Weight: 344.408
Number of References: 3
Class: Abietane diterpenoids
Superclass: Diterpenoids
Pathway: Terpenoids
ppm: -0.849000000016531
CMID: CM243
IONMODE: Positive
COLLISIONENERGY: 40±20eV
INSTRUMENTTYPE: AB SCIEX
INSTRUMENT: Q-TOF
Comment:  
Num Peaks: 298
271.16937	11833.0
215.1067	8966.0
327.15848	2523.0
243.101	1965.0
229.12181	1951.0
297.14868	1748.0
173.06113	1610.0
315.16077	1520.0
211.11206	1484.0
345.1694	1194.0
197.0955	1120.0
201.05449	1093.0
239.10754	993.0
200.08357	984.0
285.11246	946.0
299.16281	937.0
233.08067	919.0
269.11539	918.0
145.06517	885.0
253.15919	880.0
281.15405	838.0
257.11707	743.0
269.15234	505.0
231.09924	456.0
187.07347	454.0
255.10301	422.0
181.06371	417.0
183.11613	417.0
169.10283	410.0
209.09621	409.0
153.06889	393.0
267.09958	380.0
213.09041	379.0
309.14606	374.0
243.13765	374.0
193.10104	372.0
141.06943	369.0
195.08086	368.0
199.07629	367.0
187.03865	345.0
317.17389	342.0
169.06462	337.0
241.12143	331.0
271.09521	326.0
217.08777	318.0
221.09314	317.0
229.04918	316.0
183.08168	315.0
165.0695	293.0
241.08646	292.0
228.11484	290.0
227.1086	277.0
197.06114	263.0
167.08514	262.0
178.07797	255.0
196.08757	254.0
205.08508	252.0
171.08011	252.0
182.07327	250.0
287.16678	234.0
187.11098	233.0
168.09438	225.0
127.05363	222.0
185.09618	201.0
128.06242	200.0
155.08694	197.0
245.08099	191.0
199.10947	188.0
251.14056	184.0
211.07364	184.0
159.08115	182.0
230.12952	180.0
227.0717	179.0
219.06631	179.0
225.12631	178.0
189.09224	178.0
223.07664	174.0
269.13306	173.0
123.04421	172.0
229.08475	171.0
165.08965	169.0
181.10193	168.0
179.08444	168.0
213.05467	168.0
285.10254	165.0
161.06125	163.0
203.06897	162.0
157.06419	162.0
201.09059	162.0
95.08318	158.0
154.07748	157.0
190.06316	156.0
55.05373	154.0
210.10434	151.0
107.08613	151.0
147.04417	150.0
67.05384	149.0
69.07053	146.0
238.09848	146.0
129.07076	144.0
143.08551	143.0
152.06	141.0
273.1098	139.0
215.0708	138.0
271.13712	137.0
214.06084	135.0
223.11029	133.0
257.08093	131.0
245.1178	129.0
91.05275	126.0
225.16011	125.0
254.09505	121.0
203.10387	120.0
166.0777	120.0
226.09575	118.0
224.08272	116.0
155.04791	115.0
185.05887	114.0
193.08743	111.0
225.0881	111.0
253.12492	111.0
231.065	111.0
259.13589	110.0
257.1579	110.0
93.06934	109.0
263.14001	108.0
217.12096	106.0
327.14078	106.0
285.15051	106.0
59.04929	104.0
131.04883	100.0
175.07559	96.0
243.06435	96.0
283.13638	93.0
174.06625	93.0
228.07639	91.0
83.04923	91.0
131.08472	91.0
201.12671	90.0
163.03984	90.0
189.05185	88.0
206.07228	87.0
79.05267	87.0
109.10226	86.0
256.10669	85.0
229.06697	85.0
239.06969	84.0
247.13214	84.0
237.09155	84.0
289.18182	82.0
281.11957	81.0
67.05223	81.0
251.10487	81.0
259.09647	81.0
239.14238	80.0
362.19455	80.0
81.06905	80.0
191.07176	80.0
207.06325	79.0
179.07133	79.0
216.11337	78.0
219.09966	78.0
247.09674	78.0
195.11642	77.0
191.0853	77.0
211.09215	76.0
179.10672	75.0
163.07234	75.0
252.07889	74.0
157.10103	73.0
180.09244	72.0
217.05025	72.0
242.08963	72.0
184.05168	71.0
198.06882	71.0
115.05324	70.0
151.05324	70.0
202.09598	70.0
145.10173	70.0
186.06747	69.0
151.03879	68.0
105.06873	68.0
235.14717	68.0
253.13583	68.0
200.04755	68.0
213.12186	67.0
226.06483	66.0
192.09389	65.0
158.0723	65.0
69.03229	65.0
256.13962	65.0
184.08623	64.0
177.09129	63.0
231.14391	62.0
149.0605	61.0
212.08226	61.0
147.07861	61.0
202.0584	60.0
117.07059	60.0
135.08084	60.0
203.10248	60.0
188.07814	60.0
205.09912	60.0
294.12259	60.0
127.0448	58.0
142.07744	58.0
287.12198	58.0
137.06299	57.0
249.09135	57.0
171.04424	57.0
240.11267	57.0
205.06546	57.0
139.0538	56.0
266.12891	56.0
243.07657	56.0
227.14107	56.0
175.0406	55.0
227.09827	55.0
179.03203	55.0
168.05629	55.0
241.10622	54.0
245.1546	54.0
193.06566	53.0
119.08839	52.0
183.04193	52.0
199.03899	50.0
299.12555	50.0
197.13126	49.0
220.12578	49.0
167.05096	49.0
235.11412	48.0
159.11697	48.0
209.05939	47.0
285.0827	47.0
265.0834	47.0
236.11836	46.0
284.13925	46.0
213.07896	46.0
135.04214	46.0
177.05611	45.0
83.08315	45.0
160.05232	45.0
210.13841	45.0
235.09761	45.0
266.09213	43.0
242.13078	43.0
208.08766	43.0
133.06342	43.0
233.05078	42.0
282.12872	42.0
77.03846	42.0
155.07597	42.0
156.09358	42.0
194.10674	42.0
259.16898	41.0
255.07329	41.0
181.08215	41.0
207.08156	41.0
279.13614	40.0
210.09441	40.0
57.03328	39.0
220.09236	39.0
242.05458	39.0
275.12534	38.0
279.10669	38.0
171.11725	38.0
213.04181	38.0
268.11215	38.0
248.11542	38.0
258.0885	37.0
144.05482	36.0
170.07214	36.0
247.08749	36.0
130.07858	36.0
145.05338	35.0
217.0719	34.0
321.1474	33.0
210.06744	33.0
254.12784	33.0
252.11777	32.0
270.1221	31.0
251.07228	31.0
223.14394	31.0
234.06857	30.0
198.1019	30.0
263.11935	30.0
233.12404	29.0
162.06586	28.0
212.11934	28.0
121.06415	27.0
203.02013	27.0
244.10683	27.0
109.02657	26.0
255.12646	26.0
223.09712	25.0
205.04723	25.0
181.04526	25.0
55.01595	25.0

MSID: 9022
ID: 472
RETENTIONTIME: 35.15463
PRECURSORMZ: 607.2552
AREA: 2046083.5
PRECURSORTYPE: [M+H]+
SMILES: [H][C@]12CC3=C(C)C(=O)O[C@@]3(C[C@]1(C)[C@@H](OC(C)=O)C(=O)C=C2C)[C@@]12C[C@]3(C)[C@@H](OC(C)=O)C(=O)C=C(C)[C@@]3([H])CC1=C(C)C(=O)O2
NAME: salplebeone G
FORMULA: C34H38O10
INCHIKEY: RUWOERIXVCQFGS-WXRKXFINSA-N
CAS: nan
Molecular Weight: 606.67
Number of References: 2
Class: nan
Superclass: nan
Pathway: Terpenoids
ppm: 0.8749999999508873
CMID: CM243
IONMODE: Positive
COLLISIONENERGY: 40±20eV
INSTRUMENTTYPE: AB SCIEX
INSTRUMENT: Q-TOF
Comment:  
Num Peaks: 183
607.25623	39990.0
547.23547	6527.0
579.2597	4202.0
519.23932	3909.0
447.21561	804.0
475.21185	768.0
446.20959	714.0
474.20679	664.0
519.21698	418.0
491.20947	402.0
445.20264	306.0
487.21497	238.0
501.23203	228.0
433.20386	223.0
461.19373	200.0
561.25165	180.0
473.20279	174.0
551.26373	166.0
459.21457	164.0
419.22263	152.0
505.21964	146.0
589.24255	138.0
575.23126	134.0
529.22241	132.0
490.24185	126.0
431.18408	123.0
491.2442	117.0
473.22623	116.0
463.21719	109.0
506.23056	106.0
463.24881	103.0
478.23767	102.0
432.19949	99.0
477.22729	97.0
420.22989	95.0
459.17679	93.0
550.21796	77.0
460.21832	75.0
417.16769	74.0
551.25452	73.0
579.18427	71.0
462.24387	66.0
491.18561	65.0
607.20068	65.0
251.11873	62.0
518.23328	61.0
475.246	61.0
448.21655	60.0
461.18109	59.0
432.1832	58.0
474.17267	58.0
533.26086	57.0
460.1868	57.0
418.17651	57.0
474.23663	56.0
447.18661	55.0
477.19733	51.0
589.38281	51.0
283.16922	51.0
517.2171	51.0
475.17126	51.0
503.23813	50.0
589.20691	50.0
532.20972	50.0
418.21255	49.0
579.16779	48.0
488.22287	48.0
547.15759	48.0
503.20956	48.0
462.22702	48.0
433.17331	46.0
564.24408	45.0
419.18652	44.0
535.23254	42.0
476.22437	42.0
489.22101	41.0
547.14612	40.0
204.0652	39.0
533.21112	39.0
435.21613	39.0
515.20551	38.0
589.28058	38.0
605.24023	38.0
504.20529	37.0
490.21365	37.0
445.16339	37.0
519.18127	37.0
578.24188	37.0
592.23474	37.0
433.23648	37.0
474.15347	36.0
447.25497	36.0
476.21368	35.0
490.19849	35.0
489.18851	34.0
536.23682	34.0
149.09511	34.0
444.19684	34.0
533.19977	32.0
535.26428	30.0
548.23254	30.0
432.2341	30.0
501.19476	30.0
487.12634	30.0
458.20352	30.0
479.24698	29.0
518.19318	29.0
446.17441	28.0
547.12091	27.0
606.94977	27.0
479.22556	27.0
405.19659	27.0
547.33398	26.0
535.20087	26.0
464.21686	26.0
549.2099	26.0
403.1882	26.0
531.21826	26.0
520.23737	26.0
261.22263	26.0
534.21796	26.0
420.19977	26.0
487.15875	26.0
329.13831	26.0
321.18939	26.0
605.22095	26.0
430.21252	25.0
465.23453	25.0
458.16998	25.0
416.16412	25.0
410.14621	25.0
402.17999	25.0
399.16095	25.0
315.08762	24.0
547.82904	24.0
607.17902	24.0
506.17767	23.0
441.25409	23.0
279.11475	23.0
388.1608	23.0
507.19839	23.0
455.2272	23.0
461.16006	23.0
366.1604	23.0
391.18839	22.0
491.15955	22.0
291.19876	22.0
578.21594	22.0
404.20163	22.0
502.24335	22.0
563.21161	22.0
368.14401	22.0
442.18036	21.0
457.1915	21.0
519.15002	21.0
446.61725	21.0
571.3269	21.0
432.1608	21.0
446.15375	21.0
107.0871	21.0
573.21527	20.0
135.11607	20.0
543.34753	20.0
501.17282	19.0
488.20773	18.0
557.21936	18.0
490.17029	18.0
505.18881	18.0
287.1434	18.0
283.15933	18.0
390.17981	17.0
382.14664	17.0
475.13284	17.0
509.39987	16.0
516.21527	16.0
277.21503	15.0
145.09341	13.0
131.07344	13.0
215.11093	13.0
93.06835	12.0
271.14508	12.0
105.06869	12.0
59.06205	12.0

MSID: 9023
ID: 100
RETENTIONTIME: 20.25963
PRECURSORMZ: 477.1397
AREA: 1994237.25
PRECURSORTYPE: [M+H]+
SMILES: CO[C@@H]1[C@@H](CO)O[C@@H](OC2=CC3=C(C(=O)C=C(O3)C3=CC=C(O)C=C3)C(O)=C2OC)[C@H](O)[C@H]1O
NAME: hispidulin 7-glucoside
FORMULA: C23H24O11
INCHIKEY: FFJAXGPEQTZIDV-NPNODJHLSA-N
CAS: nan
Molecular Weight: 476.437
Number of References: 1
Class: Flavones
Superclass: Flavonoids
Pathway: Shikimates and Phenylpropanoids
ppm: 0.009999999974752427
CMID: CM243
IONMODE: Positive
COLLISIONENERGY: 40±20eV
INSTRUMENTTYPE: AB SCIEX
INSTRUMENT: Q-TOF
Comment:  
Num Peaks: 27
315.08643	19664.0
300.06342	9134.0
168.00447	545.0
477.14044	510.0
140.01074	104.0
299.0582	59.0
135.04575	53.0
315.05515	52.0
257.04205	51.0
300.03455	50.0
272.06882	49.0
133.06699	47.0
285.04672	44.0
269.08041	42.0
297.0748	37.0
301.0686	26.0
229.05098	23.0
171.07393	23.0
314.06158	21.0
271.06332	20.0
300.01419	20.0
477.07199	15.0
241.04573	13.0
161.0652	13.0
132.05325	13.0
157.06073	12.0
459.27206	12.0

MSID: 9024
ID: 95
RETENTIONTIME: 19.54732
PRECURSORMZ: 301.0713
AREA: 1992725.5
PRECURSORTYPE: [M+H]+
SMILES: COC1=C(O)C=CC(=C1)C1=CC(=O)C2=C(O)C=C(O)C=C2O1
NAME: chrysoeriol
FORMULA: C16H12O6
INCHIKEY: SCZVLDHREVKTSH-UHFFFAOYSA-N
CAS: 491-71-4
Molecular Weight: 300.268
Number of References: 408
Class: Flavones
Superclass: Flavonoids
Pathway: Shikimates and Phenylpropanoids
ppm: 0.08499999995592589
CMID: CM243
IONMODE: Positive
COLLISIONENERGY: 40±20eV
INSTRUMENTTYPE: AB SCIEX
INSTRUMENT: Q-TOF
Comment:  
Num Peaks: 77
301.07004	13409.0
286.04776	7386.0
168.0056	4085.0
140.01062	1086.0
112.01452	330.0
121.02758	298.0
84.0205	251.0
68.99734	230.0
269.04483	205.0
123.00735	202.0
56.02524	179.0
258.05246	172.0
285.03821	159.0
119.04892	144.0
240.04149	116.0
183.02745	113.0
169.01379	108.0
184.05444	106.0
212.04814	97.0
160.05116	78.0
95.01162	73.0
70.00488	71.0
301.05304	71.0
93.03349	63.0
257.0481	61.0
165.01927	57.0
55.01744	57.0
65.03862	54.0
171.04689	52.0
156.05696	49.0
91.05374	47.0
145.02986	45.0
241.05162	45.0
213.05621	45.0
229.04634	44.0
122.0014	43.0
268.03534	43.0
286.01627	43.0
155.048	41.0
137.02179	40.0
147.04425	39.0
184.04912	38.0
144.05727	37.0
128.06139	35.0
127.05591	35.0
66.00898	34.0
202.06964	34.0
139.00421	34.0
167.98021	33.0
255.06717	33.0
185.0603	32.0
118.04016	30.0
157.06429	29.0
152.0625	29.0
201.0546	28.0
121.01788	26.0
269.03198	26.0
301.02417	25.0
71.00817	24.0
131.04779	24.0
283.05582	24.0
84.01332	24.0
286.75549	23.0
181.06512	22.0
223.04021	22.0
143.0481	22.0
109.02663	21.0
120.05767	21.0
187.03741	20.0
211.03819	20.0
173.06123	20.0
183.0195	19.0
89.03889	12.0
68.98758	12.0
98.00086	12.0
63.48725	12.0
54.01014	12.0

MSID: 9025
ID: 496
RETENTIONTIME: 35.94277
PRECURSORMZ: 457.3669
AREA: 1981532.75
PRECURSORTYPE: [M+H]+
SMILES: [H][C@@]12[C@@H](C)[C@H](C)CC[C@@]1(CC[C@]1(C)C2=CC[C@]2([H])[C@@]3(C)CC[C@H](O)C(C)(C)[C@]3([H])CC[C@@]12C)C(O)=O
NAME: ursolic acid
FORMULA: C30H48O3
INCHIKEY: WCGUUGGRBIKTOS-GPOJBZKASA-N
CAS: 77-52-1
Molecular Weight: 456.709
Number of References: 7684
Class: Ursane and Taraxastane triterpenoids
Superclass: Triterpenoids
Pathway: Terpenoids
ppm: -1.2700000000336331
CMID: CM243
IONMODE: Positive
COLLISIONENERGY: 40±20eV
INSTRUMENTTYPE: AB SCIEX
INSTRUMENT: Q-TOF
Comment:  
Num Peaks: 170
411.36298	9713.0
203.17917	2005.0
163.14734	1648.0
191.17865	1479.0
95.08601	1238.0
189.1649	1217.0
439.35522	1099.0
457.36954	888.0
107.08508	787.0
149.131	697.0
121.10182	691.0
109.10221	666.0
393.3493	665.0
135.11722	640.0
133.10065	631.0
177.16292	614.0
175.1494	580.0
231.20935	565.0
161.13203	538.0
297.25662	526.0
205.19302	505.0
147.11775	494.0
119.08514	456.0
81.06902	419.0
187.14842	398.0
217.19449	398.0
93.06931	361.0
315.26846	307.0
207.17451	304.0
201.16275	295.0
123.11697	287.0
221.18918	230.0
105.0687	213.0
249.18556	213.0
173.13322	213.0
159.11691	208.0
69.06969	189.0
341.28094	178.0
67.05461	176.0
145.10049	164.0
179.14467	161.0
215.17989	158.0
259.09479	157.0
229.19438	155.0
233.18976	154.0
235.1696	149.0
328.16888	143.0
55.05444	133.0
219.17496	129.0
137.13289	126.0
83.0858	111.0
233.22415	108.0
131.08466	105.0
245.22505	105.0
247.16592	100.0
79.05437	100.0
205.15796	99.0
91.05272	97.0
213.16467	92.0
243.20934	85.0
165.12733	79.0
297.2431	78.0
177.12642	76.0
241.19739	75.0
421.34692	75.0
227.17789	74.0
219.20976	70.0
329.24847	68.0
255.21242	68.0
97.10117	67.0
175.14034	65.0
193.1595	64.0
271.24347	64.0
163.11356	63.0
323.27274	61.0
57.06876	61.0
133.09387	60.0
261.18625	57.0
189.15009	57.0
203.15823	56.0
329.17563	55.0
269.22775	55.0
263.1987	54.0
275.20322	53.0
179.18007	52.0
77.04015	51.0
157.10097	51.0
393.32211	51.0
153.09065	50.0
151.14949	50.0
181.15723	49.0
167.10535	47.0
257.23004	45.0
273.11453	45.0
229.1573	44.0
207.13927	43.0
99.08188	42.0
317.28366	41.0
199.14948	40.0
283.24341	40.0
457.25226	39.0
81.06285	38.0
195.17381	38.0
191.14479	38.0
311.16226	37.0
301.25333	36.0
379.22873	36.0
277.21832	36.0
93.06364	36.0
235.20566	35.0
111.11649	35.0
179.13156	34.0
143.08429	34.0
303.23865	34.0
457.34021	34.0
191.10825	34.0
139.07454	34.0
171.11591	34.0
177.14206	33.0
125.09396	33.0
149.0975	32.0
231.18254	32.0
201.15164	32.0
247.24292	31.0
272.10065	31.0
337.2869	31.0
151.11096	31.0
153.12579	31.0
247.19826	31.0
165.16257	31.0
289.21002	30.0
369.27802	30.0
221.15422	30.0
139.11496	30.0
411.32526	30.0
231.06343	30.0
193.15405	29.0
185.13342	29.0
111.07623	29.0
261.21631	29.0
245.11617	28.0
343.26682	27.0
287.23471	27.0
123.07785	26.0
341.26828	26.0
383.29242	25.0
457.31299	25.0
248.10298	25.0
439.30185	25.0
135.08078	25.0
223.17313	24.0
257.21906	24.0
323.26392	24.0
121.08134	23.0
209.15137	23.0
137.09619	22.0
297.21777	22.0
85.10296	22.0
119.06804	22.0
249.22267	21.0
97.06739	21.0
179.10272	21.0
177.08992	21.0
165.08832	21.0
313.29431	21.0
71.08653	20.0
217.16562	19.0
421.29666	13.0
261.26062	13.0
53.03921	12.0

MSID: 9026
ID: 155
RETENTIONTIME: 26.78898
PRECURSORMZ: 377.1961
AREA: 1970514.0
PRECURSORTYPE: [M+H]+
SMILES: [H][C@@]12C[C@@H](OC)C3=C(C(=O)C(O)=C(C(C)C)C3=O)[C@@]11CCC[C@]2(C)CO[C@H]1O
NAME: 7-O-methyl conacytone
FORMULA: C21H28O6
INCHIKEY: DDVVXOKUZMNEAW-FMBBDSOGSA-N
CAS: nan
Molecular Weight: 376.45
Number of References: 2
Class: Abietane diterpenoids
Superclass: Diterpenoids
Pathway: Terpenoids
ppm: -0.3150000000005093
CMID: CM243
IONMODE: Positive
COLLISIONENERGY: 40±20eV
INSTRUMENTTYPE: AB SCIEX
INSTRUMENT: Q-TOF
Comment:  
Num Peaks: 186
217.05025	1841.0
277.10754	1246.0
313.18002	522.0
259.09647	465.0
297.18411	413.0
283.17099	280.0
299.16281	276.0
215.10527	255.0
245.1178	244.0
318.14267	215.0
303.1228	214.0
359.18686	213.0
271.16617	192.0
289.10522	160.0
239.10451	159.0
187.07481	156.0
213.09326	152.0
161.05751	144.0
195.08221	142.0
218.09616	140.0
227.10565	140.0
255.14055	140.0
165.07076	139.0
241.12599	133.0
300.17496	131.0
173.06113	129.0
233.11806	126.0
223.11176	124.0
281.15405	112.0
271.13229	111.0
231.10072	110.0
225.09398	110.0
295.16995	108.0
172.08846	106.0
229.11885	105.0
265.15994	104.0
211.07364	104.0
377.19846	104.0
177.09129	101.0
254.13095	99.0
303.11938	98.0
221.09605	98.0
315.19205	95.0
253.12492	94.0
257.11548	94.0
341.17432	92.0
145.06635	90.0
153.06889	87.0
165.08963	85.0
189.05722	83.0
238.09848	83.0
214.09808	83.0
187.11098	82.0
317.14075	82.0
183.11481	80.0
257.15631	78.0
309.14435	76.0
193.10104	75.0
331.18851	73.0
243.0674	73.0
226.10017	71.0
243.10405	69.0
285.11578	69.0
237.11266	66.0
174.06755	65.0
267.10919	65.0
270.12692	65.0
195.11778	64.0
203.06897	64.0
245.08099	63.0
240.11874	63.0
181.06635	61.0
228.11188	61.0
55.05446	60.0
202.02637	60.0
201.05449	60.0
149.09636	59.0
256.14432	59.0
199.07492	59.0
200.08356	59.0
191.0731	58.0
209.09479	56.0
313.16098	56.0
259.08386	56.0
185.05754	55.0
182.07196	54.0
199.1136	54.0
327.15494	53.0
179.08575	52.0
205.08649	51.0
129.07076	50.0
222.10641	50.0
243.13918	50.0
237.12926	49.0
274.08179	49.0
180.09637	49.0
141.06943	48.0
157.06665	48.0
267.138	48.0
197.0955	48.0
273.14865	47.0
208.08908	47.0
185.09351	46.0
152.06	46.0
225.12926	46.0
215.03201	46.0
212.0851	46.0
284.1409	45.0
228.07637	45.0
159.07867	44.0
253.15764	44.0
91.05462	44.0
235.06456	43.0
196.08894	43.0
197.06252	43.0
205.09772	43.0
198.06743	43.0
169.06462	42.0
167.08261	42.0
107.0841	41.0
207.08298	41.0
158.07352	40.0
263.14636	40.0
255.10144	39.0
193.0847	37.0
287.1286	37.0
231.06648	37.0
135.04327	35.0
155.08694	35.0
256.11295	35.0
282.16327	34.0
283.12979	34.0
215.06792	34.0
128.06021	34.0
181.10062	33.0
235.11412	33.0
83.08494	33.0
154.07506	33.0
169.10028	33.0
184.08755	33.0
201.12949	33.0
315.18683	32.0
281.11627	31.0
280.14008	31.0
171.08138	31.0
240.10963	31.0
266.12729	31.0
268.14423	30.0
297.16217	29.0
168.09311	29.0
176.04886	29.0
271.08713	29.0
191.06363	29.0
183.06711	28.0
188.0862	28.0
239.07423	28.0
269.12021	28.0
249.09135	27.0
189.09224	27.0
144.05717	27.0
298.15402	26.0
233.09712	26.0
275.12534	26.0
232.10979	26.0
166.0739	26.0
149.06049	26.0
318.12695	26.0
259.13745	25.0
291.13873	25.0
272.10236	25.0
277.08636	24.0
270.15912	24.0
221.0815	24.0
159.06633	24.0
263.12253	24.0
309.13229	24.0
146.0376	24.0
244.11601	23.0
247.06287	23.0
219.09964	22.0
217.10364	22.0
206.07649	20.0
251.10176	20.0
287.12195	19.0
119.08518	13.0
149.05452	13.0

MSID: 9027
ID: 329
RETENTIONTIME: 31.14762
PRECURSORMZ: 391.2115
AREA: 1970419.875
PRECURSORTYPE: [M+H]+
SMILES: [H][C@@]12C[C@@H](OC(C)=O)C3=C(C(=O)C(O)=C(C(C)C)C3=O)[C@@]1(C)CCC[C@]2(C)CO
NAME: 19-hydroxy-7α-acetoxyroyleanone
FORMULA: C22H30O6
INCHIKEY: GRUVGBVSXJLAOU-FDQSAEMMSA-N
CAS: nan
Molecular Weight: 390.477
Number of References: 2
Class: Abeoabietane diterpenoids
Superclass: Diterpenoids
Pathway: Terpenoids
ppm: -0.565000000051441
CMID: CM243
IONMODE: Positive
COLLISIONENERGY: 40±20eV
INSTRUMENTTYPE: AB SCIEX
INSTRUMENT: Q-TOF
Comment:  
Num Peaks: 236
331.19043	5032.0
217.08641	2081.0
313.18018	1775.0
285.18369	1095.0
243.13774	957.0
231.10081	880.0
257.1156	652.0
229.1219	648.0
203.10814	645.0
225.12787	635.0
267.17493	591.0
161.05882	535.0
295.16837	510.0
219.10118	507.0
253.12346	499.0
187.07489	463.0
193.08751	402.0
207.10138	348.0
271.1308	332.0
215.10823	302.0
211.11072	266.0
245.11636	262.0
239.10612	262.0
173.05991	244.0
213.09048	242.0
209.09628	240.0
165.09222	240.0
143.04926	230.0
201.09067	227.0
183.08043	224.0
121.10084	222.0
227.10721	219.0
205.08377	207.0
235.11122	205.0
261.11206	193.0
109.10127	191.0
179.1068	191.0
252.1132	185.0
95.08608	184.0
242.1324	179.0
241.12001	176.0
69.06893	170.0
233.11665	161.0
217.1196	160.0
157.10109	160.0
191.10703	159.0
175.07437	156.0
211.07942	153.0
149.05817	153.0
202.06264	152.0
159.07874	149.0
169.06342	146.0
145.06287	145.0
147.04422	145.0
203.10115	145.0
141.06949	143.0
183.11754	141.0
223.11038	137.0
191.07048	136.0
195.07956	133.0
155.08701	131.0
55.05303	130.0
237.12784	126.0
157.06303	126.0
188.08224	123.0
207.11548	122.0
215.07088	122.0
83.08497	121.0
149.02348	118.0
123.04427	112.0
189.09097	110.0
239.18185	109.0
185.09625	109.0
179.0701	109.0
196.08902	108.0
283.16946	106.0
238.09857	104.0
301.17535	104.0
67.05466	104.0
203.07185	103.0
197.09421	102.0
165.06956	102.0
81.07085	102.0
197.12996	102.0
195.11923	102.0
137.05846	98.0
271.16788	96.0
273.18274	96.0
171.08145	93.0
241.08655	93.0
133.09962	92.0
163.07367	92.0
167.08395	91.0
280.14676	89.0
255.13596	88.0
197.0571	88.0
243.12706	86.0
95.04884	85.0
277.1582	84.0
182.10771	84.0
153.07018	81.0
177.05487	81.0
249.11464	80.0
199.11092	80.0
201.12817	79.0
255.10155	78.0
199.07224	77.0
198.06752	77.0
201.05318	76.0
131.05	76.0
245.15163	75.0
192.09261	75.0
142.07632	74.0
181.06247	74.0
265.16006	73.0
169.10162	73.0
231.13655	73.0
85.06509	72.0
229.08336	71.0
221.11798	71.0
303.19455	71.0
220.08954	71.0
261.14844	69.0
177.09135	69.0
228.11197	69.0
174.06633	68.0
226.10027	68.0
243.10416	67.0
128.06247	67.0
123.11706	67.0
235.1022	66.0
91.05373	66.0
105.06978	66.0
227.06885	66.0
270.16403	65.0
115.05433	65.0
189.05461	64.0
129.0697	63.0
265.12497	63.0
221.08012	60.0
147.07867	60.0
214.05804	59.0
143.0844	59.0
181.09937	58.0
173.09599	58.0
270.12219	58.0
163.0399	57.0
93.07032	57.0
216.07747	56.0
287.1619	55.0
298.15924	55.0
219.07944	54.0
152.06367	54.0
111.07941	54.0
240.1158	54.0
225.08968	53.0
205.12445	53.0
230.12961	53.0
285.1622	53.0
249.16257	53.0
107.08009	52.0
252.14897	51.0
259.13126	51.0
200.07948	50.0
216.11778	50.0
269.15564	49.0
257.15485	49.0
131.08365	48.0
219.06494	48.0
213.12624	47.0
151.07256	47.0
165.05447	45.0
144.05841	45.0
192.07631	45.0
284.13937	45.0
262.13382	45.0
224.08427	45.0
168.09317	44.0
224.118	44.0
215.1427	44.0
166.07649	43.0
79.05357	43.0
209.1317	43.0
151.11107	42.0
233.08376	42.0
225.11612	42.0
161.05013	41.0
251.10341	41.0
59.05082	41.0
283.13486	40.0
187.11507	40.0
219.13889	39.0
183.04332	39.0
247.11223	39.0
247.09991	38.0
190.06187	38.0
187.04005	38.0
180.0925	38.0
222.10504	37.0
206.10751	37.0
223.10014	37.0
184.08763	37.0
181.08487	36.0
253.1593	36.0
229.10411	36.0
197.08734	36.0
244.12375	35.0
171.11861	35.0
202.10023	35.0
207.08728	35.0
119.04996	34.0
119.0863	34.0
154.07755	34.0
212.08092	33.0
159.04416	32.0
69.0315	32.0
257.0936	31.0
191.08943	31.0
289.14362	31.0
275.12384	31.0
121.03079	31.0
391.21194	31.0
57.07029	30.0
223.0782	30.0
268.14594	30.0
210.06468	29.0
227.08951	29.0
135.11731	29.0
254.12793	28.0
171.04686	28.0
145.09943	27.0
170.10925	27.0
77.03849	26.0
204.07516	25.0
266.129	24.0
184.05174	24.0

MSID: 9028
ID: 136
RETENTIONTIME: 24.53067
PRECURSORMZ: 313.1801
AREA: 1920421.5
PRECURSORTYPE: [M+H]+
SMILES: CC(C)C1=C(O)C(=O)C2=C(CCCC(C)=C)C(C)=CC=C2C1=O
NAME: salvipisone
FORMULA: C20H24O3
INCHIKEY: PRBDDALQYVNGTP-UHFFFAOYSA-N
CAS: 94344-55-5
Molecular Weight: 312.409
Number of References: 11
Class: Secoabietane diterpenoids
Superclass: Diterpenoids
Pathway: Terpenoids
ppm: -0.27000000005728
CMID: CM243
IONMODE: Positive
COLLISIONENERGY: 40±20eV
INSTRUMENTTYPE: AB SCIEX
INSTRUMENT: Q-TOF
Comment:  
Num Peaks: 196
313.18002	1048.0
215.10652	705.0
295.16821	565.0
235.11247	424.0
209.09601	371.0
165.07051	344.0
253.12169	312.0
277.15802	278.0
243.13751	275.0
229.08607	252.0
227.10843	251.0
173.06088	243.0
197.09666	227.0
225.12614	216.0
141.07031	208.0
269.15546	201.0
179.08682	191.0
195.07927	189.0
183.08145	183.0
251.1451	180.0
166.07869	172.0
178.07904	167.0
55.05415	164.0
167.08488	163.0
207.11659	156.0
199.11201	151.0
223.11305	149.0
153.06984	147.0
191.08371	147.0
91.0543	146.0
252.11609	145.0
200.08475	140.0
193.10081	138.0
271.1322	135.0
155.08545	134.0
181.06479	130.0
169.06564	129.0
181.10301	128.0
211.07629	127.0
93.06996	124.0
267.17154	123.0
169.1013	123.0
201.09039	119.0
111.07803	114.0
229.10535	113.0
185.09328	113.0
237.12759	113.0
182.07437	105.0
226.10001	105.0
239.10588	104.0
194.07378	102.0
237.0914	101.0
187.07324	97.0
154.07843	97.0
115.05398	95.0
211.1133	94.0
142.07831	91.0
157.06393	90.0
129.06935	89.0
229.11276	89.0
202.07907	88.0
255.142	88.0
207.08136	87.0
152.06335	87.0
199.07471	84.0
196.08736	83.0
185.05997	82.0
257.11694	81.0
295.14972	80.0
192.09502	79.0
57.0337	79.0
183.11855	79.0
193.06407	75.0
190.07643	74.0
241.1228	73.0
239.14072	71.0
145.06606	71.0
270.1236	69.0
198.0686	68.0
197.06093	68.0
220.08928	68.0
69.07185	64.0
143.05125	63.0
184.05276	62.0
171.08241	62.0
219.08063	62.0
71.04743	61.0
285.18185	60.0
95.08763	60.0
85.06563	59.0
213.09023	59.0
253.09676	59.0
81.07226	57.0
128.06213	57.0
168.05984	56.0
210.06441	56.0
77.039	54.0
208.08324	53.0
249.12679	53.0
223.14523	51.0
229.12314	51.0
231.10207	50.0
223.07062	50.0
149.05544	50.0
187.0518	50.0
187.10941	50.0
208.12421	50.0
173.09567	49.0
257.15622	49.0
195.11621	49.0
238.10135	48.0
194.10788	48.0
217.1049	48.0
177.04544	48.0
127.05664	47.0
186.06859	45.0
235.08995	45.0
211.09622	45.0
172.08693	43.0
143.0864	43.0
205.06384	42.0
233.09547	42.0
157.10197	41.0
212.08348	41.0
280.14331	41.0
57.02704	40.0
168.09032	40.0
223.10135	40.0
152.05731	40.0
251.10939	39.0
225.10704	38.0
67.05272	38.0
105.07143	38.0
221.09587	38.0
203.08273	37.0
177.0715	36.0
234.10738	36.0
265.12	36.0
207.10674	35.0
224.08401	35.0
79.05495	35.0
154.06871	35.0
243.12224	34.0
249.17007	34.0
219.10527	34.0
189.07182	33.0
209.05919	33.0
248.11992	32.0
240.11557	32.0
269.14581	32.0
255.12636	32.0
192.08823	30.0
255.09663	30.0
158.07326	30.0
215.06056	30.0
266.1304	29.0
180.08957	29.0
175.07275	28.0
180.4854	27.0
204.09308	27.0
170.07828	26.0
184.09131	26.0
183.06157	26.0
150.04593	26.0
278.18454	26.0
203.10785	26.0
131.0463	25.0
191.06476	25.0
83.08462	25.0
169.08856	25.0
165.0554	25.0
214.06064	23.0
262.13678	23.0
295.13455	23.0
206.07489	22.0
285.14713	22.0
160.05205	21.0
176.06032	20.0
242.09558	20.0
267.13791	19.0
228.11467	19.0
115.04137	18.0
172.0471	16.0
221.12938	16.0
217.09192	15.0
161.1306	14.0
57.07143	14.0
304.38931	13.0
109.10297	13.0
129.07936	13.0
117.07558	13.0
68.9986	12.0
75.02533	12.0
135.11925	12.0
97.05939	12.0
53.03749	12.0

MSID: 9029
ID: 477
RETENTIONTIME: 35.4412
PRECURSORMZ: 317.175
AREA: 1874141.5
PRECURSORTYPE: [M+H]+
SMILES: [H][C@]12CC[C@@]3(OC(=O)C(C)=C3)C3=CC(=O)OC[C@@]13CCCC2(C)C
NAME: epi-castanolide
FORMULA: C19H24O4
INCHIKEY: CMUMLTURMRRALD-VMDGZTHMSA-N
CAS: nan
Molecular Weight: 316.397
Number of References: 1
Class: Secoabietane diterpenoids
Superclass: Diterpenoids
Pathway: Terpenoids
ppm: -0.2850000000194086
CMID: CM243
IONMODE: Positive
COLLISIONENERGY: 40±20eV
INSTRUMENTTYPE: AB SCIEX
INSTRUMENT: Q-TOF
Comment:  
Num Peaks: 222
271.16919	2713.0
229.12314	2541.0
317.17542	2207.0
299.1626	2145.0
211.11192	1744.0
215.10657	1551.0
173.05972	875.0
253.15903	823.0
289.17828	606.0
183.11601	580.0
195.07936	491.0
228.11469	421.0
213.09169	400.0
181.06491	399.0
187.07736	382.0
243.10085	375.0
231.1378	368.0
257.11688	364.0
165.09079	359.0
189.09077	352.0
171.08127	345.0
168.09427	325.0
203.10652	319.0
128.06233	319.0
241.12279	315.0
153.07121	311.0
217.08762	310.0
141.0705	310.0
231.10207	303.0
281.15387	301.0
161.05989	298.0
145.06506	296.0
193.10091	269.0
197.09538	269.0
167.08377	267.0
239.10739	253.0
69.06968	252.0
199.07755	244.0
200.08482	240.0
131.04874	238.0
169.10017	236.0
155.08684	212.0
247.13045	209.0
143.08542	201.0
154.07617	195.0
159.08104	194.0
165.07065	194.0
169.06578	194.0
193.08594	191.0
196.08745	187.0
115.05315	183.0
152.06232	181.0
225.16437	177.0
201.09186	175.0
227.1055	171.0
185.09605	170.0
187.1122	167.0
143.05026	167.0
259.13098	164.0
178.07916	161.0
129.06956	153.0
188.08205	149.0
147.04407	149.0
157.06654	148.0
209.09889	144.0
191.10683	138.0
185.06007	138.0
91.05363	135.0
205.08775	134.0
182.07315	134.0
219.0995	134.0
177.09117	133.0
123.04522	133.0
149.06039	130.0
221.09737	129.0
174.06744	129.0
142.07617	129.0
238.09984	129.0
163.07474	125.0
175.07549	120.0
59.04925	118.0
217.12082	118.0
243.13748	115.0
183.08023	113.0
219.13864	110.0
157.09969	108.0
216.11324	107.0
55.0537	103.0
225.1291	101.0
202.06383	100.0
179.1066	97.0
210.10136	96.0
117.07052	96.0
214.09795	93.0
127.05576	92.0
223.11307	92.0
210.14111	86.0
77.03927	86.0
243.17415	82.0
207.09834	82.0
241.08478	81.0
213.12457	81.0
245.11763	79.0
166.07758	79.0
256.10495	78.0
79.05523	78.0
238.13309	78.0
256.14413	76.0
182.10884	75.0
183.11072	74.0
172.08707	74.0
144.05591	72.0
181.09785	71.0
201.05435	71.0
199.11072	69.0
137.095	67.0
159.04152	66.0
195.11766	65.0
233.11641	64.0
103.05255	64.0
190.06168	63.0
184.05022	62.0
137.06059	62.0
81.06988	61.0
155.05025	60.0
131.0835	59.0
255.13568	59.0
163.03598	57.0
180.09232	57.0
263.14142	56.0
55.01737	56.0
160.05098	56.0
230.12788	55.0
229.10536	55.0
205.12001	55.0
242.09404	55.0
177.05598	53.0
189.0773	53.0
158.07465	53.0
223.07504	53.0
247.09966	53.0
255.10284	52.0
227.07008	51.0
225.09972	51.0
257.15457	49.0
179.07384	49.0
200.05157	49.0
251.1109	48.0
109.10116	48.0
213.05595	48.0
191.08382	47.0
133.06558	47.0
198.10452	47.0
107.08707	45.0
119.08511	45.0
211.09627	44.0
177.07162	44.0
57.03324	44.0
93.06833	44.0
165.05556	43.0
247.16739	43.0
269.11679	43.0
233.08202	43.0
202.09863	43.0
208.08752	43.0
151.05193	42.0
205.06952	42.0
67.05299	42.0
275.1268	42.0
195.10397	41.0
261.11179	41.0
287.16492	39.0
212.1192	39.0
203.07024	38.0
105.06766	38.0
271.13373	38.0
121.06407	37.0
249.11128	37.0
147.0797	37.0
95.08407	36.0
139.05486	36.0
144.0947	36.0
170.07332	36.0
150.06651	36.0
237.12608	36.0
156.09225	35.0
235.15001	35.0
153.05547	35.0
159.11687	35.0
216.07724	34.0
191.06757	34.0
183.04445	34.0
171.11971	34.0
145.10164	34.0
194.07387	34.0
149.09746	33.0
146.07065	33.0
220.08786	32.0
162.067	32.0
299.12872	31.0
212.08354	31.0
161.09097	31.0
235.09595	30.0
135.04546	28.0
186.06602	28.0
116.06281	28.0
281.12103	27.0
190.07788	27.0
253.13567	27.0
170.1078	27.0
107.04856	27.0
71.05018	26.0
211.07492	26.0
237.0914	26.0
175.11047	26.0
266.12073	25.0
85.06229	25.0
214.06355	24.0
119.0477	24.0
275.12192	14.0
263.13507	13.0
59.05376	12.0

MSID: 9030
ID: 361
RETENTIONTIME: 31.60367
PRECURSORMZ: 353.1721
AREA: 1833736.625
PRECURSORTYPE: [M+Na]+
SMILES: [H][C@]12OC(=O)[C@]3(O)C(=O)C(=C[C@]13CC[C@]1([H])C2=CCCC1(C)C)C(C)C
NAME: przewalskin B
FORMULA: C20H26O4
INCHIKEY: XENNDAKNPKZKFC-BGRCLHOASA-N
CAS: nan
Molecular Weight: 330.424
Number of References: 3
Class: Secoabietane diterpenoids
Superclass: Diterpenoids
Pathway: Terpenoids
ppm: -0.780000000020209
CMID: CM243
IONMODE: Positive
COLLISIONENERGY: 40±20eV
INSTRUMENTTYPE: AB SCIEX
INSTRUMENT: Q-TOF
Comment:  
Num Peaks: 24
353.17075	5328.0
307.16742	1412.0
309.18246	85.0
67.05389	65.0
93.06941	40.0
243.2081	37.0
95.08325	37.0
163.14752	35.0
109.10029	33.0
261.21979	32.0
107.08723	28.0
79.05534	26.0
81.06823	25.0
173.13084	25.0
149.13116	21.0
353.13025	21.0
163.14502	20.0
131.08818	19.0
67.05068	13.0
243.18976	13.0
107.08115	13.0
159.10844	13.0
181.15742	12.0
77.03509	12.0

MSID: 9031
ID: 366
RETENTIONTIME: 31.67818
PRECURSORMZ: 313.1449
AREA: 1827116.125
PRECURSORTYPE: [M+H]+
SMILES: C[C@H]1COC2=C1C(=O)C(=O)C1=C2C=CC2=C1[C@H](O)CCC2(C)C
NAME: 1β-hydroxycryptotanshinone
FORMULA: C19H20O4
INCHIKEY: GEWNOYPIMWDSBC-JOYOIKCWSA-N
CAS: nan
Molecular Weight: 312.365
Number of References: 4
Class: Abietane diterpenoids
Superclass: Naphthalenes
Pathway: Polyketides
ppm: 0.9149999999635838
CMID: CM243
IONMODE: Positive
COLLISIONENERGY: 40±20eV
INSTRUMENTTYPE: AB SCIEX
INSTRUMENT: Q-TOF
Comment:  
Num Peaks: 172
313.14365	24602.0
298.12192	3887.0
297.11154	3103.0
283.09848	2785.0
255.10144	847.0
227.07022	844.0
255.06546	540.0
237.09155	424.0
209.09479	368.0
265.08499	359.0
181.06371	268.0
270.12369	253.0
153.07011	250.0
215.1067	230.0
165.0695	217.0
227.1086	208.0
241.08646	207.0
283.0853	203.0
219.0808	202.0
199.07492	196.0
282.08923	193.0
267.06277	184.0
152.06241	163.0
166.07643	162.0
268.07367	151.0
281.08017	151.0
270.08829	142.0
181.10324	141.0
185.0602	138.0
173.05984	134.0
253.1218	132.0
247.07518	126.0
223.11029	121.0
250.06458	115.0
279.10178	115.0
269.11859	115.0
197.09827	113.0
191.08664	113.0
195.08086	105.0
313.11938	105.0
242.09421	105.0
169.06462	104.0
157.06665	99.0
252.11777	98.0
141.07059	96.0
194.07399	95.0
267.17484	93.0
243.101	90.0
241.04996	85.0
155.08206	84.0
183.08035	83.0
225.09251	82.0
209.06081	80.0
225.12778	78.0
199.11223	78.0
239.10754	78.0
295.13293	77.0
295.17499	77.0
264.0766	74.0
211.07791	73.0
197.06252	73.0
228.07785	73.0
237.05687	72.0
256.0722	71.0
241.12447	69.0
222.06847	69.0
179.08575	68.0
235.11263	68.0
169.10283	67.0
267.1412	66.0
143.08551	66.0
213.09184	65.0
167.08641	64.0
200.08356	63.0
223.07811	62.0
240.07625	62.0
271.13391	62.0
55.05373	62.0
213.05609	61.0
229.08327	59.0
207.08015	59.0
168.05756	59.0
297.07101	58.0
271.0936	58.0
128.06021	57.0
171.08138	57.0
182.07327	57.0
151.05324	57.0
189.06935	56.0
129.07298	54.0
224.08565	54.0
239.06665	53.0
268.06726	53.0
233.09712	52.0
142.0786	51.0
252.07733	50.0
277.16135	50.0
221.06111	50.0
198.06882	49.0
253.08597	49.0
280.1106	48.0
207.11398	48.0
285.14719	48.0
285.18027	47.0
212.08224	47.0
184.05434	47.0
240.04286	46.0
93.07123	46.0
229.12181	45.0
231.10371	45.0
185.09618	45.0
270.11404	45.0
158.07106	44.0
242.13382	43.0
298.07794	42.0
243.1346	42.0
225.05579	41.0
180.09506	40.0
127.05363	39.0
257.08093	39.0
195.11642	38.0
205.10191	38.0
178.0806	37.0
238.09999	37.0
257.11707	37.0
210.06743	37.0
239.14238	36.0
281.05716	36.0
193.10104	35.0
190.07666	34.0
145.06281	34.0
184.09021	33.0
157.10471	33.0
187.08017	33.0
154.07384	33.0
203.08432	32.0
226.06483	32.0
221.0946	32.0
107.08511	32.0
145.05809	31.0
160.05479	31.0
201.05727	31.0
217.10219	31.0
91.05182	30.0
224.12083	29.0
77.03761	29.0
194.06717	26.0
202.07927	26.0
196.08347	26.0
249.13	26.0
312.12195	25.0
312.13577	25.0
311.12436	24.0
95.087	24.0
277.12711	24.0
211.04376	24.0
235.07358	24.0
139.05841	24.0
172.05121	23.0
279.08051	23.0
212.04517	23.0
206.11023	23.0
220.0851	22.0
177.06392	22.0
258.0885	22.0
193.06294	22.0
189.05858	22.0
165.0909	21.0
241.04083	21.0
192.09795	21.0
261.06921	13.0
261.09137	13.0

MSID: 9032
ID: 117
RETENTIONTIME: 22.63465
PRECURSORMZ: 313.1784
AREA: 1825558.25
PRECURSORTYPE: [M+H]+
SMILES: CC(C)C1=C(O)C2=C3C(C=CC(C)=C3C(=O)CCC(C)(C)O2)=C1
NAME: viroxocin
FORMULA: C20H24O3
INCHIKEY: RKQKZFFJERBAPU-UHFFFAOYSA-N
CAS: nan
Molecular Weight: 312.409
Number of References: 4
Class: Secoabietane diterpenoids
Superclass: Diterpenoids
Pathway: Terpenoids
ppm: -1.970000000028449
CMID: CM243
IONMODE: Positive
COLLISIONENERGY: 40±20eV
INSTRUMENTTYPE: AB SCIEX
INSTRUMENT: Q-TOF
Comment:  
Num Peaks: 130
313.18054	480.0
295.16705	236.0
235.11151	229.0
215.10849	204.0
165.06978	172.0
200.08389	147.0
252.11351	130.0
253.12378	106.0
207.11432	101.0
153.06793	100.0
192.09283	98.0
193.06461	91.0
166.07796	87.0
187.07512	81.0
211.07399	80.0
225.12668	80.0
169.06618	78.0
191.08426	73.0
173.06012	72.0
154.07774	70.0
209.09796	69.0
277.16019	69.0
183.08066	67.0
223.11066	67.0
181.06401	66.0
255.13628	63.0
141.06966	63.0
195.08253	63.0
229.12071	63.0
229.08365	60.0
220.08981	59.0
207.07909	58.0
227.10602	57.0
271.1279	55.0
167.08669	54.0
179.08604	53.0
285.18405	50.0
237.12813	49.0
280.14383	49.0
219.1145	48.0
178.07697	48.0
233.10199	46.0
211.11241	45.0
180.09404	45.0
196.08926	44.0
295.15192	44.0
181.09959	44.0
107.08529	43.0
227.06912	43.0
190.07967	43.0
255.09872	42.0
197.09445	42.0
239.10641	40.0
152.06146	40.0
111.08058	39.0
203.10979	39.0
283.16983	38.0
222.09802	38.0
253.15805	38.0
213.09076	38.0
194.06885	38.0
247.11253	38.0
155.08354	37.0
185.09381	37.0
313.07138	37.0
224.08015	36.0
219.07971	36.0
206.10916	36.0
267.16885	36.0
240.1161	35.0
269.15439	35.0
217.1011	35.0
93.07043	35.0
227.09865	34.0
55.0531	34.0
199.07663	34.0
193.1068	34.0
143.04709	33.0
265.15878	33.0
225.09288	32.0
237.07686	32.0
215.07259	31.0
241.11726	31.0
143.08456	31.0
205.10506	31.0
165.08614	31.0
267.10483	31.0
223.07408	30.0
195.12085	30.0
207.10164	30.0
265.12531	30.0
257.10806	29.0
85.06429	29.0
123.0455	29.0
128.06042	29.0
91.05383	29.0
221.08914	28.0
234.11092	28.0
201.09093	28.0
206.06839	27.0
234.14088	26.0
189.06831	25.0
172.08104	25.0
210.10327	25.0
202.0977	25.0
191.10727	25.0
204.09081	24.0
243.13957	24.0
198.10085	23.0
177.06943	23.0
129.07097	23.0
238.1019	23.0
157.062	23.0
215.08983	23.0
295.13846	22.0
165.04712	22.0
249.09177	22.0
155.04695	22.0
262.13416	21.0
249.16133	21.0
171.04323	21.0
95.0862	21.0
83.08686	20.0
145.06422	19.0
127.05273	18.0
151.04987	17.0
79.0528	13.0
111.06923	13.0
62.00711	12.0
91.06038	12.0

MSID: 9033
ID: 376
RETENTIONTIME: 31.93672
PRECURSORMZ: 375.1791
AREA: 1820525.625
PRECURSORTYPE: [M+H]+
SMILES: [H][C@@]12CC[C@@]3(C)C(=CC[C@H](O)[C@]3([H])[C@@]1(C)C[C@H](OC2=O)C1=COC=C1)C(=O)OC
NAME: Salvinorin F
FORMULA: C21H26O6
INCHIKEY: GFUASHMLKMINGK-KZVLABISSA-N
CAS: nan
Molecular Weight: 374.434
Number of References: 7
Class: Colensane and Clerodane diterpenoids
Superclass: Diterpenoids
Pathway: Terpenoids
ppm: -1.665000000002692
CMID: CM243
IONMODE: Positive
COLLISIONENERGY: 40±20eV
INSTRUMENTTYPE: AB SCIEX
INSTRUMENT: Q-TOF
Comment:  
Num Peaks: 227
375.1796	5532.0
287.16541	3567.0
315.15933	2867.0
329.17252	2389.0
231.10097	1824.0
269.15259	1775.0
209.095	1342.0
273.11331	1332.0
259.09671	1168.0
227.10588	1070.0
297.14896	771.0
219.10132	681.0
247.09544	668.0
251.14392	535.0
223.09589	534.0
189.05472	514.0
245.11497	481.0
259.16925	469.0
255.10013	458.0
181.10078	457.0
203.10686	377.0
69.06898	374.0
261.11063	363.0
191.07059	347.0
319.19025	329.0
199.11243	304.0
274.12097	298.0
205.0853	265.0
217.12117	238.0
161.06017	235.0
226.09892	231.0
213.08919	230.0
165.0898	226.0
217.0851	225.0
211.07527	218.0
229.12204	217.0
301.18063	195.0
215.10692	182.0
157.06435	175.0
166.07785	169.0
185.09903	169.0
233.11531	166.0
279.14133	164.0
237.09178	159.0
311.16614	157.0
257.11575	149.0
271.13095	149.0
219.06508	142.0
217.05046	142.0
223.14709	133.0
254.09373	131.0
319.18323	128.0
231.09055	127.0
215.06958	126.0
287.14548	123.0
173.06001	121.0
165.06841	120.0
163.07376	118.0
244.1086	118.0
254.13121	117.0
236.11859	115.0
187.07365	114.0
347.18515	113.0
177.05367	113.0
203.07057	113.0
233.07942	112.0
175.07448	111.0
187.03883	110.0
258.08719	110.0
201.0894	107.0
216.07761	105.0
175.04079	104.0
229.08646	103.0
143.04816	99.0
270.1626	97.0
169.06352	97.0
189.08839	97.0
205.05023	96.0
197.09708	96.0
213.12923	92.0
95.08518	92.0
297.18442	90.0
193.09987	90.0
195.08105	90.0
241.08669	90.0
271.17126	90.0
239.10626	89.0
239.07144	89.0
243.10429	89.0
157.1024	88.0
171.07771	86.0
223.08125	85.0
219.08392	84.0
185.05772	83.0
81.06825	83.0
193.08626	83.0
213.05345	83.0
241.15665	81.0
255.13768	80.0
272.10587	80.0
231.06374	80.0
156.09373	80.0
194.07283	79.0
227.09259	79.0
217.07933	75.0
212.08246	72.0
91.05565	71.0
197.05997	70.0
243.13942	70.0
155.08466	70.0
201.05608	69.0
184.08774	69.0
188.08237	69.0
237.1129	69.0
225.09274	69.0
208.1232	67.0
271.09708	67.0
282.12735	67.0
131.04897	67.0
208.08788	66.0
177.09016	65.0
227.07045	64.0
179.10822	63.0
179.08594	63.0
129.07089	62.0
145.06413	62.0
180.09261	61.0
237.12648	61.0
199.07649	61.0
153.07027	60.0
167.08658	59.0
163.03874	59.0
245.08124	59.0
149.05945	58.0
286.11911	57.0
142.07758	57.0
259.133	55.0
181.06258	55.0
169.10173	54.0
283.16965	54.0
178.08076	54.0
152.06377	53.0
214.06105	53.0
289.14047	53.0
207.10573	52.0
159.04301	52.0
241.12471	52.0
128.06366	51.0
240.07649	49.0
268.1076	49.0
243.06764	48.0
246.09268	48.0
133.06354	48.0
253.15945	48.0
191.10579	47.0
259.06677	46.0
183.07921	46.0
245.15485	46.0
204.07948	46.0
221.09773	45.0
207.06345	45.0
147.0455	45.0
257.08591	45.0
174.06902	45.0
207.08035	44.0
226.0621	43.0
195.11252	43.0
222.10809	43.0
162.06602	42.0
225.05307	42.0
203.09291	42.0
107.08421	42.0
196.08777	42.0
281.11658	41.0
230.05696	41.0
253.08778	41.0
190.0647	41.0
198.06763	41.0
199.03781	40.0
170.07231	40.0
159.07637	40.0
230.09558	39.0
259.14401	39.0
161.09746	39.0
299.16647	39.0
127.05486	38.0
267.10147	38.0
184.05186	37.0
187.11116	36.0
202.06137	36.0
210.10597	35.0
73.06383	34.0
218.09494	34.0
123.04433	34.0
213.11922	34.0
55.05379	34.0
146.07326	34.0
141.06609	33.0
228.0766	33.0
137.05968	33.0
232.10555	33.0
171.04312	33.0
251.10977	33.0
247.07542	33.0
259.05573	33.0
231.13669	32.0
285.10944	31.0
264.11664	30.0
135.08325	29.0
315.1124	29.0
173.09866	29.0
79.05362	28.0
172.08864	28.0
69.03316	28.0
232.06825	28.0
223.13539	26.0
261.07263	26.0
215.03798	26.0
139.05624	25.0
175.02911	25.0
264.1055	25.0
325.13892	25.0
272.08325	24.0
343.15662	22.0
107.07712	18.0
296.13519	13.0
321.65515	12.0

MSID: 9034
ID: 89
RETENTIONTIME: 18.85597
PRECURSORMZ: 669.18
AREA: 1773663.125
PRECURSORTYPE: [M+H]+
SMILES: COC1=CC(C=CC(=O)OC[C@H]2O[C@@H](OC3=C(OC)C(O)=C4C(=O)C=C(OC4=C3)C3=CC=C(O)C=C3)[C@H](O)[C@@H](O)[C@@H]2O)=CC(OC)=C1O
NAME: salpleflavone
FORMULA: C33H32O15
INCHIKEY: HCIVBTCBTDTJFG-NGKUPWCISA-N
CAS: nan
Molecular Weight: 668.608
Number of References: 1
Class: Flavones
Superclass: Flavonoids
Pathway: Shikimates and Phenylpropanoids
ppm: -1.9500000000789441
CMID: CM243
IONMODE: Positive
COLLISIONENERGY: 40±20eV
INSTRUMENTTYPE: AB SCIEX
INSTRUMENT: Q-TOF
Comment:  
Num Peaks: 52
301.07193	38031.0
207.0649	6777.0
286.04794	6122.0
669.1839	4477.0
175.03952	1187.0
351.1088	428.0
369.11865	424.0
147.04553	335.0
463.12732	255.0
669.14337	129.0
119.05006	113.0
168.00444	106.0
269.04501	82.0
369.10361	68.0
283.0593	68.0
255.06421	62.0
129.03419	62.0
91.05379	60.0
351.09595	57.0
286.02142	48.0
175.02138	39.0
301.03793	37.0
300.07523	30.0
109.02567	30.0
81.03476	29.0
285.04337	29.0
309.09821	28.0
241.04568	26.0
300.07013	26.0
179.07286	26.0
286.00818	26.0
302.0737	25.0
258.05106	25.0
463.08093	25.0
164.04578	24.0
192.04254	23.0
268.16541	22.0
300.05826	22.0
207.02826	22.0
269.02573	20.0
225.07809	20.0
210.05208	20.0
304.33676	19.0
283.04941	17.0
147.03247	13.0
463.03036	13.0
136.05371	13.0
109.03385	13.0
109.02158	13.0
204.18169	12.0
176.41052	12.0
71.05032	12.0

MSID: 9035
ID: 179
RETENTIONTIME: 27.50228
PRECURSORMZ: 405.1904
AREA: 1682793.0
PRECURSORTYPE: [M+H]+
SMILES: [H][C@]12C[C@H](OC(C)=O)C=C3C(=O)OC[C@@]13C[C@@H](O)[C@@H](C)[C@]2(C)CCC1=CCOC1=O
NAME: 2β-Acetoxy-7α-hydroxy-neo-clerodan-3,13-dien-18,19:16,15-diolide
FORMULA: C22H28O7
INCHIKEY: PNENIROCKNMKOU-ANIUOEKKSA-N
CAS: nan
Molecular Weight: 404.46
Number of References: 3
Class: Colensane and Clerodane diterpenoids
Superclass: Diterpenoids
Pathway: Terpenoids
ppm: -0.9300000000393993
CMID: CM243
IONMODE: Positive
COLLISIONENERGY: 40±20eV
INSTRUMENTTYPE: AB SCIEX
INSTRUMENT: Q-TOF
Comment:  
Num Peaks: 228
261.11194	11003.0
315.159	4684.0
289.10687	3544.0
327.16025	3000.0
219.06485	1904.0
271.0968	1830.0
299.16449	1117.0
345.1694	1112.0
272.10397	938.0
405.19479	715.0
233.11656	689.0
191.07175	648.0
243.10252	612.0
297.14697	574.0
247.09673	544.0
309.14777	540.0
300.13593	458.0
286.12045	437.0
281.15405	421.0
255.10144	417.0
285.11411	350.0
239.10602	347.0
209.09619	345.0
314.15137	329.0
237.09003	310.0
357.17017	308.0
267.09958	297.0
285.15048	295.0
257.08249	291.0
269.15231	289.0
257.11548	283.0
217.08487	274.0
245.07945	257.0
257.15475	256.0
273.11301	243.0
243.06587	223.0
281.11627	221.0
229.04768	201.0
215.10527	196.0
303.15689	195.0
211.11206	190.0
282.12708	184.0
256.10983	184.0
231.1022	184.0
254.09348	174.0
279.13776	171.0
219.10254	170.0
145.06633	162.0
201.05447	162.0
173.06113	160.0
239.06967	159.0
211.07506	158.0
213.05324	157.0
225.09398	153.0
259.09802	146.0
227.10712	146.0
246.08936	141.0
241.0834	140.0
256.07376	136.0
221.0975	136.0
251.14366	132.0
193.10103	130.0
218.09036	128.0
197.09276	127.0
227.06728	120.0
205.08508	119.0
339.16025	119.0
215.06792	112.0
241.04994	111.0
240.07776	110.0
284.09964	109.0
233.07918	107.0
253.12024	105.0
195.07948	104.0
196.08757	97.0
332.16061	94.0
266.09213	93.0
253.08595	92.0
229.12181	92.0
269.11536	90.0
261.09296	90.0
226.1031	89.0
258.09006	88.0
315.12598	87.0
169.099	87.0
228.07637	87.0
185.0602	87.0
181.06635	84.0
177.05479	84.0
251.10951	83.0
163.0761	82.0
203.06897	79.0
268.10733	79.0
238.09695	76.0
224.0827	76.0
213.08754	75.0
259.13428	74.0
193.08606	74.0
266.12729	73.0
287.12692	71.0
312.13751	71.0
230.05969	71.0
201.0892	71.0
167.08388	70.0
226.06335	69.0
253.15295	68.0
225.05577	67.0
229.08327	67.0
178.07405	66.0
271.06616	66.0
165.0695	63.0
199.07353	62.0
271.16614	62.0
249.08672	62.0
183.11746	61.0
284.1409	61.0
275.09448	60.0
189.0882	60.0
179.08705	60.0
313.14536	60.0
255.08423	59.0
244.07315	58.0
183.08035	58.0
291.13538	56.0
269.08163	56.0
283.13309	56.0
223.11174	55.0
212.08224	55.0
166.07642	54.0
242.09724	53.0
190.0618	52.0
157.10101	52.0
182.07063	52.0
247.06285	52.0
236.11234	51.0
302.15164	51.0
128.06131	51.0
263.14316	51.0
187.07347	50.0
248.1154	49.0
223.07664	49.0
297.12164	49.0
300.10199	49.0
254.13095	48.0
283.12485	47.0
246.05249	47.0
263.09076	47.0
185.09483	47.0
272.07812	45.0
175.073	45.0
165.0909	45.0
205.05002	45.0
207.11819	44.0
270.08829	44.0
208.12439	44.0
239.0939	44.0
263.10663	43.0
159.07991	43.0
235.11111	43.0
183.04059	43.0
214.06082	42.0
242.05762	42.0
235.07657	42.0
203.10526	42.0
207.10269	42.0
206.07086	41.0
153.06767	41.0
216.07594	41.0
301.11234	41.0
209.05797	40.0
143.08549	40.0
152.06	40.0
298.12021	39.0
147.04297	39.0
142.07976	38.0
251.07071	38.0
223.14978	38.0
271.13712	38.0
232.07397	38.0
295.12787	37.0
279.10013	37.0
205.07806	36.0
375.1716	36.0
239.14236	36.0
317.17563	36.0
155.08694	35.0
221.05527	35.0
248.07993	35.0
273.09845	35.0
363.17374	35.0
209.08345	35.0
264.1116	35.0
141.07291	35.0
255.06389	34.0
314.11319	33.0
131.04659	33.0
198.06743	33.0
294.12091	33.0
305.10059	33.0
250.10019	32.0
279.11487	32.0
200.08495	32.0
207.07874	31.0
252.07733	30.0
167.04843	30.0
180.09111	30.0
157.06296	29.0
161.06	29.0
117.07166	29.0
186.10355	29.0
405.22635	28.0
199.03899	27.0
293.11398	27.0
177.08998	27.0
228.04236	27.0
149.0593	26.0
174.06883	26.0
192.04094	25.0
194.07535	25.0
307.11911	25.0
81.06641	25.0
285.08929	25.0
220.088	24.0
286.08237	24.0
222.07138	23.0
133.10408	13.0
115.04797	13.0
57.06952	12.0

MSID: 9036
ID: 145
RETENTIONTIME: 26.21045
PRECURSORMZ: 231.1023
AREA: 1629510.0
PRECURSORTYPE: [M+H]+
SMILES: CC(C)C1=CC2=CC=C(C)C(O)=C2C(=O)C1=O
NAME: lanigerone
FORMULA: C14H14O3
INCHIKEY: YKJHQHHXPDQXMH-UHFFFAOYSA-N
CAS: nan
Molecular Weight: 230.263
Number of References: 1
Class: Naphthoquinones
Superclass: Naphthalenes
Pathway: Polyketides
ppm: 0.18000000002871275
CMID: CM243
IONMODE: Positive
COLLISIONENERGY: 40±20eV
INSTRUMENTTYPE: AB SCIEX
INSTRUMENT: Q-TOF
Comment:  
Num Peaks: 57
231.10085	1259.0
188.08226	562.0
141.0695	494.0
173.05992	345.0
216.07605	340.0
142.07983	298.0
203.10536	297.0
145.06288	288.0
115.05434	203.0
157.09987	170.0
187.07625	146.0
169.06471	132.0
159.08122	125.0
185.09227	113.0
170.06967	107.0
117.06853	92.0
127.05369	82.0
91.05186	80.0
128.06248	73.0
161.0576	71.0
155.05043	71.0
129.0697	65.0
131.05226	64.0
160.08833	59.0
198.06616	58.0
144.05373	55.0
174.06635	53.0
213.09195	53.0
152.06248	48.0
175.07179	47.0
201.09348	46.0
153.0714	46.0
131.08478	46.0
197.06261	45.0
160.0524	40.0
105.06677	40.0
189.05194	39.0
141.05321	39.0
165.06958	38.0
215.07091	37.0
171.08018	31.0
55.05449	31.0
159.04541	29.0
203.06628	28.0
199.08054	27.0
157.06305	27.0
181.06511	27.0
143.05043	25.0
103.05764	25.0
132.05652	24.0
170.05818	23.0
57.0333	23.0
181.05984	18.0
213.05334	13.0
166.07777	13.0
213.12625	13.0
75.02145	12.0

MSID: 9037
ID: 405
RETENTIONTIME: 32.67277
PRECURSORMZ: 317.2101
AREA: 1628199.25
PRECURSORTYPE: [M+H]+
SMILES: [H][C@@]12CCC3=C(C(=O)C(O)=C(C(C)C)C3=O)[C@@]1(C)CCCC2(C)C
NAME: royleanone
FORMULA: C20H28O3
INCHIKEY: KZAPVZIQILABNM-RBZFPXEDSA-N
CAS: nan
Molecular Weight: 316.441
Number of References: 52
Class: Abietane diterpenoids
Superclass: Diterpenoids
Pathway: Terpenoids
ppm: -1.5700000000151704
CMID: CM243
IONMODE: Positive
COLLISIONENERGY: 40±20eV
INSTRUMENTTYPE: AB SCIEX
INSTRUMENT: Q-TOF
Comment:  
Num Peaks: 198
215.10675	6210.0
191.10699	2508.0
205.1216	1801.0
299.19843	1601.0
217.121	1307.0
281.19025	1203.0
200.0836	1099.0
243.1377	1030.0
173.05988	1014.0
197.09555	952.0
95.08511	829.0
317.21057	764.0
287.20001	710.0
183.0804	651.0
149.06052	595.0
55.05375	572.0
203.1067	485.0
145.06401	481.0
239.14394	477.0
157.06422	477.0
257.15323	470.0
229.12334	454.0
154.07629	440.0
182.07199	420.0
153.07014	419.0
225.12782	413.0
67.05305	408.0
165.09093	398.0
131.04886	388.0
187.11235	367.0
141.06946	362.0
201.09064	356.0
181.06506	349.0
129.07079	344.0
161.06003	337.0
109.10125	333.0
169.10031	330.0
155.08453	330.0
163.07613	308.0
165.06953	306.0
185.09488	292.0
128.06245	284.0
171.08142	276.0
69.06973	263.0
285.1853	258.0
175.07434	248.0
81.06907	247.0
245.15465	233.0
187.07484	228.0
231.13948	226.0
143.04922	209.0
152.06123	208.0
167.08644	193.0
83.08585	184.0
172.0872	180.0
143.08437	173.0
103.05363	170.0
199.11089	169.0
169.06467	168.0
159.07994	167.0
189.08958	160.0
147.04301	158.0
211.15053	155.0
115.05536	151.0
170.07219	150.0
179.07137	149.0
202.0988	142.0
177.09262	137.0
199.07358	137.0
256.14749	135.0
157.10106	124.0
211.10783	124.0
179.0871	122.0
195.08089	121.0
97.10218	120.0
127.05476	118.0
193.08611	117.0
253.1577	114.0
57.06953	104.0
275.16602	104.0
221.11649	103.0
91.0537	103.0
188.08356	101.0
129.06522	95.0
207.10416	95.0
131.08586	95.0
179.10545	94.0
241.123	94.0
183.11618	94.0
239.23785	93.0
195.11646	92.0
196.09036	92.0
223.11034	91.0
174.0663	87.0
213.09187	86.0
201.12814	85.0
117.06744	84.0
209.09908	84.0
227.14259	82.0
159.11577	80.0
238.13631	79.0
225.10873	79.0
105.06775	76.0
178.07802	76.0
219.13449	76.0
79.05442	75.0
243.12395	74.0
184.08891	71.0
173.09595	70.0
123.04533	70.0
227.10864	69.0
185.06157	68.0
160.04987	66.0
168.05632	64.0
269.18613	61.0
113.09404	61.0
158.07356	60.0
271.16943	60.0
119.08521	58.0
214.09669	57.0
209.13165	56.0
168.09187	56.0
165.05821	55.0
197.13405	55.0
93.0703	55.0
151.07614	54.0
182.10899	52.0
173.047	52.0
230.12956	49.0
198.06747	49.0
137.05728	49.0
133.09959	49.0
213.12762	49.0
243.10564	48.0
131.07913	48.0
171.11601	48.0
193.10652	48.0
210.1413	48.0
71.04859	46.0
210.10439	45.0
151.05447	45.0
123.11595	45.0
228.11488	45.0
139.05382	45.0
111.11655	44.0
77.03762	44.0
221.13106	44.0
186.10359	44.0
156.08994	44.0
71.08492	44.0
99.07901	43.0
137.13068	43.0
167.05099	42.0
147.11665	41.0
166.07898	41.0
255.13747	40.0
145.10176	40.0
107.08615	40.0
128.04582	38.0
259.17377	37.0
221.22427	37.0
161.09857	37.0
149.04857	37.0
144.09129	36.0
299.16116	36.0
261.14841	36.0
216.11342	36.0
163.11241	36.0
83.04925	36.0
192.09256	35.0
217.15131	35.0
229.15892	34.0
121.10189	34.0
119.04567	33.0
197.06943	32.0
144.05721	32.0
156.0569	32.0
210.09871	32.0
201.07814	31.0
231.10376	30.0
183.05521	30.0
69.03393	29.0
281.15247	28.0
143.07265	28.0
237.12477	27.0
130.07637	26.0
215.06941	26.0
239.22574	25.0
133.06117	25.0
219.11855	25.0
162.06963	25.0
159.04289	24.0
156.09851	24.0
119.07346	23.0
175.10674	22.0
271.20493	21.0
91.04903	19.0
65.0378	13.0

MSID: 9038
ID: 224
RETENTIONTIME: 28.75517
PRECURSORMZ: 329.1381
AREA: 1609429.625
PRECURSORTYPE: [M+H]+
SMILES: CC1COC(=C1C(O)=O)C1=CC=C2C3=C1C(=O)OC3CCC2(C)C
NAME: grandifolia G
FORMULA: C19H20O5
INCHIKEY: ZTBRVDVFZVQVGH-UHFFFAOYSA-N
CAS: nan
Molecular Weight: 328.365
Number of References: 1
Class: nan
Superclass: Sesquiterpenoids
Pathway: Terpenoids
ppm: -0.8000000000265572
CMID: CM243
IONMODE: Positive
COLLISIONENERGY: 40±20eV
INSTRUMENTTYPE: AB SCIEX
INSTRUMENT: Q-TOF
Comment:  
Num Peaks: 189
329.13858	5323.0
301.1431	4749.0
203.07047	535.0
286.12228	451.0
245.08112	426.0
311.12625	398.0
283.12994	384.0
259.095	342.0
241.08656	298.0
195.08095	262.0
217.08499	250.0
287.09058	241.0
271.09857	221.0
243.06752	184.0
157.06551	175.0
273.14877	163.0
223.07675	163.0
259.13284	162.0
165.07085	155.0
245.04585	151.0
167.0865	149.0
255.13754	145.0
189.09233	144.0
213.09193	144.0
258.08548	143.0
253.08609	138.0
229.05077	137.0
128.06248	136.0
227.07329	135.0
300.10385	134.0
269.11871	134.0
231.0666	132.0
171.08147	124.0
265.11862	121.0
287.12875	120.0
201.08931	119.0
207.08026	118.0
199.0764	118.0
255.10156	115.0
272.10574	109.0
244.06717	108.0
143.08324	108.0
152.06128	105.0
231.10233	103.0
229.08487	102.0
185.09494	98.0
286.08582	97.0
225.08969	97.0
179.08585	97.0
215.07091	96.0
269.08176	95.0
268.10748	94.0
240.07941	94.0
237.12485	94.0
129.06749	92.0
181.06775	92.0
243.10265	90.0
197.06123	89.0
175.07698	89.0
213.0562	88.0
201.05458	87.0
185.05763	87.0
212.08664	85.0
141.07066	85.0
189.05463	84.0
178.07806	78.0
215.10394	77.0
225.05443	71.0
267.13974	69.0
166.07777	68.0
188.04601	68.0
91.05373	67.0
211.07944	67.0
285.10931	67.0
226.09882	66.0
157.09865	63.0
153.07019	61.0
230.05832	59.0
209.05949	58.0
314.10989	58.0
241.12155	57.0
273.10831	57.0
160.05116	56.0
209.13171	56.0
173.09859	56.0
179.0688	56.0
257.08264	55.0
227.10428	54.0
223.11186	54.0
235.07669	54.0
268.07059	53.0
254.09204	53.0
169.06343	52.0
241.04855	52.0
198.06615	51.0
173.05864	50.0
171.04431	50.0
250.09723	50.0
69.06813	49.0
187.07623	48.0
98.9845	47.0
161.09737	47.0
257.04181	46.0
183.0831	46.0
219.10121	45.0
147.07986	44.0
221.09908	44.0
105.07079	43.0
243.08737	42.0
258.12167	42.0
158.07483	42.0
203.10397	42.0
237.09016	42.0
131.08478	42.0
93.07033	42.0
259.06665	42.0
239.07132	41.0
273.186	41.0
133.09962	41.0
293.11917	41.0
301.10229	41.0
258.07761	40.0
174.06764	40.0
203.05093	40.0
240.10823	40.0
263.06863	39.0
182.07072	39.0
131.04889	38.0
177.05489	38.0
197.09698	37.0
187.0441	37.0
163.03741	36.0
184.08765	36.0
167.05106	36.0
271.0647	36.0
142.07634	35.0
81.06733	35.0
195.11652	35.0
251.0755	35.0
273.07431	35.0
283.09863	34.0
215.05942	34.0
155.08458	34.0
159.04541	34.0
194.06999	34.0
159.08122	34.0
204.09477	34.0
205.08379	34.0
145.06523	33.0
216.08037	33.0
217.04459	32.0
119.08311	32.0
128.05806	32.0
221.06558	32.0
145.10181	32.0
83.04838	31.0
169.10292	31.0
67.05307	30.0
212.11945	30.0
299.08841	30.0
117.07277	29.0
177.07314	29.0
231.13806	29.0
132.05765	29.0
296.09625	28.0
219.12006	28.0
267.10611	28.0
200.04903	27.0
270.08841	26.0
208.08212	26.0
275.1011	25.0
168.05383	25.0
329.10483	25.0
95.08609	25.0
170.07224	25.0
227.14856	25.0
97.06458	25.0
154.07269	24.0
175.0381	24.0
278.09656	23.0
233.12566	23.0
163.07744	23.0
295.09607	23.0
311.16943	23.0
251.05998	22.0
293.14767	22.0
296.11142	21.0
281.06882	13.0
62.99657	12.0

MSID: 9039
ID: 351
RETENTIONTIME: 31.44938
PRECURSORMZ: 383.1833
AREA: 1573863.875
PRECURSORTYPE: [M+Na]+
SMILES: [H][C@@]12[C@@H](OC)C(=O)C3=C(C(=O)C(O)=C(C(C)C)C3=O)[C@@]1(C)CCCC2(C)C
NAME: 6α-methoxyl-7-oxoroyleanone
FORMULA: C21H28O5
INCHIKEY: CWYUYJUTSPWUMM-IRFCIJBXSA-N
CAS: nan
Molecular Weight: 360.45
Number of References: 1
Class: Abietane diterpenoids
Superclass: Diterpenoids
Pathway: Terpenoids
ppm: -0.14500000003181412
CMID: CM243
IONMODE: Positive
COLLISIONENERGY: 40±20eV
INSTRUMENTTYPE: AB SCIEX
INSTRUMENT: Q-TOF
Comment:  
Num Peaks: 6
383.18179	7604.0
337.18668	57.0
383.1358	31.0
339.19308	28.0
381.92328	26.0
328.70538	12.0

MSID: 9040
ID: 334
RETENTIONTIME: 31.2124
PRECURSORMZ: 297.1483
AREA: 1553045.75
PRECURSORTYPE: [M+H]+
SMILES: C[C@@H]1COC2=C1C(=O)C1=C(C2=O)C2=C(C=C1)C(C)(C)CCC2
NAME: isocryptotanshinone
FORMULA: C19H20O3
INCHIKEY: VUIHARLRBGHPEA-SNVBAGLBSA-N
CAS: nan
Molecular Weight: 296.366
Number of References: 48
Class: Abietane diterpenoids
Superclass: Naphthalenes
Pathway: Polyketides
ppm: -0.7700000000454565
CMID: CM243
IONMODE: Positive
COLLISIONENERGY: 40±20eV
INSTRUMENTTYPE: AB SCIEX
INSTRUMENT: Q-TOF
Comment:  
Num Peaks: 161
297.14874	6528.0
237.0916	1425.0
269.15399	1126.0
239.10608	886.0
282.12384	784.0
209.09625	659.0
221.09756	655.0
165.06953	595.0
178.07671	585.0
254.09354	583.0
193.10109	573.0
249.09142	468.0
254.13101	451.0
225.08963	412.0
279.13947	400.0
211.07368	391.0
227.1057	388.0
212.08372	370.0
211.11069	368.0
251.14372	329.0
197.09555	327.0
255.1015	302.0
267.10126	300.0
236.11992	262.0
179.08449	260.0
181.06506	251.0
171.07886	250.0
181.10065	241.0
166.07646	236.0
183.0804	234.0
226.09875	234.0
194.07404	230.0
239.06973	228.0
264.11804	207.0
153.06892	199.0
206.07233	197.0
152.06123	195.0
197.05705	189.0
224.08276	188.0
254.1154	187.0
196.08624	186.0
195.08226	177.0
221.05969	164.0
246.10478	162.0
203.08577	161.0
236.08078	154.0
199.11089	151.0
191.08398	150.0
185.09488	148.0
223.07669	143.0
155.08453	140.0
141.0683	137.0
226.13409	136.0
240.11121	131.0
182.07199	130.0
128.06245	129.0
235.07663	127.0
241.15646	127.0
227.14407	126.0
223.14838	125.0
222.07143	125.0
219.08376	123.0
261.12466	122.0
238.09702	121.0
208.08771	120.0
231.07697	120.0
202.07513	116.0
207.0788	115.0
167.08519	114.0
222.10208	113.0
157.06422	107.0
169.10159	107.0
251.10803	97.0
199.07497	93.0
192.09392	92.0
189.07343	90.0
240.07782	89.0
185.06024	88.0
198.10608	86.0
235.11118	85.0
223.10887	85.0
143.08554	83.0
238.09097	82.0
190.07805	80.0
205.06549	80.0
213.09045	78.0
184.08626	78.0
168.05505	76.0
180.09509	76.0
129.06967	72.0
154.07631	71.0
176.06189	70.0
234.06712	67.0
173.09982	66.0
218.10922	65.0
187.11102	64.0
253.08759	64.0
241.12148	63.0
245.09639	62.0
212.1208	61.0
253.12186	61.0
145.0652	60.0
210.11008	60.0
157.09982	59.0
127.05366	59.0
135.08087	57.0
269.11545	55.0
164.06192	55.0
209.05943	55.0
227.07175	54.0
139.05382	54.0
269.1283	54.0
263.10828	54.0
183.11485	54.0
268.10739	53.0
171.11601	53.0
241.08347	52.0
91.05557	52.0
217.10225	52.0
198.06886	51.0
177.07178	50.0
233.13158	50.0
250.09715	50.0
142.07513	48.0
207.11826	48.0
173.05731	48.0
159.08365	48.0
170.07091	46.0
233.09419	43.0
225.0573	43.0
227.12932	42.0
183.06317	42.0
256.10361	40.0
218.07307	40.0
237.12779	39.0
225.12489	39.0
267.08365	38.0
240.09755	38.0
215.08377	37.0
281.11798	37.0
156.09483	37.0
194.10815	36.0
151.05687	35.0
280.19754	35.0
213.05757	35.0
224.04318	35.0
115.05326	34.0
252.07584	33.0
144.05721	33.0
279.1051	33.0
229.1011	33.0
282.09094	33.0
195.11783	33.0
157.02864	32.0
219.06926	32.0
247.1091	31.0
267.13647	29.0
248.07999	29.0
173.09081	28.0
131.04774	26.0
215.10245	24.0

MSID: 9041
ID: 357
RETENTIONTIME: 31.60367
PRECURSORMZ: 303.1959
AREA: 1552614.375
PRECURSORTYPE: [M+H]+
SMILES: [H][C@@]12CCC3=C(C=C(O)C(=O)C(C)=C3)[C@@]1(CO)CCCC2(C)C
NAME: isograndifoliol
FORMULA: C19H26O3
INCHIKEY: LZLHHGFIKUAWST-LPHOPBHVSA-N
CAS: 1445475-53-5
Molecular Weight: 302.414
Number of References: 2
Class: Podocarpane diterpenoids
Superclass: Diterpenoids
Pathway: Terpenoids
ppm: -0.12000000003808964
CMID: CM243
IONMODE: Positive
COLLISIONENERGY: 40±20eV
INSTRUMENTTYPE: AB SCIEX
INSTRUMENT: Q-TOF
Comment:  
Num Peaks: 103
215.10683	290.0
285.18707	222.0
267.17657	210.0
191.10571	206.0
303.19119	189.0
225.12938	162.0
173.05995	139.0
229.11899	108.0
169.10294	97.0
183.08046	97.0
145.06525	92.0
197.09425	92.0
243.13321	91.0
131.05003	90.0
203.10399	89.0
200.08507	87.0
187.07761	87.0
153.07021	82.0
217.12398	74.0
155.08582	70.0
239.17886	68.0
181.06514	68.0
245.15474	67.0
185.09496	63.0
205.12167	62.0
149.06058	59.0
141.07068	59.0
154.07758	59.0
182.07207	57.0
163.07495	57.0
165.07086	56.0
152.06129	54.0
161.05762	51.0
165.08974	50.0
128.0625	49.0
129.06972	47.0
81.06998	47.0
157.06552	47.0
167.08272	46.0
169.06473	42.0
143.04811	42.0
115.0533	41.0
159.08	40.0
95.0861	40.0
131.04666	40.0
211.11076	39.0
175.0731	39.0
189.091	38.0
195.07961	37.0
141.06718	37.0
197.13	37.0
209.09209	37.0
242.12787	36.0
191.09354	35.0
201.09349	34.0
179.08717	33.0
187.10976	33.0
201.12822	33.0
147.04544	33.0
172.08728	33.0
207.10001	31.0
227.10725	31.0
177.08879	30.0
183.07649	29.0
117.0696	28.0
91.0528	27.0
233.15408	27.0
214.09535	27.0
157.10234	27.0
191.08405	26.0
257.15332	26.0
211.10649	26.0
142.07867	26.0
303.16049	26.0
261.13901	25.0
188.08498	25.0
129.06305	25.0
171.08276	25.0
186.06892	25.0
182.10907	25.0
217.11098	24.0
196.0918	24.0
85.066	24.0
201.08099	23.0
233.11072	22.0
202.10028	22.0
168.09828	22.0
223.1075	22.0
156.09245	21.0
203.09422	21.0
105.06779	20.0
267.14136	20.0
155.07607	19.0
55.05304	19.0
224.11656	18.0
233.10324	17.0
199.11096	17.0
151.05092	16.0
221.11366	15.0
237.12486	13.0
77.03593	12.0
83.09927	12.0
93.07317	12.0

MSID: 9042
ID: 64
RETENTIONTIME: 14.94772
PRECURSORMZ: 609.1821
AREA: 1545308.875
PRECURSORTYPE: [M+H]+
SMILES: COC1=C2OC=C(C(=O)C2=C(O)C=C1O[C@@H]1O[C@@H](C)[C@H](O)[C@@H](O)[C@H]1O)C1=CC=C(O[C@@H]2O[C@H](CO)[C@@H](O)[C@H](O)[C@H]2O)C=C1
NAME: 8-methoxygenistein 7-O-α-L-rhamnoside 4'-O-β-D-glucoside
FORMULA: C28H32O15
INCHIKEY: SVRABECZTWRKCD-HTXKOFPHSA-N
CAS: nan
Molecular Weight: 608.553
Number of References: 1
Class: Isoflavones
Superclass: Isoflavonoids
Pathway: Shikimates and Phenylpropanoids
ppm: 0.14999999996234692
CMID: CM243
IONMODE: Positive
COLLISIONENERGY: 40±20eV
INSTRUMENTTYPE: AB SCIEX
INSTRUMENT: Q-TOF
Comment:  
Num Peaks: 21
301.07202	16594.0
463.12534	4251.0
609.18243	1259.0
286.048	771.0
258.05115	200.0
85.02905	126.0
71.04868	123.0
129.05537	43.0
286.02649	33.0
609.13171	33.0
464.12915	27.0
57.0341	27.0
300.0889	22.0
229.05101	20.0
153.0134	19.0
147.05745	13.0
257.03735	13.0
393.08395	13.0
461.56485	13.0
73.51495	12.0
71.05529	12.0

MSID: 9043
ID: 332
RETENTIONTIME: 31.17302
PRECURSORMZ: 345.1691
AREA: 1537295.5
PRECURSORTYPE: [M+H]+
SMILES: [H][C@]12CCC=C3C(=O)OC[C@@]13CC(=O)[C@@H](C)[C@]2(C)CCC1=CCOC1=O
NAME: 7-keto-ent-clerodan-3,13-dien-18,19:16,15-diolide
FORMULA: C20H24O5
INCHIKEY: JUGXEOXLYIYYCQ-WWIODWGFSA-N
CAS: nan
Molecular Weight: 344.408
Number of References: 3
Class: Colensane and Clerodane diterpenoids
Superclass: Diterpenoids
Pathway: Terpenoids
ppm: -1.1000000000080945
CMID: CM243
IONMODE: Positive
COLLISIONENERGY: 40±20eV
INSTRUMENTTYPE: AB SCIEX
INSTRUMENT: Q-TOF
Comment:  
Num Peaks: 236
271.16953	3113.0
299.16464	3066.0
317.17404	2611.0
231.10234	1940.0
289.1803	1736.0
229.12341	1046.0
253.15933	972.0
211.11359	936.0
239.10767	868.0
241.12306	826.0
281.15582	741.0
257.11563	677.0
247.0984	570.0
215.10681	533.0
181.06644	421.0
69.06976	417.0
345.17142	406.0
199.0764	401.0
203.10677	376.0
221.09763	375.0
213.09052	348.0
228.11642	341.0
183.11623	334.0
217.08643	319.0
231.13658	282.0
235.09622	270.0
161.05884	269.0
195.08232	259.0
219.10266	259.0
197.09698	254.0
187.07491	250.0
189.09369	249.0
165.09097	248.0
173.05864	246.0
216.0775	240.0
193.10114	233.0
223.07529	230.0
261.11365	228.0
147.04424	220.0
171.08018	220.0
283.16785	214.0
201.09209	213.0
188.0836	209.0
193.08752	196.0
169.06598	192.0
153.0726	192.0
185.09627	186.0
157.06673	185.0
141.07066	184.0
157.10355	177.0
197.06261	175.0
238.09709	169.0
249.11467	167.0
237.09016	158.0
241.08505	157.0
207.09999	156.0
301.18219	154.0
196.08904	154.0
256.1131	152.0
175.07568	150.0
149.06177	147.0
177.05489	146.0
243.10265	140.0
205.08659	133.0
142.07867	129.0
152.06369	128.0
198.06754	127.0
183.08044	124.0
178.07675	123.0
128.06027	123.0
189.05597	121.0
205.04872	121.0
177.09137	121.0
245.11638	119.0
143.08675	117.0
168.09447	117.0
155.0858	116.0
159.07999	116.0
165.05449	115.0
259.1297	115.0
257.15332	115.0
224.08429	111.0
233.0793	110.0
179.0688	110.0
263.1449	106.0
145.06642	105.0
225.1617	105.0
201.05597	105.0
249.10849	104.0
213.12483	101.0
131.04778	100.0
275.12549	100.0
159.04294	100.0
256.14444	99.0
243.1393	99.0
167.08397	98.0
219.136	98.0
209.09914	98.0
200.08089	97.0
193.05078	97.0
223.11186	96.0
182.07469	96.0
191.10434	95.0
169.10292	94.0
210.10161	94.0
229.08783	92.0
255.13599	91.0
219.06497	91.0
266.12741	88.0
129.07082	87.0
284.14435	86.0
253.12349	85.0
247.13226	84.0
242.09584	81.0
227.10724	80.0
225.12643	80.0
179.10812	80.0
211.0766	78.0
171.11862	77.0
207.06616	77.0
143.04692	76.0
163.07744	76.0
127.05369	76.0
345.1532	75.0
210.06895	75.0
170.07095	75.0
55.05303	74.0
228.07945	73.0
154.07878	73.0
215.06947	72.0
227.07034	72.0
213.05478	71.0
191.06914	70.0
217.12251	70.0
281.13614	70.0
204.07939	68.0
203.07187	68.0
175.0381	67.0
221.08305	67.0
123.04427	67.0
251.11121	66.0
59.04781	66.0
174.06635	66.0
185.06029	63.0
67.05547	63.0
190.0619	62.0
215.09532	61.0
211.09367	60.0
225.09116	60.0
187.11241	60.0
206.07237	59.0
199.11371	58.0
95.08704	57.0
271.1308	57.0
197.13274	56.0
223.10162	55.0
179.08716	53.0
205.12166	53.0
269.11713	52.0
195.11378	51.0
273.14877	51.0
137.05731	50.0
263.13696	50.0
214.10393	49.0
144.05843	49.0
167.03333	49.0
197.08324	49.0
180.0912	48.0
239.14552	48.0
232.0726	48.0
177.07314	47.0
81.06821	47.0
181.05853	47.0
145.09709	46.0
107.08517	46.0
91.05466	46.0
93.0675	46.0
211.08798	46.0
181.10202	45.0
203.09001	45.0
189.04924	44.0
165.0482	44.0
255.10626	44.0
243.12555	44.0
198.10751	43.0
229.09821	43.0
166.07777	43.0
85.06599	42.0
160.08461	42.0
115.05329	42.0
172.09111	42.0
103.05565	42.0
117.07066	41.0
151.0545	40.0
109.10231	39.0
327.15863	38.0
287.1636	37.0
205.06976	37.0
160.05116	37.0
243.17595	37.0
195.06317	37.0
184.05177	37.0
270.12384	37.0
182.11037	36.0
238.0865	36.0
179.10027	36.0
208.08777	35.0
238.12883	35.0
273.186	34.0
231.07851	34.0
317.13916	34.0
147.08344	33.0
163.03867	33.0
187.04141	32.0
230.13261	31.0
83.08587	31.0
223.06213	31.0
235.14879	31.0
221.1151	30.0
201.12958	30.0
192.09262	29.0
186.06757	29.0
285.18372	28.0
289.147	28.0
281.11807	27.0
153.05565	27.0
105.06878	26.0
212.0795	26.0
259.10132	25.0
245.08266	25.0
228.09572	25.0
202.06128	25.0
158.07114	23.0
167.07637	23.0
67.05147	16.0
85.06239	13.0

MSID: 9044
ID: 474
RETENTIONTIME: 35.25033
PRECURSORMZ: 279.2322
AREA: 1527704.75
PRECURSORTYPE: [M+H]+
SMILES: CCCCC\C=C/C\C=C/C\C=C/CCCCC(O)=O
NAME: all-cis-6,9,12-octadecatrienoic acid
FORMULA: C18H30O2
INCHIKEY: VZCCETWTMQHEPK-QNEBEIHSSA-N
CAS: 506-26-3
Molecular Weight: 278.435
Number of References: 4524
Class: Unsaturated fatty acids
Superclass: Fatty Acids and Conjugates
Pathway: Fatty acids
ppm: -0.20500000005085894
CMID: CM243
IONMODE: Positive
COLLISIONENERGY: 40±20eV
INSTRUMENTTYPE: AB SCIEX
INSTRUMENT: Q-TOF
Comment:  
Num Peaks: 68
67.05383	3903.0
81.06992	2651.0
95.08508	1645.0
79.05353	685.0
109.10224	614.0
55.05373	608.0
279.23267	581.0
149.02461	389.0
123.11809	290.0
93.06933	266.0
69.06972	197.0
65.03779	183.0
137.13292	163.0
77.03845	160.0
107.08612	151.0
91.05274	147.0
121.10078	133.0
135.11952	125.0
53.03851	124.0
131.08694	118.0
173.13327	111.0
147.11661	108.0
57.06952	103.0
133.10068	94.0
261.22272	93.0
161.13208	92.0
145.10289	91.0
83.08672	91.0
223.16733	89.0
243.20941	88.0
159.11696	81.0
187.14847	80.0
201.04613	79.0
163.14989	75.0
191.14078	60.0
105.06973	60.0
195.13829	55.0
209.15709	54.0
151.14952	53.0
149.13223	52.0
279.21957	50.0
97.06452	49.0
181.12167	48.0
149.09636	46.0
137.09508	46.0
83.04922	46.0
237.18503	46.0
97.10216	45.0
85.06504	45.0
177.12907	43.0
151.1122	42.0
93.03342	41.0
279.09357	41.0
123.07788	39.0
71.04857	36.0
179.14209	36.0
135.11156	33.0
219.20836	32.0
55.0174	31.0
117.06741	28.0
165.12738	28.0
119.07983	26.0
167.10539	25.0
111.11445	23.0
129.0663	22.0
113.10026	13.0
217.19022	13.0
73.8671	12.0

MSID: 9045
ID: 43
RETENTIONTIME: 13.27388
PRECURSORMZ: 197.1174
AREA: 1512007.625
PRECURSORTYPE: [M+H]+
SMILES: C[C@]12C[C@@H](O)CC(C)(C)C1=CC(=O)O2
NAME: isololiolide
FORMULA: C11H16O3
INCHIKEY: XEVQXKKKAVVSMW-CPCISQLKSA-N
CAS: nan
Molecular Weight: 196.246
Number of References: 55
Class: Apocarotenoids (β-)
Superclass: Apocarotenoids
Pathway: Terpenoids
ppm: -0.3700000000037562
CMID: CM243
IONMODE: Positive
COLLISIONENERGY: 40±20eV
INSTRUMENTTYPE: AB SCIEX
INSTRUMENT: Q-TOF
Comment:  
Num Peaks: 56
133.10088	1687.0
179.10565	1506.0
91.05381	1464.0
107.08627	1118.0
105.07088	982.0
135.1163	699.0
77.03857	693.0
161.0975	606.0
93.07041	468.0
197.11641	448.0
79.05364	429.0
65.03867	381.0
67.05393	231.0
81.07005	179.0
95.04797	170.0
131.08488	167.0
115.05444	154.0
55.05381	144.0
117.06863	139.0
103.05375	111.0
109.1024	106.0
51.02246	102.0
119.08534	97.0
151.11363	96.0
143.08571	86.0
59.04861	84.0
109.06557	82.0
121.06539	80.0
123.04546	75.0
57.0696	72.0
128.06371	67.0
119.04901	65.0
131.04901	61.0
123.11826	59.0
137.09528	58.0
91.04446	58.0
118.07643	57.0
146.07094	57.0
95.08331	54.0
85.06516	44.0
145.06535	42.0
121.0988	36.0
116.05988	35.0
164.08344	34.0
93.0619	32.0
133.08392	32.0
71.04868	29.0
53.03859	29.0
69.03156	28.0
78.04762	26.0
79.04233	24.0
77.02911	23.0
135.07419	23.0
197.0999	18.0
83.05738	12.0
63.03472	12.0

MSID: 9046
ID: 412
RETENTIONTIME: 32.96567
PRECURSORMZ: 297.1838
AREA: 1487097.75
PRECURSORTYPE: [M+H]+
SMILES: CC(C)C1=CC2=C(C(=O)C1=O)C(CCC=C(C)C)=C(C)C=C2
NAME: saprorthoquinone
FORMULA: C20H24O2
INCHIKEY: FWJDKZSXXFWHPR-UHFFFAOYSA-N
CAS: 102607-41-0
Molecular Weight: 296.409
Number of References: 8
Class: Secoabietane diterpenoids
Superclass: Diterpenoids
Pathway: Terpenoids
ppm: -1.6550000000279397
CMID: CM243
IONMODE: Positive
COLLISIONENERGY: 40±20eV
INSTRUMENTTYPE: AB SCIEX
INSTRUMENT: Q-TOF
Comment:  
Num Peaks: 129
297.14899	584.0
297.18613	397.0
165.07094	285.0
255.1017	273.0
209.09642	254.0
237.12799	247.0
297.16754	245.0
255.13925	200.0
195.08105	191.0
237.09331	175.0
153.07027	157.0
181.0639	142.0
167.08659	140.0
221.09628	135.0
152.06378	128.0
209.13324	123.0
227.10884	121.0
152.06015	120.0
279.17734	118.0
211.07529	116.0
251.14392	114.0
225.09128	114.0
254.12965	114.0
279.13806	113.0
239.06993	96.0
181.10344	96.0
179.08725	95.0
199.07651	90.0
166.07913	89.0
194.07419	88.0
269.11725	86.0
254.09219	86.0
223.11491	84.0
178.07686	83.0
191.0882	81.0
213.09492	80.0
193.1026	78.0
236.08398	77.0
239.10779	77.0
169.10173	72.0
222.07016	70.0
207.08319	69.0
241.12473	67.0
208.08647	65.0
219.11293	61.0
202.07669	57.0
221.05988	57.0
197.09572	57.0
157.06558	56.0
194.10831	55.0
253.12518	53.0
251.10513	53.0
195.11662	51.0
249.09007	51.0
219.07812	49.0
213.12923	48.0
198.06488	48.0
193.06314	48.0
282.12573	48.0
141.06841	47.0
169.0648	47.0
197.06271	47.0
297.12704	47.0
171.08284	45.0
236.11861	45.0
215.10837	45.0
183.08055	45.0
182.07611	45.0
279.15768	43.0
180.09131	43.0
67.05391	42.0
222.10373	42.0
189.07224	42.0
210.06766	41.0
238.09872	41.0
91.05472	41.0
235.07832	39.0
203.08594	39.0
209.05818	39.0
177.06932	38.0
227.07047	38.0
185.09637	38.0
240.11292	36.0
267.10626	35.0
55.05306	35.0
223.07834	35.0
226.09599	34.0
161.09373	34.0
155.08467	33.0
281.11658	32.0
191.10715	32.0
207.11279	31.0
267.13669	31.0
253.08778	31.0
206.07249	30.0
95.0871	29.0
269.151	29.0
217.10242	29.0
249.12717	29.0
128.05812	29.0
190.0755	29.0
173.05745	28.0
211.10516	27.0
193.09444	27.0
225.05602	27.0
256.10852	27.0
151.05339	26.0
269.18475	26.0
205.06566	26.0
184.08774	25.0
176.06075	25.0
241.16426	25.0
281.04434	24.0
249.0808	24.0
264.11346	23.0
143.08682	23.0
103.05571	23.0
164.06331	22.0
237.0737	21.0
233.08989	21.0
205.12738	21.0
135.07983	20.0
172.08864	20.0
145.06296	19.0
198.1021	19.0
241.08517	19.0
226.06506	18.0
279.11188	13.0
111.08361	12.0

MSID: 9047
ID: 153
RETENTIONTIME: 26.21045
PRECURSORMZ: 369.1674
AREA: 1481320.625
PRECURSORTYPE: [M+Na]+
SMILES: [H][C@@]12CC(=O)C3=C(C(O)=C(O)C(C(C)C)=C3O)[C@@]1(C)CCC(=O)C2(C)C
NAME: candelabrone
FORMULA: C20H26O5
INCHIKEY: CZIBUABEIQOGMV-YBTHPKLGSA-N
CAS: nan
Molecular Weight: 346.423
Number of References: 4
Class: Abeoabietane diterpenoids
Superclass: Diterpenoids
Pathway: Terpenoids
ppm: -0.3950000000259024
CMID: CM243
IONMODE: Positive
COLLISIONENERGY: 40±20eV
INSTRUMENTTYPE: AB SCIEX
INSTRUMENT: Q-TOF
Comment:  
Num Peaks: 2
369.16592	3062.0
179.05069	12.0

MSID: 9048
ID: 86
RETENTIONTIME: 18.76687
PRECURSORMZ: 331.1904
AREA: 1467438.625
PRECURSORTYPE: [M+H]+
SMILES: CC1OC(=O)C2=C1C(O)=C(O)C1=C2CCC2C(C)(C)CCCC12C
NAME: Pikrosalvin
FORMULA: C20H26O4
INCHIKEY: CABUHJOJYBAZEW-UHFFFAOYSA-N
CAS: 5947-35-3
Molecular Weight: 330.424
Number of References: 2
Class: Podocarpane diterpenoids
Superclass: Diterpenoids
Pathway: Terpenoids
ppm: -0.5350000000134969
CMID: CM243
IONMODE: Positive
COLLISIONENERGY: 40±20eV
INSTRUMENTTYPE: AB SCIEX
INSTRUMENT: Q-TOF
Comment:  
Num Peaks: 181
283.16977	2707.0
223.11356	1171.0
331.1908	1146.0
265.16037	861.0
199.11253	569.0
215.10703	512.0
195.11534	377.0
225.09138	372.0
165.07227	369.0
240.11151	354.0
231.10405	334.0
241.12483	325.0
313.18051	313.0
227.11043	310.0
157.06444	284.0
243.13802	248.0
153.07155	238.0
185.06049	226.0
285.18567	225.0
208.08939	217.0
207.08188	216.0
181.06529	201.0
187.07643	194.0
141.06848	190.0
237.16431	187.0
203.10558	187.0
235.11449	183.0
180.09401	183.0
179.08864	182.0
209.09511	176.0
229.12216	173.0
225.12959	164.0
213.09216	164.0
253.12219	162.0
197.09856	159.0
185.09645	158.0
161.06149	157.0
129.06984	157.0
257.11746	146.0
245.11816	134.0
195.08115	133.0
267.17682	132.0
173.05882	131.0
81.07005	130.0
154.07651	129.0
169.06488	128.0
183.0793	128.0
155.08595	126.0
295.16702	125.0
165.08989	125.0
181.09956	123.0
205.10223	119.0
207.11711	119.0
221.09784	117.0
167.08667	116.0
255.1378	114.0
268.14944	112.0
128.06039	108.0
205.084	106.0
201.0909	105.0
188.08514	103.0
184.05063	102.0
271.13431	102.0
198.06773	95.0
193.09998	92.0
178.07564	92.0
200.07971	90.0
197.06281	89.0
254.12665	88.0
237.12509	87.0
152.06143	84.0
211.07538	84.0
236.11871	83.0
143.08221	82.0
229.11623	81.0
143.04706	81.0
231.09065	80.0
222.10091	80.0
115.05341	79.0
166.07794	79.0
194.07428	78.0
95.08523	77.0
182.07224	76.0
192.09554	76.0
171.08035	75.0
242.13115	74.0
250.1362	74.0
191.1086	74.0
211.1138	73.0
169.09799	72.0
171.11751	71.0
239.1064	70.0
190.07965	70.0
199.08212	69.0
156.09259	69.0
194.10976	68.0
145.06656	67.0
212.08685	66.0
193.06187	66.0
142.07648	64.0
222.14178	63.0
181.05872	62.0
159.08263	60.0
127.05492	60.0
223.09161	58.0
189.09253	58.0
240.10242	54.0
226.09904	53.0
203.06927	52.0
183.07666	52.0
189.05617	51.0
149.05713	50.0
313.16318	49.0
175.07587	48.0
179.10568	48.0
91.05289	48.0
131.04903	48.0
220.08833	48.0
238.10187	47.0
208.12189	47.0
247.13715	46.0
275.1225	46.0
57.07109	46.0
247.14946	45.0
187.11127	43.0
283.1434	43.0
197.13293	43.0
209.08519	42.0
224.08745	42.0
217.09964	42.0
243.10289	41.0
271.1698	41.0
301.1774	41.0
157.10371	40.0
186.06909	39.0
229.08806	39.0
203.08882	39.0
277.15524	38.0
55.056	38.0
183.11244	38.0
219.10143	37.0
210.06633	37.0
285.15756	35.0
202.09628	35.0
163.07385	35.0
237.09644	35.0
177.09026	35.0
67.05394	34.0
196.08788	34.0
210.10608	33.0
227.07648	32.0
283.13022	32.0
269.1463	32.0
195.06473	31.0
79.05366	31.0
219.11447	31.0
140.06059	31.0
69.06902	30.0
174.06653	30.0
257.15042	29.0
168.0921	29.0
231.14278	28.0
257.10016	27.0
215.06682	27.0
265.12527	27.0
176.05952	26.0
223.14867	26.0
252.09172	26.0
165.01439	26.0
147.04677	26.0
155.04694	26.0
177.07071	25.0
175.07068	25.0
170.0724	25.0
85.06428	24.0
233.09448	24.0
167.06514	24.0
245.14883	23.0
102.0461	13.0
121.52923	12.0
71.04538	12.0

MSID: 9049
ID: 450
RETENTIONTIME: 33.79653
PRECURSORMZ: 279.1585
AREA: 1442199.375
PRECURSORTYPE: [M+H]+
SMILES: [H][C@@]12C[C@@]3(C)OC(=O)C[C@]3([H])[C@@]3(C)CCC[C@@](C)(C(=O)O1)[C@]23[H]
NAME: norambreinolide-18,6α-olide
FORMULA: C16H22O4
INCHIKEY: DJAOAMDRXOFIBC-XACRPEKWSA-N
CAS: 1246016-55-6
Molecular Weight: 278.348
Number of References: 2
Class: Norlabdane diterpenoids
Superclass: Diterpenoids
Pathway: Terpenoids
ppm: -1.1350000000334148
CMID: CM243
IONMODE: Positive
COLLISIONENERGY: 40±20eV
INSTRUMENTTYPE: AB SCIEX
INSTRUMENT: Q-TOF
Comment:  
Num Peaks: 53
149.02338	113123.0
65.03856	10029.0
121.02747	9656.0
93.0334	7791.0
57.0695	2724.0
205.08641	303.0
81.0699	157.0
67.05461	119.0
148.53836	99.0
95.08505	90.0
121.01454	73.0
221.09451	58.0
201.04608	50.0
237.12766	47.0
55.05226	45.0
109.09812	44.0
208.08618	34.0
261.22421	34.0
279.23257	33.0
178.07922	33.0
79.05525	33.0
236.11978	31.0
55.01811	31.0
279.08694	30.0
91.05459	29.0
107.08609	29.0
149.57504	25.0
123.12022	25.0
135.11835	25.0
69.06969	25.0
92.73325	24.0
150.77164	24.0
71.08488	24.0
187.14574	23.0
246.14459	23.0
101.23724	23.0
77.04015	22.0
151.05438	21.0
150.03175	21.0
209.09895	21.0
137.12944	21.0
279.13931	20.0
57.06062	20.0
165.06567	19.0
148.52165	19.0
202.0778	19.0
155.08688	16.0
105.03055	13.0
67.91064	12.0
88.84485	12.0
78.04142	12.0
83.08401	12.0
53.04135	12.0

MSID: 9050
ID: 17
RETENTIONTIME: 9.32765
PRECURSORMZ: 362.1496
AREA: 1431691.125
PRECURSORTYPE: [M+H]+
SMILES: COC1=CC=C(CCNC2=C3N=CC=C4C=C(OC)C(=O)C(N=C2)=C34)C=C1
NAME: 8-methoxy-3-((4-methoxyphenylethyl)amino)-9H-benzo[de][1,6]naphthyridin-9-one
FORMULA: C21H19N3O3
INCHIKEY: AVSCPMWCLHCWTB-UHFFFAOYSA-N
CAS: nan
Molecular Weight: 361.4
Number of References: 3
Class: Aporphine alkaloids
Superclass: Tyrosine alkaloids
Pathway: Alkaloids
ppm: -0.8670000000279288
CMID: CM243
IONMODE: Positive
COLLISIONENERGY: 40±20eV
INSTRUMENTTYPE: AB SCIEX
INSTRUMENT: Q-TOF
Comment:  
Num Peaks: 114
318.16217	5224.0
261.10269	4749.0
362.15198	3164.0
344.13879	2420.0
221.0715	697.0
219.05635	307.0
205.04039	244.0
58.06531	212.0
316.14243	211.0
179.04004	205.0
70.06474	157.0
268.10757	152.0
247.08772	144.0
296.13852	139.0
193.03862	118.0
301.08713	118.0
233.07191	117.0
316.1076	98.0
253.12202	92.0
324.12952	92.0
241.09427	89.0
199.05022	84.0
194.04825	81.0
261.08212	79.0
220.06496	77.0
296.09808	76.0
150.03435	75.0
72.07932	75.0
245.07202	74.0
192.04655	69.0
204.04309	67.0
178.02847	65.0
362.12402	63.0
273.10681	61.0
231.05478	57.0
273.08899	56.0
205.03198	55.0
180.04396	55.0
176.05032	53.0
268.13965	53.0
188.05011	52.0
203.06079	49.0
267.07584	49.0
301.11603	49.0
217.04179	48.0
206.04715	47.0
318.13074	47.0
270.12393	47.0
218.04575	47.0
298.15262	46.0
286.06442	45.0
201.06578	44.0
165.04323	44.0
233.06444	42.0
225.08684	42.0
268.0723	41.0
235.0858	41.0
158.02196	38.0
255.10324	37.0
200.05881	37.0
163.04248	37.0
160.05618	36.0
275.11746	35.0
282.1257	35.0
151.04254	34.0
216.0675	34.0
227.07043	34.0
211.08522	34.0
84.07889	33.0
259.08566	32.0
56.04798	32.0
240.11137	32.0
281.09354	31.0
246.07884	28.0
282.08621	27.0
231.02501	27.0
197.09431	27.0
256.10535	27.0
207.05498	27.0
191.0611	26.0
195.05914	26.0
258.06512	26.0
269.11563	26.0
238.09265	25.0
246.06041	25.0
219.08971	25.0
178.02325	25.0
240.08406	25.0
171.03542	25.0
122.04147	25.0
243.08595	25.0
252.07912	25.0
82.06332	25.0
147.05618	25.0
315.10541	24.0
225.0266	24.0
146.05904	24.0
232.04286	24.0
229.082	24.0
190.06873	24.0
232.07269	24.0
234.07329	24.0
184.0638	23.0
244.07797	23.0
233.03754	22.0
197.05856	22.0
261.06787	22.0
253.10022	22.0
202.06136	22.0
314.09787	21.0
213.10204	20.0
174.07417	20.0
254.08591	20.0
160.02768	13.0

MSID: 9051
ID: 169
RETENTIONTIME: 27.45257
PRECURSORMZ: 273.1858
AREA: 1426281.5
PRECURSORTYPE: [M+H]+
SMILES: [H][C@@]12C[C@@H]3OC[C@@]1(CCCC2(C)C)C1=C3C=C(C)C(O)=C1
NAME: przewalskin
FORMULA: C18H24O2
INCHIKEY: RHXIVZRYHFCBDN-BQFCYCMXSA-N
CAS: 119400-87-2
Molecular Weight: 272.387
Number of References: 8
Class: Podocarpane diterpenoids
Superclass: Diterpenoids
Pathway: Terpenoids
ppm: 0.3449999999247666
CMID: CM243
IONMODE: Positive
COLLISIONENERGY: 40±20eV
INSTRUMENTTYPE: AB SCIEX
INSTRUMENT: Q-TOF
Comment:  
Num Peaks: 95
273.18457	2026.0
217.12122	1025.0
203.1069	540.0
231.13972	481.0
175.07451	468.0
157.06316	347.0
165.09109	308.0
213.12784	244.0
129.07204	234.0
69.07062	230.0
128.06036	221.0
188.08374	196.0
161.05896	174.0
145.06416	173.0
143.08217	162.0
191.10448	160.0
185.09641	157.0
171.08031	156.0
173.06006	149.0
205.12321	149.0
163.07755	140.0
141.06844	138.0
199.11108	137.0
143.0482	128.0
115.05443	121.0
187.07504	119.0
202.09901	117.0
189.08978	113.0
174.06647	108.0
179.10695	107.0
123.04436	103.0
127.05489	95.0
149.05948	94.0
169.06355	90.0
55.0538	87.0
131.04787	87.0
142.07761	84.0
201.09222	83.0
230.12981	83.0
159.08011	83.0
215.1041	81.0
229.1221	76.0
185.12971	73.0
156.09254	72.0
165.06718	71.0
184.08778	71.0
155.08591	69.0
202.06003	60.0
157.10245	60.0
147.04672	57.0
117.07074	56.0
197.093	56.0
116.06092	55.0
255.17528	52.0
153.0703	51.0
183.08058	50.0
128.05038	49.0
216.11508	48.0
198.10489	45.0
201.05196	44.0
137.05971	44.0
273.16193	44.0
79.0545	44.0
147.07761	43.0
103.05672	43.0
170.07108	42.0
173.09613	40.0
133.06696	40.0
170.11067	37.0
169.09921	37.0
136.04799	37.0
171.1149	36.0
83.08504	35.0
91.0566	34.0
163.0663	34.0
211.1109	33.0
193.12169	33.0
152.06139	32.0
160.0488	30.0
93.06945	30.0
107.08525	27.0
217.09958	27.0
203.08458	26.0
154.07767	26.0
126.04678	26.0
145.09837	25.0
162.06357	25.0
167.09042	25.0
218.12392	24.0
55.05162	24.0
67.05151	23.0
123.03893	22.0
272.29337	13.0
74.70626	12.0
67.05633	12.0

MSID: 9052
ID: 177
RETENTIONTIME: 27.45257
PRECURSORMZ: 369.1671
AREA: 1424364.625
PRECURSORTYPE: [M+Na]+
SMILES: [H][C@@]12CC(=O)[C@@]34O[C@@]3(C(=O)C(O)=C(C(C)C)C4=O)[C@@]1(C)CCCC2(C)C
NAME: 8α,9α-epoxy-7-oxoroyleanon
FORMULA: C20H26O5
INCHIKEY: DOXLTWHGRVFSOD-NWJJKOQUSA-N
CAS: nan
Molecular Weight: 346.423
Number of References: 3
Class: Secoabietane diterpenoids
Superclass: Diterpenoids
Pathway: Terpenoids
ppm: -0.6950000000074397
CMID: CM243
IONMODE: Positive
COLLISIONENERGY: 40±20eV
INSTRUMENTTYPE: AB SCIEX
INSTRUMENT: Q-TOF
Comment:  
Num Peaks: 4
369.16757	4485.0
277.18124	38.0
137.05856	30.0
271.09232	12.0

MSID: 9053
ID: 410
RETENTIONTIME: 32.84478
PRECURSORMZ: 279.2308
AREA: 1365482.25
PRECURSORTYPE: [M+H]+
SMILES: CC(=O)CC[C@H]1C(=C)[C@H](O)CC2C(C)(C)CCC[C@]12C
NAME: 7α-hydroxy-14,15-dinor-13-oxo-8(17)-labdene
FORMULA: C18H30O2
INCHIKEY: ZLALDYHBEJYUAT-CDVAVXMCSA-N
CAS: 59489-11-1
Molecular Weight: 278.435
Number of References: 1
Class: Norlabdane diterpenoids
Superclass: Diterpenoids
Pathway: Terpenoids
ppm: -1.6050000000404907
CMID: CM243
IONMODE: Positive
COLLISIONENERGY: 40±20eV
INSTRUMENTTYPE: AB SCIEX
INSTRUMENT: Q-TOF
Comment:  
Num Peaks: 75
67.05389	6316.0
81.06999	4738.0
95.08516	3084.0
79.05447	1071.0
55.0545	784.0
109.10131	569.0
279.22961	553.0
93.06941	467.0
69.06978	371.0
123.11819	330.0
65.03864	329.0
149.02115	311.0
107.08418	306.0
91.05376	277.0
131.08705	262.0
173.13084	240.0
83.085	206.0
137.13419	193.0
77.03938	189.0
145.10184	185.0
105.07182	183.0
135.11623	171.0
149.13235	165.0
159.11586	160.0
121.10088	158.0
133.1008	150.0
53.03785	149.0
187.14729	126.0
261.22293	111.0
163.14752	110.0
243.20963	109.0
151.14845	108.0
195.13846	104.0
201.04909	99.0
223.16899	94.0
147.11673	91.0
209.1516	89.0
191.14366	88.0
119.08421	86.0
117.06857	83.0
163.11	79.0
177.12662	78.0
57.06883	75.0
97.06364	71.0
85.06512	65.0
191.13824	64.0
71.04781	63.0
181.12184	61.0
93.0628	57.0
135.08093	51.0
161.1347	50.0
123.08016	50.0
279.09216	48.0
109.06449	47.0
111.07842	44.0
121.02976	44.0
179.14357	43.0
165.12752	42.0
205.161	40.0
83.05019	39.0
151.11354	38.0
99.08102	38.0
69.03397	35.0
66.0456	34.0
167.1068	32.0
91.04628	31.0
129.06975	29.0
127.07139	28.0
80.06257	26.0
115.05542	24.0
65.03152	24.0
177.16573	24.0
135.07411	13.0
139.1001	13.0
73.06464	12.0

MSID: 9054
ID: 73
RETENTIONTIME: 16.23772
PRECURSORMZ: 331.1902
AREA: 1346898.75
PRECURSORTYPE: [M+H]+
SMILES: [H][C@]12CCC=C3C(=O)OC[C@@]13CC[C@@H](C)[C@]2(C)C[C@@H](O)C1=COC=C1
NAME: 12-hydroxyhautriwaic lactone
FORMULA: C20H26O4
INCHIKEY: LNMXSSWHNWSLIC-WNRRLTEBSA-N
CAS: nan
Molecular Weight: 330.424
Number of References: 2
Class: Colensane and Clerodane diterpenoids
Superclass: Diterpenoids
Pathway: Terpenoids
ppm: -0.7350000000201362
CMID: CM243
IONMODE: Positive
COLLISIONENERGY: 40±20eV
INSTRUMENTTYPE: AB SCIEX
INSTRUMENT: Q-TOF
Comment:  
Num Peaks: 204
273.1489	539.0
283.16962	526.0
331.19061	391.0
285.14746	349.0
313.18033	344.0
177.09146	296.0
223.1105	293.0
215.1069	269.0
209.09641	244.0
227.10881	239.0
147.04431	206.0
231.10095	199.0
225.09126	188.0
195.08104	171.0
157.06435	171.0
255.13766	169.0
207.10008	167.0
203.10825	163.0
95.08613	162.0
241.12317	162.0
197.09708	161.0
213.09204	154.0
251.14546	151.0
165.05457	149.0
199.11241	148.0
285.18552	143.0
165.06714	143.0
265.15543	136.0
295.17526	135.0
240.11441	131.0
213.12778	128.0
257.11572	124.0
173.05872	122.0
223.09734	120.0
269.15421	119.0
229.12054	118.0
149.09651	117.0
181.10078	116.0
271.13092	115.0
187.07498	114.0
181.0652	113.0
179.10558	113.0
193.10123	112.0
243.13788	112.0
167.08405	110.0
199.0751	110.0
166.07785	106.0
235.11134	105.0
141.06841	102.0
153.07025	102.0
171.08154	99.0
253.1236	96.0
243.10123	92.0
185.09901	92.0
183.08185	91.0
155.08466	89.0
225.12653	89.0
169.06734	86.0
119.0853	84.0
252.11334	84.0
169.09917	82.0
161.06015	82.0
237.12646	81.0
211.11084	80.0
191.10713	78.0
185.06303	78.0
152.06136	75.0
195.11523	75.0
211.07526	73.0
201.09218	73.0
197.05858	71.0
239.10777	70.0
200.08376	70.0
215.06956	68.0
222.09932	67.0
180.09128	66.0
195.10156	66.0
67.0547	66.0
267.17508	65.0
215.10117	64.0
242.12949	61.0
194.10965	59.0
91.05564	59.0
131.04895	58.0
81.06913	58.0
149.05943	58.0
79.05361	58.0
223.14854	57.0
217.12549	56.0
192.0927	56.0
205.0979	56.0
188.08235	56.0
208.12459	55.0
212.08102	55.0
129.07199	54.0
93.06848	53.0
119.05003	53.0
121.10306	53.0
259.1377	52.0
107.08724	52.0
143.04816	52.0
237.16417	52.0
205.08669	51.0
128.06033	51.0
253.11424	50.0
219.1042	50.0
182.07477	50.0
207.08176	49.0
277.15671	49.0
196.08638	47.0
163.07375	47.0
203.08452	47.0
123.08018	46.0
270.12396	46.0
175.07576	46.0
250.13606	46.0
236.12158	46.0
245.11496	43.0
77.03767	43.0
109.10031	43.0
55.05451	43.0
217.08797	42.0
178.07945	42.0
227.14424	42.0
161.09744	42.0
229.08496	41.0
241.08212	41.0
135.04227	39.0
105.07184	37.0
142.07756	37.0
217.11827	37.0
237.09177	37.0
271.17447	37.0
214.09972	36.0
265.14108	36.0
143.08681	36.0
145.06766	36.0
184.05318	36.0
198.06624	36.0
189.08838	36.0
231.13817	35.0
227.07191	35.0
115.05334	35.0
224.08147	35.0
193.05223	34.0
285.13092	34.0
239.18047	34.0
189.0574	34.0
181.09286	33.0
197.13283	33.0
168.09326	33.0
202.10034	33.0
157.0533	32.0
254.12807	32.0
165.04826	32.0
225.0751	32.0
247.10774	31.0
137.06197	31.0
207.09444	31.0
177.07712	31.0
131.0882	30.0
210.10596	30.0
125.09522	29.0
247.13545	29.0
252.10556	29.0
239.14563	28.0
273.13434	28.0
160.05122	28.0
249.1658	28.0
127.05817	27.0
156.09496	27.0
185.08836	26.0
69.06979	26.0
111.07637	25.0
251.1082	25.0
183.04077	25.0
133.06467	25.0
201.04218	25.0
228.11653	25.0
154.07762	25.0
184.0864	25.0
255.12045	24.0
191.08954	24.0
212.07246	24.0
133.10194	24.0
273.11005	24.0
59.05009	24.0
230.09111	24.0
164.0658	23.0
149.05345	23.0
243.12108	23.0
255.09856	22.0
267.14307	21.0
206.06544	21.0
172.08606	21.0
205.06424	20.0
151.05338	20.0
269.1301	18.0
202.08781	17.0
115.05965	13.0
137.09866	13.0
88.07764	12.0
99.08006	12.0
65.03864	12.0

MSID: 9055
ID: 63
RETENTIONTIME: 14.94772
PRECURSORMZ: 465.14
AREA: 1330900.625
PRECURSORTYPE: [M+H]+
SMILES: COC1=C(O[C@@H]2O[C@H](CO)[C@@H](O)[C@H](O)[C@H]2O)C=C2OC(CC(=O)C2=C1O)C1=CC=C(O)C=C1
NAME: (2S)-5,7,4'-trihydroxy-6-methoxyflavanone-7-O-β-D-glucopyranoside
FORMULA: C22H24O11
INCHIKEY: PGNIOGOUYGXZCS-BNIRWLJWSA-N
CAS: nan
Molecular Weight: 464.426
Number of References: 3
Class: nan
Superclass: nan
Pathway: nan
ppm: 0.3099999999562897
CMID: CM243
IONMODE: Positive
COLLISIONENERGY: 40±20eV
INSTRUMENTTYPE: AB SCIEX
INSTRUMENT: Q-TOF
Comment:  
Num Peaks: 107
303.0856	47190.0
183.02887	38586.0
168.00569	15977.0
147.04433	4007.0
140.01186	1386.0
119.04897	389.0
112.01457	328.0
288.064	280.0
85.02991	233.0
261.07742	207.0
91.05566	154.0
84.02054	151.0
169.0126	141.0
97.02797	141.0
137.02299	117.0
181.05205	112.0
56.02673	109.0
189.05608	104.0
123.04543	104.0
287.05258	100.0
107.04976	91.0
225.04134	84.0
127.03941	76.0
303.06857	75.0
153.0206	74.0
209.04544	68.0
229.04942	66.0
145.04762	65.0
195.03046	63.0
285.07309	61.0
55.01746	61.0
165.02061	59.0
166.99672	58.0
249.04062	58.0
121.02764	57.0
69.03236	57.0
270.05154	56.0
194.021	55.0
161.06142	53.0
57.0326	52.0
177.05368	50.0
166.02486	50.0
65.03865	48.0
81.03387	47.0
245.04599	47.0
302.08386	47.0
327.07559	45.0
77.03683	45.0
147.03008	42.0
246.04355	42.0
109.02975	41.0
302.1026	40.0
201.05609	40.0
182.42914	39.0
149.02478	38.0
155.03101	37.0
139.00429	37.0
141.02072	37.0
61.02614	36.0
225.0575	34.0
99.04302	31.0
261.04102	31.0
303.05151	31.0
71.00986	30.0
197.06136	30.0
123.03457	28.0
66.0106	28.0
279.04807	27.0
260.06876	27.0
94.00338	27.0
91.03883	26.0
121.06644	26.0
157.06682	26.0
253.0504	26.0
215.06528	25.0
177.04587	25.0
119.03402	25.0
151.00043	25.0
95.04794	24.0
287.04263	24.0
120.05666	24.0
309.05341	23.0
270.04352	23.0
53.03643	23.0
187.04152	23.0
179.03352	23.0
173.05487	23.0
144.0585	23.0
81.02593	23.0
95.01167	22.0
73.03035	22.0
185.04575	22.0
182.02194	22.0
303.6861	22.0
291.04715	21.0
87.04573	20.0
306.23276	18.0
447.11685	18.0
243.06003	16.0
369.09979	16.0
161.03905	13.0
187.07098	13.0
114.81396	12.0
74.17643	12.0
277.30515	12.0
61.02461	12.0
251.27899	12.0

MSID: 9056
ID: 228
RETENTIONTIME: 28.85992
PRECURSORMZ: 347.1846
AREA: 1320904.0
PRECURSORTYPE: [M+H]+
SMILES: [H][C@@]12CC(=O)[C@]3([H])[C@]([C@@H]1O)([C@H](O)C[C@]1([H])C(C)(C)C(=O)CC[C@@]31C)C(=O)C2=C
NAME: 7α,14β-dihydroxy-ent-kaur-16-ene-3,11,15-trione
FORMULA: C20H26O5
INCHIKEY: OLSLELPNBFYALP-CRVIWPIJSA-N
CAS: 1486563-98-7
Molecular Weight: 346.423
Number of References: 2
Class: Kaurane and Phyllocladane diterpenoids
Superclass: Diterpenoids
Pathway: Terpenoids
ppm: -1.2500000000272848
CMID: CM243
IONMODE: Positive
COLLISIONENERGY: 40±20eV
INSTRUMENTTYPE: AB SCIEX
INSTRUMENT: Q-TOF
Comment:  
Num Peaks: 163
245.11647	6520.0
273.11163	4730.0
248.10481	2270.0
291.12393	1979.0
203.06914	1091.0
233.08087	909.0
347.18509	900.0
255.10165	546.0
217.12114	502.0
231.06816	494.0
175.07574	485.0
199.11101	408.0
272.10583	351.0
227.10732	327.0
247.0954	321.0
311.16608	317.0
219.06358	304.0
329.17426	291.0
187.07362	271.0
261.11057	270.0
215.07097	218.0
205.05159	210.0
171.11739	200.0
156.09248	195.0
230.0584	190.0
157.06677	181.0
202.09753	176.0
213.05627	171.0
206.05838	155.0
248.07088	151.0
185.06035	145.0
231.09943	137.0
169.06476	132.0
211.07666	131.0
288.13708	123.0
189.05469	118.0
197.05992	118.0
128.06142	115.0
269.11398	112.0
249.07301	112.0
293.15448	111.0
271.13412	104.0
177.05624	102.0
240.07948	101.0
229.08495	97.0
129.07086	97.0
245.08887	95.0
181.10075	95.0
159.07881	93.0
141.06955	91.0
227.07042	90.0
217.04755	86.0
143.08446	85.0
160.04997	84.0
257.07959	84.0
259.09509	83.0
183.07785	83.0
229.05234	82.0
201.09215	82.0
296.1402	82.0
165.06839	79.0
258.08871	76.0
251.10507	74.0
253.08774	73.0
147.07755	70.0
205.08665	68.0
161.06013	67.0
155.08707	67.0
145.0641	66.0
219.10417	65.0
237.09326	65.0
181.0665	63.0
191.07056	60.0
283.16959	60.0
209.09779	59.0
268.10757	58.0
232.07417	58.0
239.0714	55.0
171.08025	53.0
225.09123	53.0
223.11194	53.0
203.05519	53.0
286.12238	52.0
301.18228	51.0
256.11005	51.0
135.07867	51.0
173.09607	50.0
166.07784	49.0
243.07066	49.0
230.0896	48.0
184.08771	47.0
271.09543	46.0
174.06641	46.0
289.13876	46.0
202.06273	46.0
218.09344	45.0
203.10403	45.0
127.05373	45.0
195.0769	45.0
189.08971	42.0
189.12877	41.0
213.08772	41.0
131.04782	39.0
167.08655	39.0
188.04607	39.0
243.13937	38.0
302.14679	38.0
175.11333	38.0
182.07211	38.0
199.07646	38.0
287.12717	38.0
217.0865	38.0
197.09567	37.0
259.08722	37.0
259.13608	37.0
149.05823	37.0
203.03984	37.0
241.08513	36.0
347.1705	36.0
204.07805	36.0
281.11981	34.0
314.14819	33.0
311.12634	33.0
283.15805	32.0
157.10115	32.0
227.05566	32.0
267.09982	32.0
235.11282	31.0
200.08096	30.0
153.07266	30.0
222.06572	30.0
299.13257	29.0
216.04733	29.0
347.14859	29.0
263.10526	28.0
147.11555	28.0
147.04192	26.0
188.07964	26.0
295.13318	25.0
152.06616	25.0
247.06461	25.0
208.08783	25.0
220.07076	25.0
225.05891	24.0
142.07405	24.0
69.03316	24.0
151.05336	24.0
272.0816	24.0
300.17181	24.0
132.05544	23.0
207.08173	23.0
257.06702	23.0
184.04651	22.0
228.07953	22.0
244.07336	22.0
144.05847	22.0
139.05161	21.0
265.16815	20.0
314.12909	13.0
57.06957	12.0
77.04025	12.0
85.26035	12.0
53.04213	12.0

MSID: 9057
ID: 425
RETENTIONTIME: 33.11862
PRECURSORMZ: 281.1537
AREA: 1295044.5
PRECURSORTYPE: [M+H]+
SMILES: CC(C)C1=CC2=C(C(=O)C1=O)C1=C(C=C2)C(C)(C)CC=C1
NAME: 1,2-didehydromiltirone
FORMULA: C19H20O2
INCHIKEY: FQRLDPKLRMEKLQ-UHFFFAOYSA-N
CAS: 116064-77-8
Molecular Weight: 280.367
Number of References: 13
Class: Abeoabietane diterpenoids
Superclass: Diterpenoids
Pathway: Terpenoids
ppm: -0.4549999999881038
CMID: CM243
IONMODE: Positive
COLLISIONENERGY: 40±20eV
INSTRUMENTTYPE: AB SCIEX
INSTRUMENT: Q-TOF
Comment:  
Num Peaks: 120
281.15579	3045.0
205.10059	632.0
253.16084	627.0
223.11183	591.0
221.09468	586.0
266.13217	500.0
193.10246	480.0
165.06956	471.0
238.13332	470.0
178.07803	450.0
233.09422	409.0
181.10068	319.0
190.07808	308.0
209.09769	296.0
211.11072	255.0
238.09856	246.0
251.1096	236.0
195.11511	229.0
195.08092	229.0
235.14725	215.0
218.07166	207.0
167.08521	207.0
189.06941	203.0
191.08672	193.0
152.06126	188.0
263.14169	170.0
153.07016	162.0
141.06831	161.0
225.16608	159.0
239.11066	157.0
211.14487	151.0
183.12018	147.0
223.07672	145.0
166.07901	144.0
210.10442	144.0
210.13991	144.0
181.06509	143.0
224.11798	136.0
215.0838	132.0
69.07056	130.0
55.05521	129.0
248.12167	127.0
220.1244	126.0
208.08914	124.0
179.08582	119.0
196.12604	114.0
155.08578	113.0
196.08902	108.0
195.11101	94.0
169.10034	92.0
206.07234	92.0
177.06789	91.0
219.07942	90.0
67.05306	90.0
81.06908	87.0
230.11029	87.0
192.09395	85.0
205.06131	82.0
79.05444	82.0
202.07794	81.0
204.09335	79.0
182.10902	79.0
171.11603	78.0
207.07741	73.0
222.10649	73.0
168.09317	69.0
224.08279	68.0
203.08578	64.0
95.08512	61.0
156.09241	60.0
128.06026	57.0
235.11121	56.0
253.12189	55.0
129.07191	52.0
142.07864	52.0
133.10074	51.0
209.08778	50.0
91.05372	49.0
179.08188	49.0
194.07678	49.0
281.13446	49.0
229.10114	48.0
220.08807	47.0
193.08342	47.0
195.0686	45.0
147.11905	45.0
154.07997	44.0
238.08345	44.0
245.22829	42.0
197.09558	40.0
135.11731	38.0
164.06068	38.0
93.06842	38.0
237.09012	36.0
252.11319	36.0
57.07102	36.0
185.09091	36.0
211.07372	36.0
105.06876	34.0
232.086	33.0
97.10027	32.0
247.10913	32.0
236.08232	31.0
209.13026	31.0
194.10817	31.0
143.08438	31.0
234.10312	30.0
181.09013	30.0
83.08318	29.0
263.237	28.0
157.09985	28.0
176.05672	27.0
109.09718	26.0
245.13321	26.0
240.1082	26.0
209.05663	26.0
170.10797	26.0
197.13408	24.0
228.09421	13.0
65.03939	12.0

MSID: 9058
ID: 210
RETENTIONTIME: 28.56127
PRECURSORMZ: 313.1433
AREA: 1271770.625
PRECURSORTYPE: [M+H]+
SMILES: CC1COC2=C1C(=O)OC(=O)C1=C2C=CC2=C1CCCC2(C)C
NAME: 1,2,6,7,8,9-hexahydro-1,6,6-trimethylfuro<3,2-c>naphth<2,1-e>oxepine-10-12-dione
FORMULA: C19H20O4
INCHIKEY: ROYYPPPACDMYJY-UHFFFAOYSA-N
CAS: 126979-78-0
Molecular Weight: 312.365
Number of References: 4
Class: Simple coumarins
Superclass: Coumarins
Pathway: Polyketides
ppm: -0.6850000000326872
CMID: CM243
IONMODE: Positive
COLLISIONENERGY: 40±20eV
INSTRUMENTTYPE: AB SCIEX
INSTRUMENT: Q-TOF
Comment:  
Num Peaks: 107
285.14713	4374.0
313.14355	3147.0
187.07475	1540.0
215.07074	435.0
159.07986	265.0
270.12521	224.0
169.06458	168.0
131.08467	168.0
141.06938	161.0
267.13794	152.0
225.05424	148.0
209.09473	147.0
255.09981	146.0
243.10246	140.0
173.09587	132.0
227.11002	125.0
197.06108	122.0
172.04987	118.0
144.05948	113.0
252.11613	109.0
225.09099	108.0
199.11356	107.0
215.10521	102.0
224.12077	96.0
201.08914	92.0
181.06628	84.0
91.05366	81.0
153.06764	78.0
237.09148	74.0
197.09409	73.0
211.075	71.0
239.13777	69.0
115.0553	68.0
199.07347	66.0
155.08568	65.0
116.05863	65.0
69.06889	63.0
257.15466	63.0
145.06747	63.0
183.08031	61.0
173.02243	61.0
169.10023	61.0
145.10051	61.0
157.06538	58.0
157.10097	58.0
129.06961	57.0
249.12993	55.0
128.06349	55.0
178.07661	54.0
195.0808	52.0
158.07349	52.0
165.06819	51.0
185.05882	50.0
253.11861	50.0
295.13284	48.0
242.09261	46.0
200.0461	45.0
184.09015	43.0
181.10188	43.0
152.06116	41.0
55.05372	40.0
159.1194	40.0
191.08659	40.0
161.09476	40.0
128.05684	39.0
211.11058	39.0
171.08261	38.0
210.10286	37.0
213.05461	37.0
79.05438	37.0
224.08118	37.0
167.08763	37.0
206.10596	36.0
117.0695	36.0
196.12592	35.0
207.0815	34.0
182.0719	34.0
160.08572	34.0
179.08046	34.0
242.12918	33.0
83.04832	33.0
223.11316	33.0
141.05891	32.0
105.0687	31.0
313.11063	30.0
166.07385	29.0
97.06547	29.0
295.17154	29.0
147.11777	29.0
243.14064	29.0
211.15042	28.0
241.08638	28.0
277.15311	27.0
229.11729	27.0
198.06738	27.0
190.07526	26.0
127.05249	26.0
241.12592	26.0
186.06743	26.0
119.04988	25.0
168.05624	25.0
203.1066	25.0
233.09407	24.0
223.07219	23.0
234.10747	22.0
225.12331	21.0
119.08942	13.0

MSID: 9059
ID: 170
RETENTIONTIME: 27.45257
PRECURSORMZ: 283.1693
AREA: 1258308.0
PRECURSORTYPE: [M+H]+
SMILES: CC(C)C1=CC2=C3C(CCC(=C)C[C@@]3(O)C1=O)=C(C)C=C2
NAME: (S)-10a-Hydroxy-2-isopropyl-6-methyl-9-methylene-8,9,10,10a-tetrahydro-7H-cyclohepta[de]naphthalen-1-one
FORMULA: C19H22O2
INCHIKEY: VOXTXNMZXYGFIL-IBGZPJMESA-N
CAS: nan
Molecular Weight: 282.382
Number of References: 1
Class: Secoabietane diterpenoids
Superclass: Diterpenoids
Pathway: Terpenoids
ppm: -0.5050000000323962
CMID: CM243
IONMODE: Positive
COLLISIONENERGY: 40±20eV
INSTRUMENTTYPE: AB SCIEX
INSTRUMENT: Q-TOF
Comment:  
Num Peaks: 109
241.12323	578.0
283.16803	507.0
165.06844	494.0
223.11055	352.0
181.06392	308.0
195.11528	244.0
180.09264	201.0
193.0999	191.0
225.09131	186.0
240.11295	183.0
213.09065	163.0
195.08107	159.0
153.07028	157.0
179.08727	154.0
208.09073	152.0
199.07791	152.0
197.05998	142.0
152.06139	136.0
167.08408	133.0
178.07556	124.0
265.16025	97.0
239.10631	97.0
221.0934	94.0
211.0753	94.0
207.08038	92.0
205.09935	91.0
141.06842	84.0
166.07535	75.0
198.07042	74.0
185.09506	71.0
197.09573	71.0
195.11118	66.0
194.07285	65.0
200.08241	64.0
169.06482	64.0
171.08286	63.0
185.06041	63.0
212.08392	62.0
131.0871	58.0
189.07091	57.0
128.06479	56.0
155.08469	54.0
190.07687	54.0
151.05461	52.0
215.10551	52.0
255.13614	52.0
226.09895	49.0
192.09546	48.0
181.10213	47.0
157.06438	47.0
207.11703	46.0
202.0795	46.0
213.12354	46.0
184.08775	45.0
183.07924	45.0
173.05746	44.0
222.10083	42.0
149.05946	39.0
217.09955	38.0
115.05337	36.0
194.10832	36.0
222.1344	35.0
237.125	35.0
211.11372	35.0
169.10175	35.0
91.05659	34.0
170.07106	33.0
145.06415	33.0
235.10988	33.0
227.11328	33.0
209.09503	32.0
268.14453	32.0
193.06587	32.0
191.10582	32.0
220.08826	32.0
210.06483	31.0
143.08566	31.0
129.06979	30.0
253.12209	30.0
237.16722	28.0
250.13455	28.0
189.08977	28.0
199.06685	28.0
191.07739	28.0
154.07645	27.0
223.08275	26.0
141.06029	26.0
203.08734	26.0
198.09523	26.0
142.07993	25.0
255.17056	25.0
199.10555	25.0
204.09071	24.0
182.06819	24.0
180.07423	23.0
131.04898	22.0
169.05591	22.0
187.07368	21.0
240.07652	21.0
157.05455	21.0
225.13098	21.0
105.06785	20.0
103.04677	13.0
248.11723	13.0
127.05157	13.0
229.12653	13.0
77.04199	12.0
81.07267	12.0
55.05598	12.0

MSID: 9060
ID: 54
RETENTIONTIME: 14.73093
PRECURSORMZ: 479.1188
AREA: 1256217.375
PRECURSORTYPE: [M+H]+
SMILES: COC1=CC2=C(C(O)=C1)C(=O)C(O[C@@H]1O[C@H](CO)[C@@H](O)[C@H](O)[C@H]1O)=C(O2)C1=CC(O)=C(O)C=C1
NAME: rhamnetin 3-O-β-D-glucopyranoside
FORMULA: C22H22O12
INCHIKEY: PHEWILLIAJUBQE-LFXZADKFSA-N
CAS: 27875-34-9
Molecular Weight: 478.409
Number of References: 19
Class: Flavonols
Superclass: Flavonoids
Pathway: Shikimates and Phenylpropanoids
ppm: -0.15500000000656655
CMID: CM243
IONMODE: Positive
COLLISIONENERGY: 40±20eV
INSTRUMENTTYPE: AB SCIEX
INSTRUMENT: Q-TOF
Comment:  
Num Peaks: 31
317.06628	21257.0
302.04318	10510.0
479.11935	2339.0
168.00452	310.0
140.01077	90.0
169.0127	69.0
299.05319	62.0
271.06018	55.0
479.09149	55.0
274.0498	51.0
301.07037	47.0
137.02194	46.0
301.03638	45.0
273.03903	29.0
229.04807	26.0
284.02582	25.0
256.03503	24.0
479.04431	23.0
286.04474	22.0
316.03296	22.0
271.04889	20.0
301.01767	18.0
257.04681	16.0
137.04486	13.0
109.02674	13.0
197.06009	12.0
295.47842	12.0
339.75629	12.0
477.54926	12.0
250.11145	12.0
69.03321	12.0

MSID: 9061
ID: 133
RETENTIONTIME: 23.70477
PRECURSORMZ: 347.1848
AREA: 1253583.125
PRECURSORTYPE: [M+H]+
SMILES: [H][C@]12CCC=C3C(=O)OC[C@@]13C[C@@H](O)[C@@H](C)[C@]2(C)CCC1=CCOC1=O
NAME: 7α-hydroxy-ent-clerodan-3,13-dien-18,19:16,15-diolide
FORMULA: C20H26O5
INCHIKEY: GMKZQTXTISTVFH-ACLXAEORSA-N
CAS: 100343-68-8
Molecular Weight: 346.423
Number of References: 2
Class: Colensane and Clerodane diterpenoids
Superclass: Diterpenoids
Pathway: Terpenoids
ppm: -1.0500000000206455
CMID: CM243
IONMODE: Positive
COLLISIONENERGY: 40±20eV
INSTRUMENTTYPE: AB SCIEX
INSTRUMENT: Q-TOF
Comment:  
Num Peaks: 224
347.18549	3019.0
299.1651	747.0
245.11522	639.0
203.10567	394.0
175.07594	335.0
273.11359	324.0
157.06451	281.0
329.14087	261.0
269.11752	260.0
223.11366	256.0
311.16473	242.0
217.12428	240.0
129.0699	238.0
241.12192	232.0
329.17819	231.0
283.17157	212.0
173.0602	191.0
227.07068	190.0
215.1057	186.0
301.14523	168.0
185.05791	167.0
259.0954	164.0
239.10954	156.0
301.18094	143.0
161.06032	142.0
147.04565	139.0
201.08684	138.0
225.12677	137.0
128.06157	136.0
209.07964	135.0
181.06407	131.0
183.07939	131.0
203.07217	128.0
285.10974	124.0
269.15128	123.0
227.10611	122.0
256.11035	121.0
199.07532	119.0
255.10352	119.0
259.13324	118.0
219.10298	116.0
263.12939	116.0
169.06369	113.0
251.11003	111.0
165.07109	111.0
253.08492	110.0
165.08997	108.0
243.13966	107.0
171.07916	106.0
231.10417	106.0
281.15298	104.0
287.12918	103.0
276.20401	101.0
257.12073	101.0
187.07385	100.0
167.08548	97.0
293.15482	96.0
195.11407	96.0
213.05367	95.0
169.10062	93.0
199.10986	93.0
141.06738	92.0
299.14984	92.0
265.16367	89.0
243.10301	87.0
153.0692	86.0
213.09084	85.0
195.07851	85.0
205.08409	83.0
211.07265	80.0
211.11249	80.0
152.06392	79.0
221.07756	79.0
189.09128	79.0
191.06943	79.0
155.08725	78.0
245.07996	77.0
209.09804	77.0
319.19232	76.0
311.13016	75.0
81.06833	72.0
180.09541	71.0
315.15793	71.0
193.08646	71.0
219.06529	71.0
284.13983	70.0
271.13123	70.0
55.05384	69.0
217.08531	68.0
215.06979	67.0
283.13202	65.0
181.10097	65.0
268.10626	64.0
143.0858	64.0
261.10931	64.0
201.05489	64.0
154.07779	62.0
231.06696	60.0
193.05243	60.0
197.05878	59.0
127.05609	59.0
240.11012	59.0
166.07677	58.0
267.17535	58.0
209.05698	58.0
189.05492	57.0
271.16669	57.0
233.0961	57.0
225.09444	55.0
93.07047	55.0
208.08809	54.0
165.05473	54.0
163.07768	53.0
83.08511	53.0
289.1824	53.0
257.15054	53.0
226.06528	52.0
273.07635	52.0
217.05069	51.0
229.11783	51.0
95.08624	51.0
91.05574	51.0
177.09035	51.0
145.06664	50.0
233.08115	49.0
196.08797	49.0
287.16071	49.0
139.05408	49.0
123.04446	48.0
265.1254	48.0
229.0867	48.0
67.05157	47.0
187.03767	47.0
270.12747	47.0
177.05775	47.0
273.099	46.0
235.09958	46.0
69.06905	46.0
271.09735	46.0
131.04797	45.0
253.15816	45.0
109.0994	44.0
212.08267	42.0
276.1926	41.0
226.09915	41.0
115.05556	41.0
188.08255	41.0
200.08397	41.0
195.1387	40.0
198.06784	40.0
291.12094	40.0
244.07059	39.0
184.08792	38.0
243.06636	38.0
183.1165	37.0
185.09789	37.0
119.08543	37.0
214.06412	37.0
242.09621	36.0
79.05544	36.0
189.06973	36.0
57.07038	36.0
233.11853	36.0
149.0584	35.0
223.07271	34.0
175.06688	34.0
250.13942	34.0
133.09984	34.0
286.10779	33.0
237.09203	33.0
200.04655	33.0
145.10085	33.0
159.04195	33.0
92.05753	32.0
215.14162	32.0
156.09389	32.0
103.05283	32.0
235.08156	32.0
173.09369	32.0
247.09723	31.0
255.13481	31.0
150.1389	31.0
182.07233	31.0
196.13734	30.0
148.11765	30.0
94.07185	30.0
273.18317	30.0
207.1158	29.0
163.04266	29.0
278.1329	29.0
237.12671	29.0
239.07016	29.0
213.12515	28.0
296.13885	28.0
179.06776	28.0
241.15689	28.0
231.13544	27.0
105.07296	27.0
238.09744	27.0
179.07956	26.0
207.10452	26.0
143.04128	26.0
121.10319	26.0
107.08837	26.0
240.07825	25.0
225.0533	25.0
238.13826	25.0
347.15082	25.0
329.09824	25.0
205.10794	25.0
230.06017	25.0
299.12613	24.0
178.07703	23.0
185.08855	23.0
254.08775	23.0
171.1176	23.0
161.1001	23.0
157.10257	23.0
135.0424	23.0
249.11349	23.0
155.05188	22.0
275.11777	13.0
117.06659	13.0
53.03934	12.0

MSID: 9062
ID: 180
RETENTIONTIME: 27.56687
PRECURSORMZ: 317.2102
AREA: 1222173.625
PRECURSORTYPE: [M+H]+
SMILES: [H][C@@]1(C)CC[C@@]2(C)C(=CCC[C@]2([H])C1(C)CCC1=COC=C1)C(O)=O
NAME: hardwickiic acid
FORMULA: C20H28O3
INCHIKEY: HHWOKJDCJVESIF-WDVOVXDBSA-N
CAS: nan
Molecular Weight: 316.441
Number of References: 49
Class: Colensane and Clerodane diterpenoids
Superclass: Diterpenoids
Pathway: Terpenoids
ppm: -1.4700000000402724
CMID: CM243
IONMODE: Positive
COLLISIONENERGY: 40±20eV
INSTRUMENTTYPE: AB SCIEX
INSTRUMENT: Q-TOF
Comment:  
Num Peaks: 122
317.21063	12432.0
213.12767	1558.0
275.16446	1128.0
171.08145	792.0
163.07617	555.0
203.10814	378.0
147.07867	349.0
198.10474	313.0
159.07997	280.0
133.06346	243.0
173.09599	200.0
197.0956	168.0
145.06641	155.0
183.08043	150.0
161.06131	114.0
239.14247	113.0
175.11195	110.0
227.14412	107.0
257.15329	104.0
185.09892	104.0
153.07018	97.0
187.07623	96.0
199.1123	96.0
205.12305	94.0
95.08608	94.0
179.08452	93.0
165.06831	89.0
128.06137	88.0
189.09367	86.0
152.06247	85.0
187.1124	84.0
173.05992	82.0
163.11244	81.0
201.12956	80.0
211.11073	78.0
141.07181	76.0
155.08456	74.0
215.1068	73.0
215.14415	73.0
225.12935	73.0
91.05466	72.0
161.09363	71.0
188.0809	70.0
107.04868	69.0
157.06425	66.0
170.10925	65.0
121.10192	64.0
143.08673	64.0
180.09514	64.0
191.10704	61.0
111.08044	60.0
158.07359	59.0
55.05303	58.0
163.06741	57.0
172.08853	56.0
209.09488	53.0
229.15897	53.0
229.12042	52.0
121.06528	48.0
127.05479	48.0
221.13547	48.0
275.14169	46.0
149.09644	45.0
129.06859	44.0
154.07877	44.0
105.06978	43.0
167.08775	43.0
79.05444	42.0
181.06642	42.0
205.11322	41.0
201.09207	41.0
199.07224	38.0
302.07004	38.0
135.07976	38.0
115.05433	37.0
67.05226	37.0
81.06908	36.0
177.08745	36.0
169.06342	36.0
195.11787	36.0
195.0782	36.0
223.11331	35.0
238.13637	35.0
170.07477	35.0
147.06561	35.0
223.10454	34.0
182.07335	33.0
281.19196	33.0
241.12001	33.0
131.08589	31.0
144.05724	31.0
142.08099	31.0
151.0533	31.0
171.0648	31.0
178.07805	31.0
231.13657	30.0
257.19568	29.0
135.04333	29.0
119.08417	29.0
255.17664	27.0
93.07032	26.0
69.06894	26.0
213.08621	25.0
132.05876	25.0
85.06509	25.0
145.09943	25.0
198.08406	24.0
160.05115	24.0
109.09923	24.0
99.08	24.0
57.06511	24.0
55.01815	23.0
95.0498	23.0
128.05251	23.0
206.10469	23.0
205.1006	23.0
203.07883	23.0
163.05365	23.0
127.04926	22.0
107.08719	21.0
115.04908	16.0
65.0394	12.0

MSID: 9063
ID: 345
RETENTIONTIME: 31.44938
PRECURSORMZ: 329.1739
AREA: 1214308.0
PRECURSORTYPE: [M+H]+
SMILES: CC(C)C1=CC2=C(C(=O)C1=O)C(C(=O)CCC(C)(C)O)=C(C)C=C2
NAME: 10-(4-hydroxy-4-methylpentanoyl)-13-isopropyl-5-methyl-[1,2]naphthoquinone
FORMULA: C20H24O4
INCHIKEY: OCTDHGFZGVITEW-UHFFFAOYSA-N
CAS: nan
Molecular Weight: 328.408
Number of References: 2
Class: Secoabietane diterpenoids
Superclass: Diterpenoids
Pathway: Terpenoids
ppm: -1.3850000000275031
CMID: CM243
IONMODE: Positive
COLLISIONENERGY: 40±20eV
INSTRUMENTTYPE: AB SCIEX
INSTRUMENT: Q-TOF
Comment:  
Num Peaks: 174
273.18457	975.0
283.16968	932.0
259.09674	889.0
215.10695	815.0
329.17435	591.0
197.09573	484.0
223.11346	360.0
225.1295	321.0
267.17514	273.0
301.17728	269.0
173.05875	238.0
200.08379	232.0
231.13524	226.0
183.08057	223.0
169.10303	214.0
165.06969	204.0
179.08464	183.0
241.12018	177.0
265.16025	171.0
157.0656	160.0
181.0639	153.0
226.06213	143.0
154.07887	139.0
153.07149	137.0
243.13792	135.0
311.16617	128.0
141.06842	128.0
217.12263	127.0
182.07216	119.0
167.08659	114.0
128.06146	112.0
69.07061	112.0
211.11372	110.0
240.11295	108.0
155.08589	105.0
185.09772	104.0
229.12207	104.0
195.08107	103.0
195.11664	102.0
55.05379	100.0
178.07687	99.0
152.06259	98.0
142.07875	93.0
166.07913	93.0
231.10248	93.0
207.07898	92.0
199.07652	92.0
169.06482	88.0
187.10985	88.0
203.10689	84.0
217.05194	84.0
209.09361	83.0
145.0665	82.0
213.12495	80.0
199.11107	79.0
269.11728	79.0
255.10173	78.0
171.08157	77.0
208.08649	75.0
239.14264	73.0
175.0719	73.0
180.09395	72.0
225.08983	72.0
191.10582	71.0
255.17369	70.0
213.09494	68.0
181.10345	68.0
201.08943	67.0
143.08566	67.0
185.05908	63.0
241.08215	61.0
196.08505	61.0
273.16675	60.0
285.18225	60.0
245.11807	58.0
227.10591	57.0
205.08672	57.0
157.1012	56.0
269.15744	55.0
259.13144	54.0
183.11899	53.0
203.07478	53.0
129.06645	52.0
161.05894	50.0
271.16968	50.0
329.10681	50.0
210.10742	49.0
216.07619	49.0
172.08865	48.0
149.05827	47.0
213.0549	47.0
191.08551	47.0
253.15948	47.0
215.07104	46.0
205.11899	45.0
212.08392	45.0
184.05321	45.0
241.10953	44.0
199.03922	44.0
156.09375	43.0
205.10075	42.0
237.1627	42.0
165.08983	42.0
222.10519	41.0
197.13286	40.0
190.07687	40.0
255.14397	39.0
168.09203	39.0
151.05099	38.0
215.08684	38.0
189.05609	38.0
198.06628	38.0
197.13011	38.0
251.09894	37.0
257.15189	37.0
187.07501	37.0
229.08501	37.0
251.1424	36.0
251.1098	36.0
237.12801	36.0
131.04898	35.0
219.0999	35.0
224.11815	35.0
194.07011	35.0
192.09274	34.0
170.07361	34.0
184.09174	33.0
193.10126	33.0
223.08859	33.0
147.04314	33.0
221.09338	33.0
85.06515	32.0
159.08257	32.0
268.14133	32.0
268.07077	32.0
83.08592	32.0
235.11438	31.0
182.10785	29.0
202.07532	29.0
163.07753	29.0
225.11188	29.0
127.05488	28.0
211.07672	28.0
144.05969	28.0
253.12053	27.0
115.05651	26.0
174.06645	26.0
293.15289	26.0
197.05998	26.0
227.04688	25.0
228.07515	25.0
257.12048	25.0
273.11496	25.0
271.1358	25.0
238.13351	25.0
244.07803	24.0
98.98164	24.0
79.0545	24.0
256.10541	23.0
232.13094	23.0
177.06412	22.0
191.07198	22.0
240.07956	22.0
165.05962	22.0
67.05632	21.0
167.04863	21.0
218.12823	21.0
273.10364	20.0
267.13831	20.0
242.13104	20.0
81.06826	20.0
243.09669	19.0
233.11682	19.0
95.0871	12.0

MSID: 9064
ID: 409
RETENTIONTIME: 32.80438
PRECURSORMZ: 297.1485
AREA: 1209569.875
PRECURSORTYPE: [M+H]+
SMILES: CC(C)C1=CC2=C(C(=O)C1=O)C1=C(C=C2)C(C)(C)CCC1=O
NAME: 1-oxomiltirone
FORMULA: C19H20O3
INCHIKEY: VPIMKJVQYOXHSS-UHFFFAOYSA-N
CAS: 142546-16-5
Molecular Weight: 296.366
Number of References: 14
Class: Secoabietane diterpenoids
Superclass: Diterpenoids
Pathway: Terpenoids
ppm: -0.5700000000388172
CMID: CM243
IONMODE: Positive
COLLISIONENERGY: 40±20eV
INSTRUMENTTYPE: AB SCIEX
INSTRUMENT: Q-TOF
Comment:  
Num Peaks: 144
297.1489	10554.0
251.14388	1957.0
254.09369	1758.0
279.13635	1347.0
282.12732	984.0
268.10916	895.0
165.07089	645.0
193.1012	607.0
249.09001	599.0
267.10141	596.0
221.09769	593.0
178.07812	501.0
179.08458	473.0
221.06128	375.0
209.09779	362.0
253.08772	355.0
239.06989	340.0
264.1134	300.0
235.07527	299.0
207.08032	290.0
211.07666	258.0
236.12006	257.0
197.09705	254.0
237.09325	252.0
222.10222	245.0
152.06253	238.0
181.10075	232.0
195.07964	228.0
197.06129	219.0
223.14998	214.0
193.06581	210.0
169.09915	206.0
236.08243	183.0
191.08545	182.0
227.07188	181.0
183.08183	174.0
225.08977	171.0
250.1004	164.0
166.07782	164.0
203.08728	163.0
167.08401	160.0
153.07024	156.0
185.095	153.0
155.0834	148.0
223.11047	148.0
255.10008	141.0
237.12944	138.0
208.08643	138.0
141.06837	138.0
239.10774	137.0
208.12457	133.0
143.04814	126.0
171.08025	122.0
238.1017	117.0
233.1347	117.0
194.10963	116.0
181.06517	109.0
246.10339	104.0
269.15094	103.0
261.12799	100.0
128.06142	96.0
190.07681	95.0
185.06169	94.0
279.11673	92.0
231.08156	89.0
189.06816	88.0
202.07805	87.0
213.09058	87.0
157.06432	87.0
218.10936	87.0
129.06975	83.0
225.0545	81.0
241.08513	80.0
264.10226	77.0
251.10663	76.0
211.11081	76.0
217.10237	75.0
183.11629	75.0
234.06877	74.0
195.11795	74.0
198.07036	72.0
211.07097	71.0
205.10068	71.0
191.08003	70.0
154.08005	68.0
142.07755	67.0
222.0701	64.0
282.10263	64.0
192.08997	64.0
263.11163	63.0
204.09204	62.0
194.07278	62.0
142.04135	58.0
233.09433	56.0
205.06561	56.0
199.07507	56.0
177.07059	53.0
127.05263	52.0
251.12059	51.0
235.11432	51.0
206.07245	50.0
219.11722	50.0
210.10167	49.0
151.05336	48.0
254.06715	46.0
239.05777	46.0
238.06241	43.0
115.05543	43.0
157.09378	43.0
182.07475	42.0
197.08055	42.0
249.07147	41.0
265.1203	41.0
268.0899	40.0
184.05315	39.0
179.0741	38.0
269.12042	38.0
227.14125	38.0
165.05328	37.0
220.08673	37.0
250.08801	37.0
227.10732	37.0
253.12512	36.0
176.06329	35.0
252.08066	34.0
168.09198	34.0
55.05596	34.0
183.04605	33.0
163.05623	33.0
281.11816	33.0
241.11554	33.0
155.04683	33.0
170.07101	32.0
245.095	31.0
227.05565	31.0
67.0555	31.0
212.08099	31.0
279.09708	26.0
254.12491	24.0
215.104	24.0
256.1116	24.0
127.04821	13.0
176.05681	13.0
107.08622	13.0

MSID: 9065
ID: 298
RETENTIONTIME: 30.78352
PRECURSORMZ: 299.1997
AREA: 1204079.25
PRECURSORTYPE: [M+H]+
SMILES: CC(C)C1=CC2=CC=C(C)C3=C2[C@](O)(C1=O)C(C)(C)CCC3
NAME: microstegiol
FORMULA: C20H26O2
INCHIKEY: KIXMQGXACFNMEM-FQEVSTJZSA-N
CAS: 143246-41-7
Molecular Weight: 298.425
Number of References: 11
Class: Secoabietane diterpenoids
Superclass: Diterpenoids
Pathway: Terpenoids
ppm: -1.4050000000338514
CMID: CM243
IONMODE: Positive
COLLISIONENERGY: 40±20eV
INSTRUMENTTYPE: AB SCIEX
INSTRUMENT: Q-TOF
Comment:  
Num Peaks: 143
299.20016	2092.0
95.08512	726.0
191.10703	725.0
215.10535	596.0
217.12248	420.0
203.10812	334.0
243.13774	318.0
257.15326	313.0
149.05936	302.0
239.14246	253.0
165.08969	252.0
183.07777	245.0
229.12189	230.0
205.12163	226.0
155.08456	226.0
197.09695	224.0
201.09067	218.0
173.05861	214.0
141.06947	213.0
131.04663	183.0
67.05466	183.0
157.06548	177.0
109.10126	174.0
187.07487	171.0
211.10928	167.0
55.05375	163.0
153.06773	163.0
128.06136	160.0
145.06285	149.0
230.13109	145.0
169.06342	135.0
181.06377	133.0
103.05266	123.0
200.08224	122.0
169.10034	117.0
167.08521	115.0
179.10548	112.0
202.09744	112.0
281.18701	112.0
225.12787	105.0
185.09624	104.0
81.06908	103.0
159.08121	100.0
129.0708	99.0
165.07082	99.0
231.13803	99.0
154.07632	98.0
163.07616	98.0
199.1123	97.0
256.14282	97.0
175.07436	89.0
271.16946	88.0
143.04807	87.0
152.06247	86.0
253.15617	84.0
195.08092	82.0
241.12303	79.0
157.10107	78.0
115.05537	78.0
161.05757	78.0
281.15579	78.0
117.06852	73.0
299.15613	72.0
182.07335	69.0
189.09096	69.0
69.06975	69.0
219.13887	68.0
97.10316	65.0
183.1162	65.0
181.09935	65.0
270.15598	61.0
209.09486	60.0
199.07774	60.0
184.08894	59.0
179.0845	59.0
239.10915	58.0
188.08359	58.0
143.08205	57.0
91.05279	55.0
213.0862	53.0
228.11195	52.0
227.10425	52.0
156.09486	52.0
284.12781	51.0
193.12152	51.0
196.08902	51.0
255.13281	50.0
127.05478	50.0
214.09529	50.0
133.09848	50.0
147.11786	48.0
171.08015	48.0
160.05237	48.0
178.08066	47.0
151.11227	46.0
193.09839	45.0
79.05357	44.0
187.11238	44.0
123.04426	44.0
211.14772	43.0
170.07094	43.0
195.11649	42.0
93.07031	40.0
217.10228	39.0
121.10406	39.0
223.10745	39.0
131.08588	38.0
173.09727	37.0
182.10771	37.0
77.03763	34.0
119.0863	34.0
263.20364	34.0
177.09135	33.0
238.13031	32.0
168.0957	32.0
137.05959	31.0
185.05893	31.0
197.06258	31.0
251.09874	30.0
210.09874	29.0
147.04422	29.0
107.08617	28.0
205.10059	28.0
199.104	28.0
144.05605	27.0
281.21164	26.0
222.10796	26.0
201.12679	25.0
225.09848	25.0
244.14365	25.0
172.09109	25.0
166.07774	24.0
221.08449	24.0
105.06576	23.0
203.08022	23.0
173.04573	23.0
258.15784	23.0
65.04018	23.0
211.07799	23.0
55.04721	23.0
200.06978	22.0
194.07133	20.0
88.03256	12.0

MSID: 9066
ID: 316
RETENTIONTIME: 31.04387
PRECURSORMZ: 279.1015
AREA: 1176250.625
PRECURSORTYPE: [M+H]+
SMILES: C[C@H]1COC2=C1C(=O)C(=O)C1=C2C=CC2=C(C)C=CC=C12
NAME: (-)-dihydrotanshinone I
FORMULA: C18H14O3
INCHIKEY: HARGZZNYNSYSGJ-JTQLQIEISA-N
CAS: nan
Molecular Weight: 278.307
Number of References: 102
Class: Abietane diterpenoids
Superclass: Naphthalenes
Pathway: Polyketides
ppm: -0.6200000000262662
CMID: CM243
IONMODE: Positive
COLLISIONENERGY: 40±20eV
INSTRUMENTTYPE: AB SCIEX
INSTRUMENT: Q-TOF
Comment:  
Num Peaks: 90
279.10034	4058.0
233.09579	3909.0
261.09155	3660.0
205.10207	3313.0
189.06949	3257.0
190.07814	2980.0
141.06953	1299.0
169.06474	1086.0
218.07173	891.0
165.06963	876.0
203.08586	477.0
179.08456	433.0
215.08675	422.0
209.09352	383.0
166.07529	380.0
149.02234	360.0
237.09172	353.0
202.07663	338.0
178.07941	314.0
246.0665	284.0
204.09341	221.0
181.09943	173.0
251.10349	159.0
223.07388	149.0
115.05122	138.0
251.06935	135.0
191.08678	134.0
232.09056	130.0
152.06252	113.0
155.08583	103.0
177.06926	102.0
192.09131	97.0
245.06277	96.0
208.08781	95.0
222.06862	91.0
153.069	88.0
264.07678	85.0
180.09256	84.0
214.07532	78.0
209.08786	74.0
176.06198	71.0
219.07951	70.0
262.09744	69.0
164.062	66.0
195.11656	65.0
169.04819	64.0
221.05835	62.0
121.02868	61.0
213.07054	60.0
188.05814	60.0
167.084	57.0
151.05455	56.0
93.0335	53.0
194.0714	51.0
109.02869	49.0
235.11128	47.0
195.07826	45.0
231.07857	44.0
220.08961	41.0
201.04491	41.0
236.08241	39.0
217.06195	38.0
223.11044	38.0
207.08171	37.0
187.05351	37.0
163.05371	36.0
235.07675	36.0
139.05273	35.0
263.0687	34.0
53.03856	34.0
205.067	34.0
203.06772	34.0
218.05003	32.0
279.07089	31.0
65.04021	30.0
166.0614	29.0
217.09946	26.0
278.19135	25.0
202.06131	25.0
128.06252	24.0
81.06911	24.0
55.01744	24.0
204.05424	23.0
261.05991	22.0
216.08618	22.0
141.05208	22.0
191.06783	20.0
197.06265	13.0
119.08741	13.0
85.09944	12.0

MSID: 9067
ID: 248
RETENTIONTIME: 29.41607
PRECURSORMZ: 275.1997
AREA: 1174793.375
PRECURSORTYPE: [M+H]+
SMILES: [H][C@@]12CC[C@@]3(O)C=C(C)C(=O)C=C3[C@@]1(C)CCCC2(C)C
NAME: normiltioane
FORMULA: C18H26O2
INCHIKEY: AJHWPFYAIBXMKJ-JCGIZDLHSA-N
CAS: nan
Molecular Weight: 274.403
Number of References: 2
Class: Podocarpane diterpenoids
Superclass: Diterpenoids
Pathway: Terpenoids
ppm: -1.4050000000338514
CMID: CM243
IONMODE: Positive
COLLISIONENERGY: 40±20eV
INSTRUMENTTYPE: AB SCIEX
INSTRUMENT: Q-TOF
Comment:  
Num Peaks: 51
275.19852	334.0
105.06976	226.0
91.05464	189.0
133.10185	127.0
55.05302	118.0
79.05443	113.0
77.03934	92.0
159.117	86.0
147.11665	82.0
119.08735	79.0
67.05305	78.0
131.08586	75.0
81.07083	71.0
149.09641	70.0
173.13333	69.0
117.06956	66.0
275.18228	65.0
107.05068	60.0
93.0703	58.0
69.06892	52.0
107.08615	50.0
161.13338	48.0
275.27814	48.0
95.08511	48.0
145.10059	46.0
185.13353	45.0
257.1925	40.0
129.07079	36.0
233.15251	33.0
229.19452	30.0
157.10228	30.0
197.13268	25.0
103.05165	24.0
133.08943	24.0
109.10126	23.0
115.05326	23.0
121.09866	23.0
65.0378	22.0
141.07062	22.0
239.18636	21.0
128.06134	19.0
53.03924	19.0
167.08646	19.0
181.10065	13.0
201.17259	13.0
155.07845	13.0
142.07863	13.0
167.08392	13.0
71.05107	12.0
88.07207	12.0
58.07572	12.0

MSID: 9068
ID: 85
RETENTIONTIME: 18.6741
PRECURSORMZ: 347.1845
AREA: 1173709.5
PRECURSORTYPE: [M+H]+
SMILES: [H][C@@]12C[C@@H](O)C3=C(C(=O)C(O)=C(C(C)C)C3=O)[C@]1(CCCC2(C)C)C=O
NAME: deacetylnemorone
FORMULA: C20H26O5
INCHIKEY: ANIQKNXCSIWOOD-XAAFQQQXSA-N
CAS: nan
Molecular Weight: 346.423
Number of References: 2
Class: Abietane diterpenoids
Superclass: Diterpenoids
Pathway: Terpenoids
ppm: -1.3500000000021828
CMID: CM243
IONMODE: Positive
COLLISIONENERGY: 40±20eV
INSTRUMENTTYPE: AB SCIEX
INSTRUMENT: Q-TOF
Comment:  
Num Peaks: 232
283.16788	941.0
347.18503	869.0
311.16602	809.0
177.0914	765.0
205.08662	578.0
329.17596	549.0
223.11043	507.0
227.10875	301.0
217.12109	275.0
157.0643	273.0
241.12158	272.0
265.16013	269.0
231.10237	269.0
245.11642	245.0
199.11235	220.0
301.17883	220.0
185.05765	212.0
149.09526	182.0
273.11319	182.0
215.10541	181.0
195.1179	181.0
203.10678	173.0
201.09212	172.0
287.13043	168.0
269.11716	156.0
271.13406	153.0
247.09843	135.0
269.15732	135.0
179.08455	135.0
209.09351	133.0
165.09225	133.0
165.06961	128.0
119.08526	126.0
180.09123	126.0
211.0752	125.0
129.07085	121.0
181.0625	118.0
199.07504	117.0
293.14938	115.0
189.05331	115.0
161.05885	113.0
213.09196	113.0
175.07442	113.0
243.1378	112.0
183.07915	110.0
229.08638	109.0
153.07021	106.0
255.10004	105.0
251.14227	105.0
251.10658	105.0
240.11435	105.0
181.10204	103.0
173.06123	103.0
223.09581	103.0
239.10619	99.0
259.09348	99.0
166.07779	95.0
203.0719	94.0
128.06361	93.0
299.16299	91.0
197.06126	90.0
207.08029	86.0
253.12196	86.0
159.04419	85.0
149.06059	84.0
225.08826	84.0
143.0856	82.0
131.05003	82.0
185.0963	81.0
211.1122	81.0
255.14072	80.0
195.07825	79.0
281.15094	75.0
208.0892	74.0
167.08525	73.0
155.08704	72.0
195.09875	71.0
235.10977	70.0
241.08661	68.0
197.09702	68.0
229.12344	68.0
165.0545	68.0
189.09236	66.0
141.06952	65.0
237.16258	64.0
169.06218	64.0
152.06252	63.0
69.06895	63.0
171.0815	62.0
205.05016	62.0
233.10027	62.0
219.10414	61.0
143.04694	61.0
157.10112	61.0
226.10179	60.0
268.10751	59.0
193.10117	59.0
254.13112	59.0
81.0691	58.0
221.09766	58.0
182.07339	58.0
224.08139	56.0
253.11574	55.0
200.08646	54.0
212.08238	54.0
173.0986	54.0
179.10684	53.0
231.06514	52.0
283.13821	52.0
184.08899	51.0
213.05481	51.0
194.07275	50.0
107.08417	50.0
190.07678	50.0
167.0498	50.0
214.06239	49.0
178.07547	49.0
273.18604	49.0
198.06894	48.0
301.16354	48.0
286.12231	48.0
188.08229	48.0
187.07359	48.0
193.06714	48.0
145.06526	47.0
257.11252	47.0
223.07532	47.0
147.04308	47.0
278.12927	47.0
243.1042	46.0
242.09589	46.0
127.05592	45.0
230.09401	44.0
293.14435	44.0
296.13507	44.0
91.05281	43.0
215.09966	43.0
131.08592	43.0
95.08611	42.0
217.08357	42.0
170.07225	41.0
55.05377	40.0
187.0401	39.0
142.07869	39.0
231.13364	39.0
177.07837	38.0
236.1185	38.0
159.08125	37.0
208.12312	37.0
202.10028	35.0
255.09535	34.0
160.05241	34.0
245.07962	34.0
172.09114	34.0
171.11607	34.0
85.0651	34.0
288.1337	34.0
153.05566	34.0
207.11975	33.0
191.06647	33.0
329.14218	33.0
79.05359	32.0
186.06625	32.0
228.07948	32.0
274.19061	32.0
192.09265	32.0
222.10509	31.0
203.06491	31.0
135.04108	31.0
287.16031	31.0
232.09502	31.0
311.13666	30.0
123.07797	30.0
123.04646	30.0
218.09196	30.0
236.0869	30.0
156.09245	29.0
207.0972	29.0
163.04243	29.0
222.14012	29.0
289.14371	29.0
213.12628	29.0
175.06274	29.0
93.07129	28.0
243.13322	28.0
154.07515	28.0
285.14902	27.0
115.05751	27.0
137.09747	27.0
171.04562	27.0
257.14548	27.0
163.0762	27.0
223.14993	26.0
276.20688	26.0
133.06462	26.0
128.05475	26.0
265.12186	26.0
197.04889	26.0
109.10335	25.0
145.10654	25.0
137.05963	25.0
301.13464	25.0
216.07751	25.0
284.15924	25.0
210.10448	25.0
168.09322	25.0
269.09949	25.0
245.09955	24.0
135.07979	24.0
144.05609	24.0
117.06855	24.0
215.05945	24.0
267.13019	24.0
83.08588	24.0
271.12277	24.0
83.04929	24.0
227.09103	24.0
168.05893	23.0
247.07996	23.0
256.10999	23.0
184.05179	23.0
202.07243	23.0
282.12231	23.0
284.17575	23.0
241.06987	22.0
217.05183	22.0
177.04579	22.0
239.08044	20.0
105.07081	20.0
127.0504	15.0
111.08459	13.0
57.07104	12.0

MSID: 9069
ID: 234
RETENTIONTIME: 29.12655
PRECURSORMZ: 327.1581
AREA: 1157300.375
PRECURSORTYPE: [M+H]+
SMILES: COC1=C(C(C)C)C(=O)C2=C(O)C(=O)C3=C(C=CCC3(C)C)C2=C1
NAME: 7-hydroxy-12-methoxy-20-nor-abieta-1,5(10),7,9,12-pentaen-6,14-dione
FORMULA: C20H22O4
INCHIKEY: YHKPYEOKBQKJKK-UHFFFAOYSA-N
CAS: nan
Molecular Weight: 326.392
Number of References: 5
Class: Abeoabietane diterpenoids
Superclass: Diterpenoids
Pathway: Terpenoids
ppm: -1.5350000000466935
CMID: CM243
IONMODE: Positive
COLLISIONENERGY: 40±20eV
INSTRUMENTTYPE: AB SCIEX
INSTRUMENT: Q-TOF
Comment:  
Num Peaks: 228
327.15662	826.0
98.98409	594.0
271.09662	321.0
257.11841	268.0
201.05559	177.0
299.16266	166.0
55.05413	162.0
263.20016	155.0
79.05405	149.0
312.13739	142.0
67.0543	134.0
239.1058	131.0
281.15552	126.0
178.07767	121.0
327.11411	119.0
81.06958	119.0
309.14249	116.0
55.01852	111.0
91.05334	108.0
291.1954	107.0
69.07101	96.0
213.09157	95.0
269.11679	91.0
327.12473	91.0
193.0994	90.0
181.06735	90.0
241.08926	88.0
243.10229	79.0
283.13458	77.0
221.09579	73.0
195.08057	72.0
197.06085	71.0
237.08981	69.0
267.1026	69.0
169.06432	69.0
121.10152	68.0
229.08896	68.0
93.07182	68.0
185.06123	67.0
153.06857	66.0
169.09743	66.0
227.0685	66.0
229.0519	65.0
57.03368	65.0
187.07451	64.0
255.10123	64.0
309.19931	63.0
245.19118	62.0
285.1156	61.0
141.07025	59.0
171.099	59.0
129.07042	57.0
95.08378	57.0
107.08476	55.0
199.07878	55.0
191.08907	54.0
273.18405	54.0
145.10258	54.0
173.06082	53.0
174.99236	53.0
77.03983	53.0
256.11432	52.0
95.05035	51.0
119.08484	51.0
225.0952	51.0
224.08539	51.0
80.97349	51.0
57.07067	51.0
294.12411	51.0
147.07947	51.0
284.11102	49.0
238.10278	49.0
202.06367	49.0
269.08466	48.0
215.06909	48.0
285.14703	48.0
83.04977	47.0
253.12315	47.0
257.08072	46.0
166.07863	46.0
109.0661	46.0
167.08231	46.0
211.07907	45.0
225.06142	45.0
214.10069	44.0
213.0544	44.0
223.08224	44.0
189.09329	43.0
183.04163	43.0
266.09674	42.0
297.11475	41.0
271.08371	41.0
142.07593	41.0
105.06436	41.0
272.10217	41.0
184.05138	40.0
241.12576	40.0
127.05549	39.0
165.06667	39.0
253.08575	39.0
185.09055	39.0
157.10315	38.0
115.05604	38.0
128.06207	38.0
251.10464	38.0
243.06259	37.0
141.06328	37.0
171.07979	37.0
249.08804	37.0
189.05289	36.0
135.08049	36.0
217.08173	36.0
299.11353	36.0
255.17632	36.0
143.08517	36.0
152.06088	35.0
211.10468	35.0
117.06919	35.0
239.07552	35.0
271.16757	35.0
168.05852	34.0
233.08194	34.0
256.07358	34.0
131.08437	34.0
179.08807	34.0
251.06895	34.0
229.1275	34.0
171.04391	32.0
227.10983	32.0
197.10072	32.0
217.17987	32.0
292.1622	31.0
155.05368	31.0
97.05357	31.0
327.08044	31.0
85.0638	30.0
107.05132	30.0
159.08206	30.0
155.08662	29.0
261.09274	29.0
174.06595	29.0
97.06611	29.0
203.08545	29.0
281.12103	28.0
192.08138	28.0
209.05769	28.0
235.07785	27.0
242.13055	27.0
231.10197	27.0
286.10706	27.0
199.11194	27.0
71.04823	27.0
133.10149	27.0
182.0743	27.0
279.10324	26.0
154.07959	26.0
294.09555	25.0
85.02586	25.0
147.04739	25.0
239.06642	25.0
267.13782	25.0
82.07266	25.0
195.12024	25.0
200.05281	24.0
123.07864	24.0
157.06755	24.0
161.13177	24.0
209.11859	24.0
205.10164	23.0
251.04878	23.0
151.07457	23.0
186.06851	23.0
210.10266	23.0
312.10452	23.0
179.07103	22.0
145.05893	22.0
109.09781	22.0
254.13855	22.0
190.07907	22.0
228.04211	22.0
71.08539	22.0
312.12354	22.0
309.10287	21.0
235.14993	21.0
205.0834	21.0
81.03343	21.0
215.04755	21.0
139.05345	21.0
248.11829	21.0
293.19766	21.0
233.0311	21.0
135.04407	20.0
149.13789	20.0
206.06918	20.0
177.13008	20.0
297.15359	19.0
198.06302	19.0
212.08626	18.0
137.0959	18.0
119.08163	18.0
193.06673	17.0
188.08322	17.0
220.08484	16.0
177.07013	15.0
248.08588	15.0
55.01562	14.0
222.10178	14.0
207.09398	14.0
310.21622	13.0
110.06564	13.0
231.03052	13.0
171.11823	13.0
286.1286	13.0
136.07034	13.0
277.215	13.0
147.11986	13.0
163.03201	13.0
113.0593	13.0
259.13409	13.0
203.1357	13.0
220.0892	13.0
234.07433	13.0
231.11537	13.0
67.93697	12.0
62.9892	12.0
111.11824	12.0
95.10097	12.0
51.02346	12.0

MSID: 9070
ID: 28
RETENTIONTIME: 12.02483
PRECURSORMZ: 289.0702
AREA: 1141288.625
PRECURSORTYPE: [M+H]+
SMILES: OC1=CC(O)=C2C(=O)C[C@H](OC2=C1)C1=CC=C(O)C(O)=C1
NAME: eriodictyol
FORMULA: C15H12O6
INCHIKEY: SBHXYTNGIZCORC-ZDUSSCGKSA-N
CAS: 552-58-9
Molecular Weight: 288.257
Number of References: 2967
Class: Flavanones
Superclass: Flavonoids
Pathway: Shikimates and Phenylpropanoids
ppm: -1.0150000000521686
CMID: CM243
IONMODE: Positive
COLLISIONENERGY: 40±20eV
INSTRUMENTTYPE: AB SCIEX
INSTRUMENT: Q-TOF
Comment:  
Num Peaks: 36
153.01823	2083.0
163.03882	440.0
289.07233	409.0
68.99658	205.0
67.01704	195.0
135.04347	166.0
89.03897	159.0
145.02998	155.0
117.03474	95.0
69.0332	90.0
97.02897	79.0
179.0349	61.0
55.01748	52.0
271.0585	49.0
137.05974	45.0
125.02299	43.0
123.04656	40.0
187.03891	36.0
169.01521	32.0
205.05312	30.0
111.00625	28.0
247.05707	23.0
77.03943	23.0
137.02306	22.0
289.03735	22.0
145.00876	21.0
89.03065	21.0
63.02383	21.0
151.0378	20.0
177.05115	13.0
187.01079	13.0
159.04184	13.0
213.06212	13.0
95.04989	12.0
261.07434	12.0
50.01589	12.0

MSID: 9071
ID: 323
RETENTIONTIME: 31.12218
PRECURSORMZ: 301.1783
AREA: 1140311.875
PRECURSORTYPE: [M+H]+
SMILES: CC(C)C1=CC2=C(OC1=O)C=C1C(C)(C)CCC[C@]1(C)C2=O
NAME: salpratlactone C
FORMULA: C19H24O3
INCHIKEY: WDLHNRIGEIDOGV-IBGZPJMESA-N
CAS: nan
Molecular Weight: 300.398
Number of References: 1
Class: Secoabietane diterpenoids
Superclass: Diterpenoids
Pathway: Terpenoids
ppm: -2.0700000000601904
CMID: CM243
IONMODE: Positive
COLLISIONENERGY: 40±20eV
INSTRUMENTTYPE: AB SCIEX
INSTRUMENT: Q-TOF
Comment:  
Num Peaks: 150
273.1846	941.0
69.06981	550.0
217.12123	323.0
231.13676	305.0
157.06439	245.0
175.07582	231.0
231.09953	228.0
203.10832	218.0
283.173	186.0
241.12326	181.0
301.18073	176.0
213.12929	171.0
211.11092	159.0
161.05896	157.0
171.07904	144.0
215.10555	144.0
145.06535	137.0
189.09114	134.0
223.10912	134.0
129.06758	127.0
229.1236	127.0
165.08986	119.0
191.10721	117.0
188.08241	116.0
205.08676	116.0
205.12463	112.0
165.07098	110.0
197.09439	110.0
149.05829	108.0
195.11531	107.0
131.04788	102.0
253.15953	98.0
190.0607	97.0
141.07077	96.0
128.06148	95.0
153.07031	93.0
198.10629	89.0
183.07927	89.0
245.11658	89.0
173.05878	88.0
143.08452	87.0
259.13306	86.0
143.0482	83.0
189.05478	82.0
240.1145	80.0
199.11525	80.0
123.04437	79.0
185.09508	78.0
185.05911	76.0
195.0811	74.0
167.08789	73.0
163.07506	72.0
181.06393	72.0
55.05598	70.0
218.02124	69.0
213.09212	68.0
187.07372	66.0
142.07996	66.0
231.08763	66.0
115.05233	65.0
201.09085	64.0
169.09923	64.0
233.04808	64.0
155.0847	63.0
257.15509	63.0
179.10434	63.0
225.08987	63.0
185.13506	61.0
152.06261	60.0
183.11769	59.0
91.05287	58.0
157.10245	57.0
147.04198	56.0
243.13644	56.0
208.09076	56.0
180.09135	56.0
216.08054	53.0
271.17136	53.0
67.05392	51.0
117.07181	50.0
199.07932	50.0
255.17686	50.0
225.16481	48.0
239.13966	48.0
217.10681	46.0
81.06828	46.0
145.1031	46.0
172.08868	46.0
265.1571	43.0
159.08134	43.0
215.07394	43.0
203.06784	43.0
245.11198	42.0
212.11961	42.0
127.05379	42.0
173.09615	42.0
166.07791	42.0
227.1089	40.0
181.10349	40.0
217.09093	39.0
210.10036	39.0
168.09332	38.0
202.10181	38.0
219.10718	38.0
178.0782	38.0
79.05364	37.0
162.06732	37.0
182.06955	37.0
225.12808	36.0
187.04022	36.0
170.07237	35.0
200.08521	34.0
105.06786	33.0
107.08627	33.0
207.11989	33.0
207.07901	33.0
154.07646	32.0
177.05373	32.0
213.1107	32.0
193.09584	30.0
71.04867	29.0
160.05252	29.0
137.05858	28.0
171.04829	28.0
144.05853	28.0
151.05342	28.0
156.09378	27.0
230.12537	26.0
133.09973	26.0
228.11365	26.0
233.11687	26.0
301.16373	25.0
222.10524	25.0
95.08712	25.0
59.04786	24.0
210.1472	24.0
199.06827	24.0
235.11142	23.0
177.0876	23.0
71.08582	23.0
227.14284	23.0
258.12976	22.0
197.06001	22.0
121.09987	22.0
183.05276	22.0
139.05513	21.0
253.12369	21.0
273.16031	20.0
103.04778	13.0
66.04802	12.0

MSID: 9072
ID: 549
RETENTIONTIME: 37.17277
PRECURSORMZ: 441.3724
AREA: 1135582.5
PRECURSORTYPE: [M+H]+
SMILES: [H][C@@]12CC(C)(C)CC[C@]1(C)CC[C@]1(C)C2=CC(=O)[C@]2([H])[C@@]3(C)CC[C@H](O)C(C)(C)[C@]3([H])CC[C@@]12C
NAME: 3β-hydroxyolean-12-en-11-one
FORMULA: C30H48O2
INCHIKEY: UKAIYBGRLWQHDQ-KWRVYEIKSA-N
CAS: 38242-02-3
Molecular Weight: 440.71
Number of References: 62
Class: Oleanane triterpenoids
Superclass: Triterpenoids
Pathway: Terpenoids
ppm: -0.8550000000013824
CMID: CM243
IONMODE: Positive
COLLISIONENERGY: 40±20eV
INSTRUMENTTYPE: AB SCIEX
INSTRUMENT: Q-TOF
Comment:  
Num Peaks: 171
441.37317	2692.0
423.36142	776.0
405.35016	762.0
203.18044	531.0
95.08499	472.0
191.17987	466.0
149.13329	444.0
133.10168	433.0
109.10112	427.0
123.1158	398.0
81.06985	379.0
121.10282	377.0
107.08602	377.0
189.16208	318.0
119.08506	318.0
163.14723	314.0
147.11528	312.0
187.14696	307.0
159.11804	291.0
135.11598	289.0
161.13318	272.0
177.16409	266.0
173.13182	250.0
217.19722	242.0
69.06965	242.0
137.1328	241.0
215.17831	228.0
193.19476	225.0
175.1467	213.0
145.10158	203.0
213.16454	200.0
263.20169	191.0
105.07063	191.0
245.19269	172.0
201.16261	164.0
231.17345	164.0
227.17921	163.0
93.06924	157.0
229.19571	155.0
205.1971	154.0
55.0544	149.0
83.08664	138.0
199.14934	132.0
67.05457	124.0
171.1158	124.0
235.16945	122.0
79.05433	119.0
205.15923	114.0
97.1011	114.0
243.20918	114.0
151.14697	111.0
219.17772	102.0
223.16711	98.0
221.19049	97.0
249.18539	95.0
241.19571	94.0
185.13063	93.0
217.15681	92.0
191.17311	92.0
157.10332	91.0
233.18811	83.0
255.21225	83.0
151.11086	83.0
269.22757	82.0
257.22516	80.0
131.08569	78.0
143.08418	77.0
123.07885	76.0
423.32916	73.0
57.06947	68.0
203.14413	66.0
177.125	66.0
283.24158	65.0
57.03248	63.0
191.14467	62.0
179.17995	62.0
225.16576	61.0
137.09496	60.0
111.11538	60.0
207.17155	58.0
161.09712	58.0
125.09497	58.0
423.31506	57.0
297.25812	56.0
91.0536	56.0
277.21161	56.0
441.34641	54.0
193.158	53.0
239.17697	52.0
267.20657	51.0
281.2244	51.0
405.31662	50.0
163.11095	50.0
259.20499	50.0
167.10649	49.0
295.242	48.0
183.11462	48.0
335.26617	48.0
379.33337	48.0
211.14742	48.0
285.2627	47.0
149.09143	47.0
147.10815	45.0
165.12596	44.0
219.20816	44.0
142.07729	42.0
337.29028	42.0
156.09465	42.0
309.26114	41.0
323.27603	41.0
273.22119	39.0
331.25946	38.0
139.1114	38.0
299.23874	38.0
291.23035	37.0
129.06952	37.0
165.16624	36.0
321.26117	36.0
313.2525	35.0
184.1259	35.0
317.24158	34.0
77.03925	34.0
135.0807	34.0
179.14194	34.0
327.26797	34.0
385.3139	33.0
271.20459	33.0
217.17847	33.0
287.23618	32.0
285.2114	32.0
351.31174	32.0
381.31595	32.0
195.13673	32.0
271.24008	31.0
311.27609	31.0
203.15948	30.0
251.20395	30.0
201.14734	29.0
144.09348	29.0
145.08978	29.0
247.20425	29.0
170.10391	29.0
303.2265	28.0
287.27271	28.0
117.07153	27.0
237.18933	26.0
395.33279	26.0
365.31546	26.0
245.22336	25.0
275.19818	25.0
169.10138	25.0
371.27545	24.0
169.08865	24.0
145.08389	24.0
215.14526	24.0
174.14232	24.0
259.24756	23.0
71.08401	23.0
363.29285	23.0
253.19322	23.0
155.08313	23.0
197.13106	22.0
130.0762	22.0
397.34891	22.0
219.09508	21.0
99.07889	19.0
347.2757	13.0
123.06582	13.0
293.22101	13.0
257.18118	13.0
91.61707	12.0

MSID: 9073
ID: 94
RETENTIONTIME: 19.25642
PRECURSORMZ: 329.1739
AREA: 1117329.5
PRECURSORTYPE: [M+H]+
SMILES: [H][C@]12CCC=C3C(=O)OC[C@@]13CC[C@]1(C)O[C@H](C[C@]21C)C1=COC=C1
NAME: dehydrokerlin
FORMULA: C20H24O4
INCHIKEY: SUHBSVHVWQDUEA-CVYSASLGSA-N
CAS: 138642-07-6
Molecular Weight: 328.408
Number of References: 2
Class: Colensane and Clerodane diterpenoids
Superclass: Diterpenoids
Pathway: Terpenoids
ppm: -1.3850000000275031
CMID: CM243
IONMODE: Positive
COLLISIONENERGY: 40±20eV
INSTRUMENTTYPE: AB SCIEX
INSTRUMENT: Q-TOF
Comment:  
Num Peaks: 246
329.17603	639.0
311.16266	578.0
231.10094	520.0
223.11195	490.0
241.12317	440.0
203.10684	413.0
267.13824	413.0
283.16797	413.0
199.07509	402.0
251.10818	376.0
165.07091	362.0
293.15616	326.0
181.06387	322.0
195.0824	284.0
231.13815	272.0
269.11722	268.0
215.1069	267.0
225.08978	262.0
179.08722	256.0
213.09346	254.0
301.17889	240.0
167.0853	221.0
153.06903	214.0
243.10121	202.0
177.09015	201.0
195.11659	194.0
209.09639	191.0
273.18448	189.0
185.09767	185.0
173.06	174.0
255.13765	174.0
217.12259	169.0
208.08926	168.0
145.06529	166.0
188.08502	164.0
197.09843	153.0
152.06255	150.0
265.16019	150.0
201.05466	147.0
239.10776	147.0
227.10733	146.0
285.15076	143.0
201.08939	142.0
197.05856	141.0
141.07188	138.0
166.07784	138.0
180.09259	133.0
257.15497	132.0
193.10121	122.0
211.07526	121.0
207.08174	120.0
171.08281	118.0
157.06433	116.0
165.08978	116.0
178.07683	114.0
95.08517	109.0
161.06015	107.0
175.07834	105.0
183.07919	99.0
149.09531	99.0
233.09435	99.0
219.10274	99.0
128.06143	98.0
205.09789	98.0
269.15256	96.0
229.12201	96.0
93.06942	95.0
143.08446	94.0
200.04773	92.0
182.07211	92.0
259.13611	92.0
240.1144	90.0
287.13052	89.0
243.14091	87.0
123.07909	87.0
189.09375	86.0
157.10239	85.0
245.11342	85.0
212.08244	83.0
181.10208	83.0
199.11102	81.0
187.07631	81.0
81.06912	80.0
237.09326	77.0
159.07881	76.0
185.06169	73.0
191.10577	73.0
205.08246	73.0
169.06477	73.0
169.10043	72.0
268.11078	71.0
189.0547	71.0
257.12042	70.0
190.07683	70.0
236.12007	70.0
196.09048	69.0
149.05943	69.0
194.07416	69.0
271.13254	68.0
79.0536	68.0
255.10167	67.0
155.08586	66.0
211.06671	66.0
170.0723	65.0
237.16415	65.0
235.11133	64.0
67.05309	64.0
221.0977	63.0
119.08422	62.0
222.10368	62.0
115.05544	61.0
250.09886	61.0
203.08171	61.0
198.06761	61.0
193.08488	60.0
254.13274	60.0
237.12494	59.0
211.10797	58.0
147.04311	58.0
131.05006	58.0
236.08395	58.0
200.08513	57.0
235.07529	57.0
158.07243	56.0
129.06754	56.0
253.08775	56.0
156.09494	56.0
249.12714	55.0
195.0988	54.0
224.07999	53.0
202.09894	53.0
252.11177	52.0
142.07872	52.0
215.0753	51.0
209.05957	51.0
91.05376	51.0
127.05485	50.0
177.06929	50.0
217.0894	50.0
192.09134	49.0
207.11557	48.0
203.07195	48.0
163.0775	48.0
123.04541	46.0
240.07646	46.0
154.08005	45.0
191.08817	45.0
216.08046	45.0
111.07946	45.0
253.12358	44.0
268.14606	44.0
216.11501	43.0
238.09869	43.0
202.07805	43.0
283.13336	43.0
187.11115	42.0
278.12769	42.0
214.09972	42.0
210.06763	42.0
55.05378	42.0
219.08389	41.0
273.14725	41.0
286.12238	41.0
98.98258	40.0
159.11958	40.0
69.06897	40.0
215.09109	40.0
220.0882	40.0
187.04149	40.0
151.05215	40.0
57.03407	40.0
135.04567	39.0
210.10594	39.0
213.12347	39.0
265.1235	38.0
251.14078	38.0
296.14359	37.0
239.14107	37.0
199.03917	36.0
209.05533	36.0
242.131	36.0
85.06422	35.0
177.05365	35.0
270.12717	35.0
217.11394	35.0
159.04547	35.0
139.05276	34.0
173.09607	34.0
105.06882	34.0
225.13092	34.0
223.07245	34.0
186.06764	34.0
131.08482	34.0
247.14622	33.0
329.14584	33.0
184.08638	33.0
285.13092	33.0
226.06061	33.0
144.05849	33.0
179.1095	32.0
299.16644	32.0
242.08832	32.0
201.08244	32.0
193.06718	31.0
71.04947	31.0
218.06888	31.0
125.09521	30.0
214.06389	30.0
117.0707	30.0
226.09743	30.0
155.04927	29.0
247.09541	29.0
255.11887	28.0
55.016	28.0
218.09491	28.0
171.11612	28.0
163.03622	27.0
137.05852	27.0
232.1264	27.0
255.17676	26.0
231.06818	26.0
160.08839	26.0
174.06512	25.0
194.10963	25.0
232.09059	25.0
249.11168	25.0
229.11311	24.0
264.11343	24.0
133.06239	24.0
168.092	24.0
301.14832	24.0
224.12103	23.0
168.05771	23.0
167.07137	23.0
243.08594	23.0
191.06921	22.0
252.10399	22.0
217.07642	22.0
172.08861	21.0
97.06654	21.0
245.07048	21.0
164.06078	20.0
287.16205	19.0
79.05099	17.0
263.10052	13.0
51.02243	12.0

MSID: 9074
ID: 74
RETENTIONTIME: 16.75245
PRECURSORMZ: 317.0652
AREA: 1104541.875
PRECURSORTYPE: [M+H]+
SMILES: COC1=C(O)C=C(C=C1)C1=C(O)C(=O)C2=C(O)C=C(O)C=C2O1
NAME: tamarixetin
FORMULA: C16H12O7
INCHIKEY: FPLMIPQZHHQWHN-UHFFFAOYSA-N
CAS: 603-61-2
Molecular Weight: 316.267
Number of References: 193
Class: Flavonols
Superclass: Flavonoids
Pathway: Shikimates and Phenylpropanoids
ppm: -0.9300000000393993
CMID: CM243
IONMODE: Positive
COLLISIONENERGY: 40±20eV
INSTRUMENTTYPE: AB SCIEX
INSTRUMENT: Q-TOF
Comment:  
Num Peaks: 65
317.0657	10621.0
302.04263	4455.0
168.00548	2147.0
140.01167	440.0
137.02168	192.0
169.01112	152.0
112.01547	150.0
274.04932	146.0
84.02044	141.0
135.04553	124.0
285.03635	107.0
301.03583	101.0
123.00617	97.0
68.99648	77.0
317.03955	75.0
183.02997	67.0
176.04494	64.0
302.01031	60.0
200.05167	56.0
55.01885	52.0
245.04416	50.0
187.04263	46.0
256.03613	46.0
56.02446	45.0
134.03789	44.0
109.02962	44.0
172.05374	39.0
228.04233	38.0
137.00563	33.0
71.0139	33.0
183.04323	33.0
316.02368	32.0
271.05969	31.0
229.04765	30.0
230.02252	29.0
133.0295	28.0
139.00066	28.0
167.9839	26.0
117.03243	25.0
217.04877	25.0
95.01346	25.0
273.04178	25.0
94.00232	24.0
154.04221	24.0
159.04283	24.0
289.07187	24.0
139.99197	23.0
144.05833	23.0
299.04758	23.0
130.04504	23.0
66.00813	23.0
147.04533	22.0
169.00603	22.0
171.04036	22.0
202.02773	21.0
115.05427	21.0
284.02863	21.0
89.04068	21.0
189.05721	20.0
165.0179	20.0
211.03377	17.0
159.07372	13.0
127.0514	13.0
81.07345	12.0
152.06844	12.0

MSID: 9075
ID: 288
RETENTIONTIME: 30.59237
PRECURSORMZ: 333.1697
AREA: 1092951.5
PRECURSORTYPE: [M+H]+
SMILES: [H][C@]12C[C@@]3([H])C(C)(C)CCC[C@]3(CO1)C(=C[C@]21OC(=O)C(C)=C1)C(O)=O
NAME: Paramiltioic acid
FORMULA: C19H24O5
INCHIKEY: KFEXQOCBQUOLSU-FTUNRGFVSA-N
CAS: 140396-85-6
Molecular Weight: 332.397
Number of References: 6
Class: Abeoabietane diterpenoids
Superclass: Diterpenoids
Pathway: Terpenoids
ppm: -0.50000000004502
CMID: CM243
IONMODE: Positive
COLLISIONENERGY: 40±20eV
INSTRUMENTTYPE: AB SCIEX
INSTRUMENT: Q-TOF
Comment:  
Num Peaks: 124
231.1024	20164.0
333.16833	609.0
216.07899	602.0
189.05467	525.0
145.06528	346.0
213.092	314.0
188.08366	297.0
185.09631	271.0
172.08731	264.0
187.04013	253.0
215.07097	245.0
201.05325	211.0
171.08151	198.0
229.12347	186.0
159.08127	171.0
187.11113	166.0
203.10681	147.0
214.09969	139.0
133.06464	134.0
157.0631	134.0
271.1712	133.0
158.07118	129.0
128.06252	126.0
173.05998	126.0
141.06953	121.0
157.10237	115.0
129.06863	114.0
147.0811	113.0
269.15576	110.0
142.07637	104.0
161.09618	94.0
287.16037	94.0
199.0723	91.0
233.11974	90.0
170.07356	86.0
245.11952	85.0
144.05728	83.0
175.10942	81.0
160.08713	81.0
315.15927	78.0
185.06035	75.0
173.09476	71.0
165.09102	68.0
169.06476	67.0
271.16153	65.0
159.11586	64.0
127.05373	63.0
131.08369	62.0
256.1445	58.0
243.17448	58.0
167.08401	55.0
227.1073	55.0
105.06881	53.0
144.09373	53.0
201.08936	50.0
231.07411	49.0
203.06912	48.0
153.07022	48.0
241.12314	48.0
154.07881	48.0
205.12312	46.0
133.10193	46.0
189.08969	45.0
146.0744	45.0
161.05888	44.0
143.08797	44.0
255.10632	43.0
285.18546	41.0
212.07814	41.0
131.05118	39.0
55.05232	39.0
145.10066	39.0
269.14932	39.0
255.13605	38.0
181.06648	38.0
216.05452	37.0
186.10236	37.0
117.06963	37.0
169.10168	36.0
132.05881	36.0
199.06264	35.0
226.0974	35.0
185.08966	35.0
217.08505	34.0
159.04175	33.0
119.08314	33.0
195.08101	33.0
225.09122	32.0
259.16605	32.0
189.03313	32.0
91.05469	31.0
155.0834	30.0
259.09509	30.0
165.06586	29.0
188.06351	27.0
194.07278	27.0
241.15811	26.0
237.12642	25.0
55.01817	25.0
230.33923	25.0
195.11931	25.0
107.08723	25.0
163.03746	25.0
171.04053	25.0
215.04799	25.0
177.05624	25.0
183.07916	25.0
333.19873	25.0
211.07664	25.0
200.08095	24.0
146.06375	24.0
175.07184	24.0
187.06825	23.0
166.07909	23.0
297.14551	23.0
240.07339	22.0
239.10622	22.0
93.0713	22.0
83.04751	22.0
243.13936	21.0
152.06253	21.0
285.13419	13.0
115.04912	13.0
207.67549	12.0

MSID: 9076
ID: 192
RETENTIONTIME: 28.01083
PRECURSORMZ: 363.1437
AREA: 1090761.5
PRECURSORTYPE: [M+H]+
SMILES: [H][C@]12CC3=C(C)C(=O)O[C@@]3(C[C@]1(C)[C@@H](OC(C)=O)C(=O)C=C2C)OC(C)=O
NAME: 1α,8α-diacetoxy-2-oxo-eudesman-3,7(11)-dien-8,12-olide
FORMULA: C19H22O7
INCHIKEY: HULPKUPHSMPFGY-SKSLQVBQSA-N
CAS: 131740-69-7
Molecular Weight: 362.379
Number of References: 2
Class: Eudesmane sesquiterpenoids
Superclass: Sesquiterpenoids
Pathway: Terpenoids
ppm: -0.6799999999884676
CMID: CM243
IONMODE: Positive
COLLISIONENERGY: 40±20eV
INSTRUMENTTYPE: AB SCIEX
INSTRUMENT: Q-TOF
Comment:  
Num Peaks: 194
345.13144	7741.0
301.14145	2622.0
203.07051	2527.0
259.09665	1971.0
275.09143	469.0
286.12067	412.0
244.07333	374.0
363.146	350.0
317.13748	311.0
157.0643	310.0
231.06367	278.0
129.07085	262.0
175.07312	252.0
189.021	227.0
235.09776	219.0
229.04637	193.0
189.09103	180.0
128.0614	162.0
69.06977	158.0
241.08662	157.0
299.16641	150.0
245.0459	146.0
271.0954	136.0
161.02283	136.0
317.17236	135.0
188.04738	127.0
243.10269	119.0
147.08228	119.0
160.05367	111.0
199.07782	110.0
247.09845	108.0
55.05377	107.0
231.10089	106.0
289.17703	105.0
217.08792	105.0
215.10829	100.0
285.11432	99.0
315.08447	98.0
209.13318	88.0
83.0484	88.0
79.05447	88.0
143.08678	87.0
131.04892	84.0
171.07893	83.0
91.05282	82.0
187.04012	81.0
260.06708	81.0
185.05901	79.0
213.09341	77.0
179.08325	74.0
167.084	73.0
159.08249	73.0
161.05763	71.0
176.08408	71.0
271.16797	70.0
97.06364	70.0
197.09427	66.0
199.03775	66.0
67.05469	66.0
121.06423	66.0
216.04155	65.0
119.08527	65.0
239.07137	63.0
257.15494	63.0
237.12791	62.0
195.08235	62.0
225.08974	62.0
177.09271	61.0
155.08583	60.0
220.07362	60.0
173.05997	60.0
173.09604	59.0
255.13603	58.0
127.05482	57.0
57.03258	57.0
330.10953	56.0
211.10936	56.0
215.0336	56.0
145.06409	56.0
205.04736	56.0
227.14272	55.0
229.12198	55.0
243.06453	55.0
211.07806	54.0
158.07364	54.0
258.09027	53.0
165.07088	53.0
194.10825	53.0
141.06836	53.0
201.05324	51.0
268.10751	51.0
135.08206	50.0
223.07388	50.0
189.05331	50.0
107.05074	50.0
241.1216	49.0
132.05992	49.0
222.10657	48.0
147.04427	48.0
181.06384	47.0
93.07224	47.0
363.20947	47.0
205.08804	46.0
157.10359	46.0
117.06856	45.0
289.14038	45.0
175.03815	45.0
230.09105	44.0
107.08722	44.0
131.08817	43.0
301.10916	43.0
169.10168	43.0
212.11949	43.0
193.08757	41.0
271.13248	41.0
286.10245	41.0
219.06357	40.0
239.1062	39.0
177.05362	39.0
283.13495	39.0
303.07697	39.0
218.09343	39.0
243.07674	39.0
133.06577	38.0
175.06017	37.0
235.07976	37.0
128.05365	36.0
227.06891	36.0
169.06474	36.0
153.069	36.0
227.10728	35.0
265.11868	35.0
273.15369	35.0
240.11436	34.0
241.07446	34.0
81.07087	34.0
232.07265	34.0
130.07979	33.0
198.06619	33.0
269.11557	33.0
219.10271	33.0
142.0822	33.0
133.02962	33.0
330.18427	33.0
184.05048	32.0
201.09074	32.0
255.10162	32.0
233.08234	31.0
143.04929	31.0
228.04253	31.0
159.04544	30.0
217.12399	30.0
281.15753	29.0
202.06271	29.0
171.11737	29.0
192.0818	29.0
160.04747	29.0
157.05325	28.0
151.07741	28.0
183.07916	28.0
155.08217	27.0
163.07497	27.0
313.10574	27.0
149.0594	27.0
217.07349	27.0
287.12881	27.0
214.06815	26.0
210.10449	26.0
196.08086	25.0
300.17856	25.0
253.08147	25.0
345.10052	25.0
207.08311	25.0
301.07178	24.0
212.1095	24.0
259.12976	24.0
191.06918	24.0
243.08896	23.0
178.0768	23.0
216.03146	23.0
153.09082	23.0
170.07227	23.0
105.0668	23.0
146.0744	22.0
299.13251	22.0
261.11212	21.0
247.06458	21.0
166.07402	20.0
249.10854	18.0
137.01723	13.0
321.5444	12.0
95.08707	12.0
279.1478	12.0
51.02243	12.0

MSID: 9077
ID: 285
RETENTIONTIME: 30.46138
PRECURSORMZ: 394.2219
AREA: 1084390.875
PRECURSORTYPE: [M+NH4]+
SMILES: [H][C@@]12[C@@H](OC)C(=O)[C@@]34O[C@@]3(C(=O)C(O)=C(C(C)C)C4=O)[C@@]1(C)CCCC2(C)C
NAME: salvidesertone B
FORMULA: C21H28O6
INCHIKEY: QIWGZOZBWQGVQP-CPUUGZBESA-N
CAS: nan
Molecular Weight: 376.45
Number of References: 1
Class: Secoabietane diterpenoids
Superclass: Diterpenoids
Pathway: Terpenoids
ppm: -1.063999999985299
CMID: CM243
IONMODE: Positive
COLLISIONENERGY: 40±20eV
INSTRUMENTTYPE: AB SCIEX
INSTRUMENT: Q-TOF
Comment:  
Num Peaks: 253
317.1759	23306.0
217.0865	8530.0
299.16473	7871.0
271.16962	5266.0
229.12349	3627.0
211.11224	2537.0
215.10689	2071.0
377.19498	1727.0
281.15265	1551.0
173.05998	1289.0
253.15785	1188.0
241.12163	1041.0
239.10623	937.0
257.11728	858.0
289.17874	816.0
183.11629	799.0
243.10121	754.0
165.0923	752.0
228.11356	727.0
205.08527	707.0
193.08623	648.0
202.06134	608.0
231.09944	581.0
203.10544	579.0
221.09624	579.0
187.07631	550.0
189.09105	547.0
231.13666	521.0
213.09201	488.0
197.09705	478.0
259.13138	445.0
193.10257	407.0
238.10019	391.0
161.06013	374.0
227.10732	361.0
195.07965	340.0
199.07646	340.0
171.08025	331.0
69.06978	328.0
95.08517	327.0
181.0665	321.0
209.09637	318.0
247.13235	280.0
123.04432	279.0
163.07498	275.0
213.12776	268.0
233.11826	265.0
196.09048	254.0
201.09076	252.0
145.06528	251.0
153.06903	250.0
143.08563	244.0
168.09325	234.0
197.05855	231.0
263.1434	224.0
219.10129	218.0
185.09767	217.0
107.08521	217.0
141.07071	213.0
169.10298	211.0
149.06062	209.0
175.07574	208.0
159.08128	204.0
155.08707	199.0
147.04311	196.0
205.12314	195.0
215.08965	192.0
177.09013	191.0
157.06433	190.0
207.10147	188.0
128.06142	184.0
201.12549	180.0
200.08235	179.0
210.10452	176.0
179.10818	174.0
223.07391	173.0
243.13785	171.0
178.07812	171.0
247.10002	169.0
157.10115	163.0
256.10846	161.0
225.16324	161.0
266.12912	160.0
219.13898	159.0
201.05327	159.0
183.08051	159.0
394.29242	158.0
169.06223	155.0
223.11194	152.0
241.08818	152.0
167.08528	150.0
191.10712	148.0
143.04932	148.0
177.05495	145.0
181.09944	141.0
245.11647	140.0
185.06036	133.0
135.04338	129.0
187.11247	127.0
189.05469	125.0
174.06898	124.0
214.10114	122.0
182.07211	121.0
241.10794	119.0
243.17145	118.0
233.08087	116.0
129.06975	115.0
225.12944	111.0
287.16534	109.0
91.05376	108.0
226.09741	106.0
154.07761	106.0
269.15256	105.0
255.13763	104.0
218.09201	102.0
217.11969	101.0
131.05006	98.0
163.03996	97.0
198.0676	97.0
251.14232	97.0
152.06375	96.0
59.04783	95.0
203.09706	95.0
248.1218	95.0
159.04298	94.0
209.08081	92.0
216.11501	92.0
205.1091	90.0
199.10963	90.0
219.09404	89.0
175.03816	88.0
137.05737	87.0
215.07816	87.0
184.05183	86.0
235.0993	84.0
229.08347	83.0
96.04354	82.0
55.05233	82.0
224.07997	81.0
239.14258	80.0
67.05309	80.0
127.05373	80.0
235.14285	79.0
119.08528	79.0
317.15845	79.0
257.09842	78.0
85.06422	77.0
273.15048	76.0
284.1395	76.0
220.12451	76.0
259.17078	71.0
206.07385	71.0
238.13344	68.0
237.09024	67.0
109.10132	67.0
200.04633	67.0
93.06941	65.0
179.08853	65.0
281.12802	64.0
81.03385	64.0
81.06912	63.0
137.09636	62.0
261.11215	62.0
142.07639	61.0
228.07509	61.0
253.12358	60.0
243.12106	59.0
255.09697	59.0
147.08229	59.0
227.07336	59.0
150.06554	59.0
251.10353	58.0
139.04005	57.0
161.05392	55.0
212.12238	55.0
79.05447	55.0
172.08347	54.0
205.07123	54.0
187.03612	54.0
237.12643	54.0
158.07365	53.0
166.07784	53.0
159.1134	53.0
198.1062	53.0
186.06764	52.0
180.0939	52.0
184.09036	52.0
230.1312	49.0
227.14127	49.0
212.08243	49.0
275.1207	49.0
182.11176	48.0
115.05333	48.0
217.06342	48.0
71.04946	48.0
173.09607	47.0
151.05577	46.0
257.15027	46.0
210.1386	46.0
211.08093	46.0
185.13364	46.0
77.03767	46.0
214.06387	45.0
242.09288	45.0
199.06403	44.0
242.13251	44.0
156.09372	44.0
269.11078	43.0
245.15021	43.0
179.07018	43.0
249.1132	43.0
133.06352	42.0
105.07082	41.0
270.12393	41.0
155.04805	41.0
161.0937	41.0
151.03531	41.0
57.03554	41.0
171.04437	41.0
171.11868	41.0
224.11955	40.0
205.04459	39.0
238.07904	39.0
145.10185	38.0
208.08643	38.0
144.05612	38.0
193.07399	38.0
219.06505	37.0
204.07526	37.0
167.07643	36.0
223.14705	35.0
216.07469	35.0
221.11662	34.0
243.07219	33.0
135.03998	32.0
187.10577	32.0
186.10638	32.0
377.17215	31.0
237.09929	31.0
195.06596	31.0
230.09109	30.0
316.13022	30.0
231.08157	29.0
111.08152	29.0
190.05656	29.0
207.06624	29.0
222.10368	28.0
107.04872	27.0
225.08095	26.0
316.10583	26.0
244.10397	24.0
125.09302	17.0
86.05892	12.0

MSID: 9078
ID: 383
RETENTIONTIME: 32.08137
PRECURSORMZ: 336.2157
AREA: 1081890.875
PRECURSORTYPE: [M+NH4]+
SMILES: [H][C@]12CCCC(C)(C)[C@]1([H])[C@H](O)OC1=C2C(C=O)=CC(C(C)C)=C1O
NAME: salvidorol
FORMULA: C19H26O4
INCHIKEY: ITHVSWXLABDZIJ-HNJNHCNJSA-N
CAS: nan
Molecular Weight: 318.413
Number of References: 2
Class: Secoabietane diterpenoids
Superclass: Diterpenoids
Pathway: Terpenoids
ppm: -1.783999999986463
CMID: CM243
IONMODE: Positive
COLLISIONENERGY: 40±20eV
INSTRUMENTTYPE: AB SCIEX
INSTRUMENT: Q-TOF
Comment:  
Num Peaks: 169
245.19009	6099.0
319.19022	3453.0
273.18451	2675.0
227.17967	1043.0
283.16797	718.0
217.19621	718.0
255.17365	641.0
185.13232	548.0
231.13817	510.0
336.21796	451.0
215.14569	412.0
157.10117	399.0
171.11742	320.0
161.13101	315.0
147.11914	281.0
301.18231	277.0
189.12608	267.0
159.11713	237.0
119.08423	224.0
139.03775	218.0
133.10307	207.0
145.0995	206.0
257.19113	204.0
199.1138	201.0
109.10133	192.0
213.12778	189.0
105.06883	188.0
107.08522	176.0
185.09634	175.0
149.13358	173.0
187.11249	168.0
143.0833	162.0
95.08517	159.0
175.11205	158.0
81.07089	152.0
121.10091	151.0
93.06943	148.0
69.06897	146.0
173.09737	143.0
55.05378	143.0
131.08484	134.0
203.14453	131.0
197.13283	130.0
128.06143	128.0
142.07756	125.0
151.07504	125.0
91.05377	123.0
67.0539	120.0
187.14867	119.0
241.12013	112.0
129.06976	112.0
135.11739	107.0
161.09744	104.0
141.07188	101.0
149.0977	99.0
83.04931	98.0
163.11128	97.0
111.04334	96.0
155.08588	96.0
157.06189	93.0
147.08231	92.0
163.07375	91.0
275.20035	89.0
157.04839	88.0
177.12794	87.0
135.08096	85.0
169.09917	83.0
216.11359	83.0
117.07071	80.0
227.10881	80.0
199.14973	80.0
173.13217	79.0
175.14705	79.0
123.08236	79.0
159.08253	78.0
163.1463	78.0
183.11763	77.0
165.0898	75.0
137.09521	70.0
171.08026	69.0
79.05274	66.0
237.16266	65.0
133.06354	64.0
201.1644	64.0
153.06905	63.0
203.10825	63.0
201.12967	62.0
195.11523	58.0
205.12035	58.0
177.09146	58.0
241.16119	56.0
259.13138	56.0
242.1691	55.0
145.06648	55.0
97.06462	55.0
212.15948	55.0
201.09079	53.0
215.17874	51.0
228.18901	51.0
144.0914	50.0
229.15761	50.0
182.10913	49.0
198.13792	49.0
217.12405	49.0
127.05486	49.0
153.05571	48.0
213.09204	48.0
121.06319	46.0
211.14926	45.0
265.15701	45.0
57.06884	45.0
83.08323	45.0
203.17804	44.0
229.19615	42.0
213.16353	42.0
137.06082	41.0
119.07461	41.0
167.08405	40.0
109.06655	40.0
161.05766	40.0
165.06841	39.0
215.1069	39.0
244.17899	39.0
231.09946	38.0
154.08006	38.0
158.10939	38.0
151.10995	38.0
151.03893	38.0
59.04784	36.0
230.16391	36.0
149.05943	36.0
195.10019	36.0
181.10474	35.0
245.15022	35.0
217.16589	34.0
189.09242	33.0
233.15118	32.0
179.08855	31.0
130.07759	31.0
165.12503	30.0
177.11623	30.0
176.11531	30.0
93.06564	29.0
170.10808	29.0
191.06923	29.0
57.03259	28.0
157.08644	28.0
191.10577	28.0
55.01891	28.0
204.11166	28.0
239.17139	27.0
193.08626	26.0
321.09857	26.0
115.05439	26.0
319.15524	26.0
291.19247	26.0
268.14929	26.0
209.09215	25.0
283.13007	25.0
71.04782	25.0
184.08905	25.0
185.06303	25.0
139.02621	25.0
160.08841	24.0
225.12358	23.0
67.04829	20.0
95.04603	14.0
109.06144	13.0
71.05195	12.0

MSID: 9079
ID: 458
RETENTIONTIME: 34.10507
PRECURSORMZ: 301.2155
AREA: 1080359.5
PRECURSORTYPE: [M+H]+
SMILES: [H][C@@]12CC(=O)C3=C(C=C(O)C(=C3)C(C)C)[C@@]1(C)CCCC2(C)C
NAME: (+)-sugiol
FORMULA: C20H28O2
INCHIKEY: IPEHJNRNYPOFII-AZUAARDMSA-N
CAS: 511-05-7
Molecular Weight: 300.441
Number of References: 153
Class: Abietane diterpenoids
Superclass: Diterpenoids
Pathway: Terpenoids
ppm: -1.255000000014661
CMID: CM243
IONMODE: Positive
COLLISIONENERGY: 40±20eV
INSTRUMENTTYPE: AB SCIEX
INSTRUMENT: Q-TOF
Comment:  
Num Peaks: 89
191.10692	5183.0
149.06046	1225.0
205.12291	1068.0
55.05445	1029.0
131.0488	943.0
97.10118	809.0
301.21768	616.0
219.13875	565.0
163.07607	401.0
217.12091	373.0
145.06395	315.0
69.06971	303.0
103.0526	296.0
159.07988	272.0
177.08864	263.0
157.06293	211.0
179.108	184.0
161.0612	163.0
203.10661	161.0
175.07426	132.0
259.16895	132.0
117.06845	127.0
128.06239	126.0
129.06851	126.0
165.0896	122.0
185.09747	114.0
115.05216	102.0
141.0694	100.0
245.15147	93.0
231.13493	92.0
189.09085	91.0
131.08356	82.0
144.05597	80.0
143.08665	79.0
157.10098	79.0
143.04916	77.0
171.08263	76.0
111.11651	73.0
145.10052	72.0
127.0547	72.0
241.15788	69.0
202.09872	69.0
158.07103	67.0
91.05367	65.0
173.09459	64.0
148.04939	57.0
231.10217	52.0
199.11081	52.0
142.07623	51.0
173.05852	50.0
123.0431	50.0
191.08931	48.0
201.09055	47.0
176.08002	44.0
156.09233	43.0
123.11916	42.0
152.06358	41.0
67.05222	41.0
188.08348	41.0
189.08412	40.0
169.06459	38.0
77.04017	38.0
165.06317	38.0
170.07211	37.0
259.1311	37.0
130.07744	36.0
162.06956	34.0
187.07343	34.0
83.08671	34.0
283.20721	33.0
195.11501	33.0
109.09916	32.0
171.1185	31.0
102.04593	30.0
57.07025	30.0
147.04295	29.0
184.08618	28.0
95.08602	27.0
183.08163	27.0
160.05104	25.0
255.20776	24.0
167.08385	24.0
57.03326	23.0
193.12006	23.0
190.09282	23.0
81.0708	22.0
135.11382	13.0
283.21545	13.0
65.43409	12.0

MSID: 9080
ID: 250
RETENTIONTIME: 29.58957
PRECURSORMZ: 333.1696
AREA: 1073446.875
PRECURSORTYPE: [M+H]+
SMILES: [H][C@@]12C[C@@]3([H])C(C)(C)CCC[C@]3(CO1)C(=CC(O)=O)[C@]21OC(=O)C(C)=C1
NAME: salvialba acid
FORMULA: C19H24O5
INCHIKEY: FQPIFAKBVLAUIK-ZCFKWTISSA-N
CAS: nan
Molecular Weight: 332.397
Number of References: 1
Class: Secoabietane diterpenoids
Superclass: Diterpenoids
Pathway: Terpenoids
ppm: -0.6000000000199179
CMID: CM243
IONMODE: Positive
COLLISIONENERGY: 40±20eV
INSTRUMENTTYPE: AB SCIEX
INSTRUMENT: Q-TOF
Comment:  
Num Peaks: 96
231.10237	15794.0
216.07898	469.0
333.1701	379.0
189.05331	300.0
185.0963	256.0
145.06526	238.0
188.08231	214.0
187.04012	202.0
172.08858	185.0
215.07094	178.0
201.05185	171.0
213.09055	165.0
187.11244	140.0
173.06125	137.0
171.07893	123.0
333.20407	116.0
229.12196	107.0
157.06554	105.0
159.08125	99.0
173.09604	94.0
214.09967	94.0
233.11673	84.0
158.07117	83.0
271.16797	78.0
175.1133	78.0
128.06361	74.0
159.11584	74.0
315.16272	72.0
287.16367	70.0
141.06952	70.0
161.09491	68.0
199.07782	68.0
203.10959	66.0
170.07355	64.0
142.07402	60.0
157.09868	57.0
147.0799	56.0
189.09238	55.0
185.06033	54.0
187.07628	52.0
160.08713	51.0
203.0719	51.0
143.08678	50.0
169.06346	47.0
131.08592	47.0
256.15076	46.0
129.07196	46.0
201.0463	44.0
231.07408	43.0
133.06577	43.0
245.1149	43.0
167.08527	42.0
127.05482	41.0
145.05818	40.0
117.06962	38.0
269.15411	37.0
289.09875	37.0
230.33772	37.0
285.18378	36.0
144.05728	36.0
165.091	36.0
259.09665	36.0
146.0744	35.0
131.04781	34.0
105.07081	33.0
227.10728	33.0
273.1116	33.0
145.10419	33.0
181.07042	33.0
152.06493	31.0
171.04308	30.0
245.0735	29.0
217.08502	28.0
240.07338	28.0
159.0442	27.0
297.14719	27.0
188.05006	27.0
333.11292	26.0
184.08768	25.0
213.07054	25.0
183.08047	25.0
119.08527	25.0
219.10124	25.0
241.11095	24.0
91.05468	24.0
169.10167	24.0
121.06316	24.0
143.05046	23.0
55.0545	23.0
287.13708	22.0
115.05541	21.0
153.069	21.0
147.11671	13.0
315.08447	13.0
165.06711	13.0
317.13049	12.0

MSID: 9081
ID: 406
RETENTIONTIME: 32.68537
PRECURSORMZ: 331.19
AREA: 1066101.5
PRECURSORTYPE: [M+H]+
SMILES: [H][C@@]12C[C@@]3([H])C(C)(C)CCC[C@]3(C(=O)O1)C1=C2C(O)=C(C=C1O)C(C)C
NAME: isocarnosol
FORMULA: C20H26O4
INCHIKEY: MCMQSPNBTJWIEO-PJSUUKDQSA-N
CAS: nan
Molecular Weight: 330.424
Number of References: 2
Class: nan
Superclass: nan
Pathway: nan
ppm: -0.9350000000267755
CMID: CM243
IONMODE: Positive
COLLISIONENERGY: 40±20eV
INSTRUMENTTYPE: AB SCIEX
INSTRUMENT: Q-TOF
Comment:  
Num Peaks: 187
313.18008	502.0
331.19394	252.0
231.10077	252.0
301.17868	247.0
95.08415	241.0
285.18695	204.0
241.12451	176.0
197.09692	161.0
207.09851	155.0
215.10675	152.0
283.1694	129.0
189.05592	121.0
147.04419	119.0
233.11212	106.0
67.05465	106.0
255.17345	101.0
173.05988	98.0
253.12497	97.0
201.12674	97.0
225.09109	96.0
205.08513	93.0
267.17166	91.0
145.10059	90.0
197.06117	90.0
295.16998	89.0
81.06995	88.0
271.13235	87.0
258.12476	80.0
267.13644	80.0
211.07652	80.0
213.09045	79.0
201.08786	76.0
219.09969	76.0
189.09227	76.0
225.1293	75.0
181.06638	75.0
257.1171	72.0
55.05447	71.0
227.1057	70.0
265.16	69.0
203.10809	68.0
259.13751	64.0
185.05757	63.0
131.08586	63.0
216.07599	62.0
181.08351	61.0
221.11649	60.0
91.0537	59.0
105.06875	59.0
229.09073	58.0
243.09799	58.0
213.12904	56.0
285.14395	55.0
171.08014	55.0
249.10995	55.0
199.07495	54.0
183.07774	54.0
191.10564	54.0
159.08118	54.0
243.13617	54.0
245.11784	53.0
119.04994	52.0
155.08453	52.0
229.12482	51.0
169.06465	51.0
159.04289	51.0
270.12857	51.0
163.07487	50.0
141.06946	50.0
145.06284	49.0
200.08221	48.0
165.05318	48.0
209.09766	48.0
197.0818	47.0
211.11494	47.0
205.1216	46.0
189.12729	45.0
119.08627	45.0
215.07083	45.0
195.11508	45.0
143.08437	45.0
170.07217	45.0
169.10159	44.0
217.08636	44.0
191.07043	44.0
187.07753	44.0
269.11865	43.0
127.05145	43.0
239.10304	43.0
129.06967	43.0
227.06732	43.0
223.11327	43.0
239.14394	42.0
217.11955	42.0
157.10228	42.0
295.16495	41.0
166.07646	41.0
93.0703	41.0
157.06544	41.0
77.03762	40.0
165.06828	40.0
177.05223	40.0
149.05933	39.0
154.07144	38.0
273.1503	38.0
85.06416	38.0
121.10297	38.0
207.09006	37.0
255.13591	37.0
165.09093	36.0
199.10535	36.0
117.07168	36.0
179.08054	36.0
242.09729	35.0
179.11331	35.0
255.10931	35.0
244.1084	35.0
156.09239	35.0
196.09309	34.0
237.0916	34.0
161.05879	34.0
193.08611	34.0
144.09012	33.0
198.06471	33.0
195.08636	33.0
128.06355	33.0
237.15945	32.0
69.06811	32.0
188.0849	32.0
247.13681	31.0
235.11116	31.0
107.04359	31.0
228.0779	31.0
197.12993	31.0
153.06529	30.0
123.04424	30.0
111.04326	29.0
218.09186	29.0
214.05656	28.0
223.07962	28.0
313.14371	28.0
131.04886	28.0
171.0417	28.0
167.08644	28.0
151.07373	28.0
261.11041	27.0
105.03161	27.0
252.11314	26.0
289.14191	26.0
201.05869	25.0
200.07529	25.0
137.05614	25.0
181.09932	25.0
203.0732	25.0
303.18423	25.0
277.15814	25.0
178.07671	25.0
210.06747	25.0
238.10306	25.0
213.05757	25.0
109.10125	24.0
241.08498	24.0
222.10207	24.0
159.11577	24.0
111.08042	23.0
230.0939	23.0
257.19092	23.0
97.09929	23.0
69.03149	23.0
235.1337	23.0
212.08372	22.0
153.05318	22.0
133.09734	22.0
194.07539	22.0
209.08067	22.0
175.06915	22.0
83.04836	21.0
79.05181	20.0
251.10646	20.0
115.05536	20.0
208.08911	20.0
107.08615	19.0
263.14639	13.0
127.04372	13.0
65.04018	12.0
86.72796	12.0
101.10036	12.0

MSID: 9082
ID: 395
RETENTIONTIME: 32.42117
PRECURSORMZ: 361.1642
AREA: 1053062.0
PRECURSORTYPE: [M+H]+
SMILES: COC1=CC(CCCO)=CC2=C1O[C@H]([C@@H]2CO)C1=CC=C(O)C(OC)=C1
NAME: 4-[(2R,3S)-3-Hydroxymethyl-5-(3-hydroxy-propyl)-7-methoxy-2,3-dihydro-benzofuran-2-yl]-2-methoxy-phenol
FORMULA: C20H24O6
INCHIKEY: SBLZVJIHPWRSQQ-BEFAXECRSA-N
CAS: nan
Molecular Weight: 360.407
Number of References: 45
Class: Neolignans
Superclass: Lignans
Pathway: Shikimates and Phenylpropanoids
ppm: -0.9150000000204273
CMID: CM243
IONMODE: Positive
COLLISIONENERGY: 40±20eV
INSTRUMENTTYPE: AB SCIEX
INSTRUMENT: Q-TOF
Comment:  
Num Peaks: 210
361.1647	6705.0
247.09686	1238.0
315.15918	1208.0
301.1431	638.0
317.17404	364.0
219.10121	347.0
255.10156	338.0
195.0659	324.0
297.14713	299.0
231.10233	299.0
232.0726	275.0
299.16464	269.0
259.09659	246.0
333.16647	233.0
271.16953	224.0
287.1636	219.0
217.08643	211.0
257.12033	194.0
55.05376	183.0
273.14716	180.0
227.10872	171.0
231.0666	170.0
263.09088	170.0
213.09052	170.0
271.09857	158.0
273.11316	156.0
245.08266	153.0
286.11896	151.0
229.08487	140.0
203.07047	136.0
269.11713	129.0
233.0793	128.0
241.08656	127.0
261.1105	127.0
195.08232	126.0
257.0795	124.0
269.15247	123.0
235.09622	120.0
233.11818	118.0
229.12044	116.0
285.11591	115.0
199.07777	115.0
245.11638	115.0
215.07091	114.0
237.09166	114.0
300.1344	113.0
256.14444	112.0
291.08875	112.0
343.14917	109.0
204.07658	109.0
316.16669	106.0
197.05986	105.0
189.05463	103.0
239.10767	101.0
201.0907	101.0
221.07869	98.0
187.07625	97.0
135.04448	97.0
203.10536	94.0
211.07802	94.0
289.1803	93.0
205.05013	93.0
185.09894	90.0
243.10265	84.0
69.06894	84.0
199.11095	83.0
255.13911	83.0
287.09555	83.0
275.12872	82.0
173.09859	81.0
254.09361	81.0
179.03735	79.0
214.06523	78.0
83.08587	77.0
283.12994	76.0
147.04424	75.0
141.0695	75.0
173.05992	74.0
258.05402	74.0
230.09546	73.0
177.05228	73.0
209.09489	73.0
248.10628	71.0
329.17767	70.0
256.10995	68.0
215.10538	66.0
219.06642	64.0
157.06427	64.0
191.06778	63.0
267.09973	62.0
227.14413	62.0
161.05884	61.0
85.06329	61.0
128.06139	60.0
175.07439	60.0
282.12723	59.0
198.06891	59.0
183.07912	58.0
171.08275	58.0
287.15033	58.0
187.11375	57.0
216.08037	57.0
189.04924	54.0
158.07361	53.0
247.06299	53.0
251.13913	53.0
166.07651	52.0
159.04417	52.0
217.05035	52.0
319.11658	52.0
274.12082	51.0
281.15747	51.0
211.11075	51.0
153.06897	51.0
129.07082	50.0
301.10739	50.0
234.08817	49.0
244.11154	49.0
189.08829	48.0
145.06406	47.0
149.06056	47.0
205.08379	47.0
244.07481	47.0
202.09886	47.0
193.05078	46.0
249.07758	46.0
175.0407	45.0
251.10809	45.0
225.0941	44.0
161.09737	44.0
253.08609	43.0
279.133	43.0
245.10565	42.0
249.08994	42.0
142.07634	42.0
246.12483	41.0
199.03909	41.0
284.13443	41.0
143.08557	40.0
271.13565	39.0
193.10522	39.0
181.09543	38.0
238.0986	38.0
131.05002	38.0
226.06641	38.0
243.06752	38.0
293.10239	37.0
202.06267	37.0
241.15349	37.0
155.08702	37.0
305.17432	37.0
260.10651	36.0
165.06958	36.0
167.0827	36.0
171.04688	35.0
209.07932	35.0
175.11197	35.0
211.10506	35.0
223.10748	34.0
230.05981	34.0
255.06558	34.0
247.12918	33.0
159.08493	33.0
196.08904	33.0
226.09734	33.0
281.11972	33.0
212.08093	33.0
249.11467	33.0
194.1082	32.0
153.05322	32.0
171.11734	32.0
152.06612	32.0
163.03992	32.0
240.07637	32.0
270.12704	32.0
283.09534	31.0
206.05551	31.0
254.12952	31.0
187.0374	31.0
223.09431	30.0
221.06558	30.0
251.09413	30.0
83.04927	30.0
225.05148	30.0
248.06926	29.0
207.06053	29.0
237.13087	29.0
186.06757	29.0
169.10674	29.0
182.07205	27.0
68.99815	26.0
265.11066	26.0
200.04764	25.0
299.14432	25.0
272.13483	25.0
222.07004	25.0
147.07869	25.0
233.03743	25.0
176.04895	25.0
109.09924	24.0
137.06305	24.0
81.03558	24.0
218.09193	23.0
242.09128	23.0
291.12384	22.0
257.05753	22.0
288.09875	21.0
279.08554	21.0
140.0616	13.0
59.0463	12.0

MSID: 9083
ID: 152
RETENTIONTIME: 26.21045
PRECURSORMZ: 364.2125
AREA: 1044020.125
PRECURSORTYPE: [M+NH4]+
SMILES: [H][C@]12CCC=C(C)[C@@]11COC(=O)[C@H](C[C@@H]1O)[C@]2(C)CCC1=CCOC1=O
NAME: Salvimadrensin
FORMULA: C20H26O5
INCHIKEY: UGJRFUBZMMXTKY-MHZKCTCGSA-N
CAS: nan
Molecular Weight: 346.423
Number of References: 2
Class: Colensane and Clerodane diterpenoids
Superclass: Diterpenoids
Pathway: Terpenoids
ppm: 0.10099999997237319
CMID: CM243
IONMODE: Positive
COLLISIONENERGY: 40±20eV
INSTRUMENTTYPE: AB SCIEX
INSTRUMENT: Q-TOF
Comment:  
Num Peaks: 210
301.17923	21487.0
231.10268	15717.0
283.16992	10295.0
273.18478	8160.0
241.12343	5520.0
217.12283	3862.0
203.10567	3108.0
219.10153	1981.0
177.09164	1965.0
223.1122	1503.0
259.13324	1342.0
257.15527	1228.0
175.07594	983.0
161.05908	980.0
259.17108	893.0
229.12227	865.0
165.09122	789.0
215.10713	714.0
213.09225	708.0
185.09654	705.0
199.0753	687.0
191.10733	663.0
213.12801	640.0
157.06573	623.0
195.11818	616.0
149.0584	611.0
188.08389	610.0
245.11829	587.0
109.10145	579.0
223.09903	559.0
69.06985	548.0
189.0549	515.0
199.11263	505.0
255.1739	418.0
205.12196	395.0
265.15729	379.0
240.11467	361.0
185.06056	346.0
216.07925	330.0
201.0896	317.0
171.08044	315.0
157.1001	313.0
181.06407	302.0
95.08527	296.0
173.0589	292.0
149.09427	291.0
243.13812	285.0
197.09727	281.0
179.10577	275.0
145.06427	272.0
227.10757	268.0
131.04909	267.0
67.05397	260.0
55.05457	256.0
187.07652	247.0
189.09262	244.0
163.07516	243.0
141.0697	242.0
81.07009	232.0
239.10651	208.0
183.08072	207.0
143.04831	206.0
195.08397	205.0
143.08463	204.0
233.11552	203.0
239.14436	201.0
195.10449	201.0
213.10942	200.0
129.07101	197.0
231.13245	197.0
205.0869	185.0
347.19278	175.0
225.09296	173.0
184.08925	169.0
177.05646	168.0
83.08599	166.0
208.08807	159.0
237.11313	155.0
203.07077	154.0
142.07771	153.0
165.07109	142.0
153.07162	139.0
211.11247	136.0
169.06624	135.0
159.08147	130.0
128.06157	130.0
170.07248	128.0
123.04554	124.0
198.06645	121.0
179.08611	117.0
221.09503	116.0
135.04468	116.0
202.06157	113.0
202.09637	111.0
241.15993	111.0
147.04564	108.0
198.10504	108.0
197.06015	108.0
137.05867	105.0
230.13295	104.0
225.12675	103.0
174.0679	102.0
131.08609	102.0
200.08258	100.0
203.08473	100.0
193.10007	98.0
167.08421	97.0
211.07263	94.0
243.13202	94.0
93.06952	94.0
258.12207	93.0
214.09851	92.0
185.13252	91.0
85.06522	90.0
171.1163	89.0
159.04564	89.0
209.09946	88.0
152.06151	87.0
255.13792	83.0
212.08553	80.0
237.1629	79.0
107.08634	76.0
147.0789	76.0
273.16699	73.0
103.05481	72.0
133.06593	71.0
127.05499	70.0
157.08415	70.0
158.07138	69.0
250.13477	68.0
184.05603	67.0
193.1232	66.0
115.05136	64.0
183.12047	63.0
173.09755	63.0
172.08881	61.0
189.07242	60.0
165.0648	60.0
171.04585	60.0
245.09834	57.0
227.14153	57.0
242.12973	57.0
79.05282	57.0
217.0882	56.0
155.08359	56.0
254.13301	56.0
207.10593	55.0
226.1021	54.0
149.07634	53.0
215.07266	53.0
175.11223	52.0
191.07349	51.0
151.0752	51.0
190.06218	51.0
182.07364	50.0
211.14948	50.0
235.11008	49.0
154.08022	49.0
207.07915	48.0
222.10246	46.0
160.05263	46.0
105.07095	46.0
91.0548	46.0
117.07082	45.0
186.06918	45.0
272.14331	45.0
258.16296	44.0
268.14316	44.0
145.10202	44.0
218.1342	43.0
253.11763	43.0
212.11975	43.0
65.03871	43.0
319.18881	42.0
265.14294	42.0
259.10327	41.0
240.09798	41.0
257.1207	40.0
166.08054	40.0
178.07832	40.0
176.0453	39.0
226.09178	38.0
193.08781	37.0
57.07038	37.0
189.03606	36.0
300.19421	36.0
162.06743	35.0
144.05746	35.0
97.06472	35.0
163.04016	35.0
229.10002	34.0
230.34248	34.0
190.07974	34.0
224.11835	34.0
168.09471	34.0
204.07829	33.0
210.10902	33.0
143.06705	32.0
181.09702	30.0
196.08797	30.0
71.05037	30.0
218.09225	29.0
204.09508	27.0
197.13303	25.0
204.11746	24.0
165.05222	24.0
202.08803	22.0
93.06669	18.0
115.03876	13.0
111.06926	13.0

MSID: 9084
ID: 110
RETENTIONTIME: 21.30582
PRECURSORMZ: 347.1848
AREA: 1041830.3125
PRECURSORTYPE: [M+H]+
SMILES: [H][C@@]12CCC3=C(C(=O)C(O)=C(C(C)C)C3=O)[C@@]11CCC[C@]2(C)CO[C@H]1O
NAME: 7-dehydroxyconacytone
FORMULA: C20H26O5
INCHIKEY: RZFFOXODHLOLEI-MTBPISGOSA-N
CAS: 1492900-07-8
Molecular Weight: 346.423
Number of References: 1
Class: Abeoabietane diterpenoids
Superclass: Diterpenoids
Pathway: Terpenoids
ppm: -1.0500000000206455
CMID: CM243
IONMODE: Positive
COLLISIONENERGY: 40±20eV
INSTRUMENTTYPE: AB SCIEX
INSTRUMENT: Q-TOF
Comment:  
Num Peaks: 206
347.1853	853.0
299.16492	762.0
215.10558	553.0
281.15445	473.0
221.09929	329.0
223.11061	317.0
227.10745	314.0
263.14355	306.0
193.10268	288.0
197.09579	272.0
239.10486	263.0
195.07976	252.0
241.12482	250.0
157.06564	239.0
251.14557	232.0
199.1125	223.0
185.05913	212.0
165.06973	203.0
209.09367	186.0
283.17142	177.0
255.13622	175.0
167.08539	169.0
213.08928	167.0
269.15591	166.0
153.07033	153.0
237.12657	148.0
181.06396	146.0
257.11429	142.0
225.0899	135.0
229.12363	131.0
179.08601	128.0
129.06871	121.0
178.07692	118.0
257.15039	118.0
181.10088	116.0
203.10695	111.0
217.12271	111.0
141.06847	105.0
329.17267	104.0
211.07536	103.0
208.09079	101.0
238.10033	97.0
200.08385	96.0
169.06615	96.0
161.05774	95.0
265.15875	94.0
187.07507	92.0
195.11807	92.0
269.11899	91.0
233.09746	90.0
253.158	89.0
173.05881	88.0
259.13309	88.0
223.07697	87.0
245.15648	87.0
311.16107	86.0
185.09644	85.0
196.08786	85.0
205.10081	84.0
226.09901	83.0
211.11237	82.0
245.11815	82.0
253.12527	82.0
190.07964	81.0
203.06926	81.0
166.07919	81.0
248.11885	81.0
209.13191	79.0
159.0789	78.0
235.11145	78.0
231.13382	75.0
240.11453	75.0
199.07658	74.0
128.06372	73.0
152.06142	73.0
268.14783	72.0
301.17737	72.0
231.09956	71.0
143.08337	70.0
220.12318	70.0
182.07486	69.0
171.11621	68.0
271.16653	68.0
187.11258	67.0
251.10213	67.0
171.07779	67.0
180.09399	67.0
215.07111	67.0
235.14749	67.0
239.14272	66.0
230.10608	65.0
183.08194	65.0
201.09088	64.0
156.09135	63.0
222.10381	62.0
194.10838	61.0
169.10181	60.0
165.08987	60.0
142.07646	59.0
224.08597	59.0
243.10898	59.0
191.08421	58.0
217.08519	56.0
154.07649	56.0
197.05867	55.0
269.14468	54.0
215.0826	54.0
210.10323	54.0
273.1474	53.0
175.07196	53.0
243.13341	52.0
207.08044	52.0
193.09178	52.0
228.1122	51.0
159.04184	50.0
157.10124	49.0
189.08981	47.0
236.1217	47.0
193.06593	47.0
205.08958	47.0
267.13678	46.0
145.06419	46.0
207.11568	46.0
212.08684	45.0
179.07552	45.0
177.07069	44.0
131.0479	44.0
243.10287	43.0
198.06909	43.0
59.05163	42.0
194.07291	42.0
206.07257	42.0
155.08107	41.0
227.06908	41.0
271.13107	41.0
201.052	40.0
191.10858	40.0
266.12607	39.0
231.11298	39.0
229.08656	38.0
252.11502	38.0
183.11507	37.0
237.15825	36.0
170.07111	36.0
127.05712	36.0
268.10611	36.0
224.08157	35.0
168.09589	35.0
105.06989	35.0
83.04846	35.0
219.08401	34.0
287.13068	34.0
197.08342	33.0
184.0546	33.0
158.07129	33.0
273.18463	32.0
237.09038	32.0
205.06995	31.0
95.08714	31.0
141.06497	31.0
69.06982	31.0
176.0634	31.0
283.15988	30.0
213.12932	30.0
189.05481	30.0
147.04437	30.0
199.09869	29.0
207.11145	29.0
123.08025	29.0
223.14865	29.0
219.10576	28.0
149.05951	28.0
299.12766	26.0
281.12982	26.0
285.14594	26.0
247.16637	26.0
184.08383	26.0
115.04919	25.0
187.03891	25.0
204.08937	25.0
216.11513	25.0
247.14943	25.0
163.07384	25.0
145.10075	25.0
273.11179	25.0
259.17252	25.0
209.08092	24.0
231.08469	24.0
237.11601	24.0
174.06392	24.0
261.14398	24.0
275.16147	23.0
211.1451	23.0
255.10493	23.0
220.08395	22.0
233.15279	22.0
202.09766	22.0
131.08826	22.0
233.07204	20.0
85.02724	18.0
293.14627	17.0
57.06813	16.0
161.10249	13.0
109.85766	12.0
121.09881	12.0
53.03931	12.0

MSID: 9085
ID: 344
RETENTIONTIME: 31.44938
PRECURSORMZ: 301.1802
AREA: 1030439.75
PRECURSORTYPE: [M+H]+
SMILES: CC(C)C1=C\C(OC1=O)=C1/C(=O)C=C2[C@]1(C)CCCC2(C)C
NAME: salpratlactone A
FORMULA: C19H24O3
INCHIKEY: LSATWMACXSIBAO-VDUFWMCCSA-N
CAS: nan
Molecular Weight: 300.398
Number of References: 1
Class: Abietane diterpenoids
Superclass: Diterpenoids
Pathway: Terpenoids
ppm: -0.1700000000255386
CMID: CM243
IONMODE: Positive
COLLISIONENERGY: 40±20eV
INSTRUMENTTYPE: AB SCIEX
INSTRUMENT: Q-TOF
Comment:  
Num Peaks: 117
231.10103	842.0
301.17902	501.0
273.18622	358.0
283.17139	328.0
241.12175	211.0
203.10553	187.0
188.08376	162.0
231.13676	152.0
217.12413	145.0
185.09642	135.0
223.11058	132.0
301.17053	120.0
189.05612	111.0
165.06972	100.0
157.06563	99.0
69.07063	91.0
171.07904	89.0
161.05772	86.0
213.09212	86.0
173.06007	84.0
211.11092	82.0
259.13464	78.0
213.125	78.0
191.10585	77.0
201.09224	75.0
197.09576	74.0
245.11658	73.0
155.08592	73.0
199.07932	69.0
225.09282	66.0
129.07092	66.0
205.08536	66.0
165.09238	63.0
175.07323	63.0
195.11667	62.0
229.1236	54.0
181.06	53.0
219.10428	53.0
128.06259	53.0
199.1111	51.0
55.05526	51.0
180.09398	50.0
258.12189	50.0
240.1145	50.0
203.07063	49.0
253.15797	49.0
205.11902	48.0
243.13797	48.0
167.08662	48.0
187.0764	48.0
183.0806	46.0
145.06181	46.0
170.07109	44.0
143.04704	44.0
265.15872	44.0
215.10555	44.0
198.06631	44.0
141.07195	44.0
255.17844	43.0
185.05779	43.0
143.08804	41.0
225.12955	41.0
216.07767	41.0
169.06485	41.0
271.17136	40.0
131.049	40.0
160.08598	36.0
227.10742	36.0
189.0898	36.0
257.15195	35.0
157.09999	35.0
255.13618	35.0
153.07274	35.0
195.07974	35.0
163.07756	35.0
95.08234	33.0
301.21301	33.0
149.06189	33.0
159.0826	32.0
179.07156	32.0
187.11122	32.0
166.07916	31.0
197.05589	31.0
208.08936	31.0
239.13966	30.0
127.05379	30.0
71.04784	29.0
123.03894	29.0
233.11687	28.0
183.11638	27.0
301.13995	26.0
212.08253	26.0
144.05618	25.0
253.1268	25.0
169.10306	24.0
83.08326	24.0
214.13277	24.0
245.09665	24.0
233.04062	24.0
131.08376	24.0
207.07901	24.0
202.09903	23.0
171.11876	23.0
152.05899	23.0
178.0769	23.0
210.14153	23.0
147.08118	22.0
196.12624	22.0
230.12685	22.0
182.10655	22.0
283.14334	21.0
199.10005	21.0
229.08209	20.0
268.14456	20.0
271.1633	15.0
227.10152	13.0
141.05682	13.0

MSID: 9086
ID: 165
RETENTIONTIME: 27.27688
PRECURSORMZ: 331.0813
AREA: 990182.9375
PRECURSORTYPE: [M+H]+
SMILES: COC1=C(O)C=CC(=C1)C1=CC(=O)C2=C(O)C(OC)=C(O)C=C2O1
NAME: jaceosidin
FORMULA: C17H14O7
INCHIKEY: GLAAQZFBFGEBPS-UHFFFAOYSA-N
CAS: 18085-97-7
Molecular Weight: 330.294
Number of References: 130
Class: Flavones
Superclass: Flavonoids
Pathway: Shikimates and Phenylpropanoids
ppm: -0.4800000000386717
CMID: CM243
IONMODE: Positive
COLLISIONENERGY: 40±20eV
INSTRUMENTTYPE: AB SCIEX
INSTRUMENT: Q-TOF
Comment:  
Num Peaks: 83
313.07135	2202.0
253.05052	1418.0
331.08032	971.0
299.05655	908.0
153.01945	897.0
285.07654	896.0
148.98779	629.0
133.06474	477.0
255.06586	368.0
169.0649	367.0
135.04463	334.0
53.00223	268.0
271.06177	219.0
125.02411	167.0
181.01523	155.0
197.05733	152.0
225.05467	125.0
69.03321	118.0
123.00964	97.0
166.99806	89.0
118.04134	83.0
68.99903	80.0
77.03858	70.0
287.09253	66.0
272.06888	65.0
137.02193	63.0
214.06259	61.0
126.04792	58.0
154.04369	56.0
281.0412	51.0
253.02716	51.0
242.05496	50.0
270.05008	49.0
177.05638	47.0
139.00435	45.0
59.01175	45.0
90.04731	43.0
107.04779	41.0
103.05278	41.0
215.10561	40.0
267.06479	39.0
168.05782	38.0
171.08165	38.0
109.0298	37.0
243.07237	35.0
80.99689	34.0
92.02366	34.0
79.0554	34.0
239.07158	33.0
145.06303	33.0
300.06854	32.0
272.05756	31.0
199.07523	31.0
159.04187	31.0
105.0709	31.0
238.02783	31.0
227.06911	29.0
283.06104	28.0
253.01314	28.0
257.08292	27.0
255.05492	26.0
53.0386	26.0
143.04825	25.0
92.99863	24.0
125.01535	24.0
183.07799	24.0
174.06912	23.0
331.05002	23.0
95.01266	22.0
185.04984	22.0
85.03086	22.0
216.07773	21.0
231.09961	21.0
285.03354	20.0
187.07376	20.0
196.07828	19.0
102.04413	13.0
116.06096	13.0
122.98901	13.0
77.0446	12.0
89.03714	12.0
57.03854	12.0
55.05236	12.0

MSID: 9087
ID: 356
RETENTIONTIME: 31.60367
PRECURSORMZ: 301.1801
AREA: 987078.25
PRECURSORTYPE: [M+H]+
SMILES: CC(C)C1=C\C(OC1=O)=C1\C(=O)C=C2[C@]1(C)CCCC2(C)C
NAME: salpratlactone B
FORMULA: C19H24O3
INCHIKEY: LSATWMACXSIBAO-IDCODDLRSA-N
CAS: nan
Molecular Weight: 300.398
Number of References: 1
Class: Abietane diterpenoids
Superclass: Diterpenoids
Pathway: Terpenoids
ppm: -0.27000000005728
CMID: CM243
IONMODE: Positive
COLLISIONENERGY: 40±20eV
INSTRUMENTTYPE: AB SCIEX
INSTRUMENT: Q-TOF
Comment:  
Num Peaks: 115
301.1788	4286.0
259.13287	783.0
165.09099	653.0
217.12253	456.0
231.10086	338.0
189.05734	316.0
259.16913	260.0
233.11969	237.0
157.06429	235.0
161.06134	206.0
123.04429	204.0
223.11189	170.0
69.07139	163.0
283.17117	158.0
128.0625	151.0
203.0705	147.0
175.0744	147.0
245.121	145.0
107.0872	144.0
199.11235	143.0
215.10828	136.0
137.05847	132.0
201.09349	117.0
91.05467	115.0
241.12462	114.0
171.08148	108.0
179.10945	107.0
129.0686	105.0
55.05376	102.0
143.08676	101.0
195.1179	94.0
95.08514	94.0
165.0696	93.0
191.07051	92.0
199.07642	85.0
179.08586	81.0
145.06525	81.0
173.05995	80.0
141.07068	78.0
143.04927	77.0
174.06766	76.0
208.0892	76.0
185.05898	73.0
180.09253	73.0
216.07608	72.0
181.06514	71.0
265.15851	71.0
171.11479	71.0
183.08046	71.0
189.091	65.0
163.07745	63.0
131.05003	63.0
142.07634	63.0
225.09265	62.0
150.06909	58.0
153.06898	57.0
115.05435	57.0
152.06371	57.0
273.18765	56.0
231.13362	53.0
167.08525	53.0
163.03868	53.0
160.05489	53.0
258.12485	52.0
67.05308	52.0
147.04663	50.0
213.12628	49.0
166.07779	49.0
178.07939	47.0
187.07626	47.0
188.08363	47.0
198.06892	46.0
213.0891	45.0
243.14391	44.0
197.09563	44.0
181.0994	41.0
57.03257	40.0
79.05184	40.0
255.17198	39.0
211.07803	39.0
105.06779	39.0
149.06297	38.0
240.10977	37.0
232.11142	37.0
169.06599	36.0
133.06575	35.0
227.10579	35.0
194.07138	34.0
177.05229	34.0
205.08942	34.0
202.06268	34.0
209.09633	34.0
131.08479	34.0
177.09009	32.0
81.07262	31.0
170.07225	31.0
184.08501	29.0
212.0838	29.0
83.08588	27.0
219.10268	27.0
127.0526	26.0
195.08234	26.0
103.05466	26.0
135.04449	25.0
204.08501	25.0
218.0963	25.0
168.05638	25.0
157.10602	25.0
207.09718	24.0
155.07971	24.0
117.07066	24.0
253.12195	23.0
222.108	23.0
273.16983	13.0
78.04582	12.0

MSID: 9088
ID: 130
RETENTIONTIME: 23.16192
PRECURSORMZ: 313.1438
AREA: 983741.625
PRECURSORTYPE: [M+H]+
SMILES: C[C@H]1COC2=C1C(=O)OC(=O)C1=C2C=CC2=C1CCCC2(C)C
NAME: (R)-4,9,9-trimethyl-4,5,9,10,11,12-hexahydrofuro[3,2-c]naphtho[2,1-e]oxepine-1,3-dione
FORMULA: C19H20O4
INCHIKEY: ROYYPPPACDMYJY-JTQLQIEISA-N
CAS: 1426129-68-1
Molecular Weight: 312.365
Number of References: 2
Class: Simple coumarins
Superclass: Coumarins
Pathway: Polyketides
ppm: -0.18500000004451067
CMID: CM243
IONMODE: Positive
COLLISIONENERGY: 40±20eV
INSTRUMENTTYPE: AB SCIEX
INSTRUMENT: Q-TOF
Comment:  
Num Peaks: 102
269.15442	3621.0
171.08041	1109.0
253.08487	771.0
313.14423	547.0
199.07666	378.0
143.08577	361.0
128.06155	347.0
267.13849	312.0
238.06567	284.0
169.06366	269.0
141.06969	255.0
223.03902	231.0
239.10799	214.0
254.12674	179.0
181.10226	147.0
165.06981	136.0
153.07039	120.0
169.10187	117.0
157.10254	114.0
209.09375	110.0
179.08476	110.0
155.08479	109.0
142.07886	108.0
210.06783	103.0
193.10411	98.0
223.14874	95.0
167.08418	92.0
197.05875	91.0
178.07831	91.0
285.15103	89.0
237.08897	86.0
208.12195	86.0
152.06148	81.0
166.07674	80.0
191.08429	69.0
127.05386	67.0
183.11647	64.0
69.06985	64.0
206.1078	63.0
197.09587	62.0
225.08852	61.0
211.11244	61.0
196.12497	61.0
229.08517	56.0
195.11542	56.0
182.07097	52.0
185.09918	52.0
236.1218	51.0
224.11978	50.0
285.14771	48.0
156.05472	45.0
181.06273	45.0
156.06328	45.0
241.1599	44.0
180.09276	44.0
223.11801	40.0
154.07169	38.0
253.12849	38.0
267.1145	37.0
187.07515	37.0
205.10089	36.0
169.0522	36.0
127.04724	36.0
215.06831	35.0
193.0905	35.0
219.08121	34.0
221.09792	33.0
195.04428	32.0
139.05521	32.0
157.09641	32.0
269.11746	32.0
192.09424	32.0
251.13637	31.0
168.09341	31.0
239.14584	31.0
226.13741	31.0
115.05344	30.0
151.05231	30.0
207.11436	30.0
187.10999	29.0
168.08707	29.0
171.06248	29.0
178.06915	29.0
234.10497	28.0
183.07803	28.0
227.14592	28.0
221.13432	28.0
128.04936	28.0
225.0562	28.0
249.132	27.0
252.10423	26.0
129.06209	26.0
159.0802	26.0
251.10533	24.0
196.09204	23.0
171.04454	23.0
277.12274	21.0
83.05028	19.0
189.06834	13.0
285.10803	13.0
107.08936	12.0
65.03791	12.0

MSID: 9089
ID: 160
RETENTIONTIME: 27.26443
PRECURSORMZ: 337.0677
AREA: 980592.0
PRECURSORTYPE: [M+Na]+
SMILES: COC1=CC(O)=C2C(=O)C=C(OC2=C1)C1=CC(OC)=C(O)C=C1
NAME: velutin
FORMULA: C17H14O6
INCHIKEY: ROCUOVBWAWAQFD-UHFFFAOYSA-N
CAS: 25739-41-7
Molecular Weight: 314.295
Number of References: 94
Class: Flavones
Superclass: Flavonoids
Pathway: Shikimates and Phenylpropanoids
ppm: -1.1100000000396903
CMID: CM243
IONMODE: Positive
COLLISIONENERGY: 40±20eV
INSTRUMENTTYPE: AB SCIEX
INSTRUMENT: Q-TOF
Comment:  
Num Peaks: 3
337.0676	578.0
337.04782	38.0
337.02805	22.0

MSID: 9090
ID: 255
RETENTIONTIME: 29.73287
PRECURSORMZ: 289.1799
AREA: 963711.1875
PRECURSORTYPE: [M+H]+
SMILES: [H][C@@]12C[C@@]3([H])C(C)(C)CCC[C@]3(CO1)C1=CC(=O)C(C)=C[C@]21O
NAME: normiltioane B
FORMULA: C18H24O3
INCHIKEY: MIQYKENQAGSZSZ-OXXUSNJHSA-N
CAS: nan
Molecular Weight: 288.387
Number of References: 1
Class: Podocarpane diterpenoids
Superclass: Diterpenoids
Pathway: Terpenoids
ppm: -0.4700000000639193
CMID: CM243
IONMODE: Positive
COLLISIONENERGY: 40±20eV
INSTRUMENTTYPE: AB SCIEX
INSTRUMENT: Q-TOF
Comment:  
Num Peaks: 53
289.18033	191.0
91.05655	64.0
55.05449	64.0
105.0698	54.0
271.17117	51.0
161.09615	49.0
145.06407	46.0
81.06822	42.0
67.05548	42.0
119.08526	42.0
79.05446	39.0
261.18491	36.0
159.08372	35.0
83.04929	34.0
173.09474	33.0
109.06652	32.0
163.11247	31.0
117.06855	31.0
133.09966	31.0
179.10553	31.0
233.15111	31.0
93.06845	31.0
107.0487	30.0
77.03851	30.0
141.06952	29.0
243.17751	29.0
147.0787	29.0
175.112	26.0
135.08319	26.0
121.10087	24.0
128.06473	24.0
169.10167	24.0
145.09828	24.0
95.08514	23.0
177.08749	23.0
65.03941	22.0
131.04892	22.0
121.06853	22.0
151.075	22.0
57.03331	21.0
289.12204	21.0
155.08582	20.0
95.04981	20.0
144.05492	19.0
115.0554	18.0
99.04298	15.0
215.13988	13.0
233.14214	13.0
141.06602	13.0
59.05008	12.0
83.08588	12.0
77.04281	12.0
272.09607	12.0

MSID: 9091
ID: 408
RETENTIONTIME: 32.7642
PRECURSORMZ: 301.2159
AREA: 955926.0
PRECURSORTYPE: [M+H]+
SMILES: [H][C@@]12CCC3=C(C=C(O)C(=C3)C(C)C)[C@]1(CCCC2(C)C)C=O
NAME: pisiferal
FORMULA: C20H28O2
INCHIKEY: YPWYNONCSGZEQQ-ICSRJNTNSA-N
CAS: 24035-37-8
Molecular Weight: 300.441
Number of References: 12
Class: Abietane diterpenoids
Superclass: Diterpenoids
Pathway: Terpenoids
ppm: -0.8550000000582259
CMID: CM243
IONMODE: Positive
COLLISIONENERGY: 40±20eV
INSTRUMENTTYPE: AB SCIEX
INSTRUMENT: Q-TOF
Comment:  
Num Peaks: 120
301.21631	10854.0
163.075	991.0
259.17078	959.0
213.1292	710.0
171.08025	704.0
185.09634	401.0
205.12173	400.0
55.05305	250.0
157.06433	238.0
173.09607	215.0
123.11604	196.0
147.08231	190.0
145.06647	190.0
159.08005	188.0
199.10963	183.0
241.15814	178.0
69.06979	164.0
198.10483	152.0
161.09868	146.0
141.07071	138.0
203.10823	123.0
127.05484	118.0
227.1398	114.0
161.06262	107.0
81.07001	105.0
189.09106	103.0
83.08411	101.0
215.14281	100.0
231.10242	97.0
107.04974	97.0
187.11115	96.0
128.06143	94.0
133.06352	90.0
189.12743	89.0
169.06604	86.0
170.07101	83.0
175.07185	79.0
152.06134	78.0
201.12827	71.0
171.06616	71.0
95.08517	71.0
183.08183	70.0
191.10712	70.0
143.08563	69.0
172.09119	69.0
167.08656	68.0
283.20422	66.0
165.06587	65.0
121.02762	64.0
271.168	64.0
153.06903	63.0
157.10239	62.0
117.06752	58.0
155.08586	58.0
215.10689	57.0
105.06982	57.0
301.1806	57.0
180.0939	57.0
197.09569	56.0
184.08638	56.0
215.1385	55.0
217.12259	55.0
149.09531	52.0
225.12505	50.0
163.11377	47.0
173.05742	46.0
283.17126	46.0
188.08502	45.0
158.07367	43.0
159.07387	42.0
245.15327	40.0
121.06641	40.0
181.10208	40.0
91.05283	39.0
135.07867	39.0
179.08591	39.0
144.05847	39.0
166.07657	37.0
211.10941	35.0
119.08529	34.0
129.07309	34.0
145.10185	33.0
223.15144	33.0
219.13463	33.0
131.0882	33.0
174.06641	32.0
147.04549	32.0
132.05769	31.0
148.05075	31.0
154.07884	31.0
162.0685	31.0
185.08435	30.0
57.07327	30.0
259.1377	29.0
283.19598	29.0
109.1003	28.0
198.0938	28.0
273.17963	28.0
201.09216	27.0
193.10257	27.0
190.09573	26.0
142.0799	26.0
195.11797	26.0
93.06942	25.0
240.15082	25.0
213.0863	25.0
55.01745	25.0
77.03681	24.0
186.10104	24.0
177.09013	24.0
127.04491	24.0
203.14732	23.0
163.05122	23.0
115.05019	23.0
265.16177	22.0
204.11304	22.0
254.1624	17.0
77.04025	16.0
116.06088	13.0
65.03943	12.0

MSID: 9092
ID: 518
RETENTIONTIME: 36.50688
PRECURSORMZ: 327.1596
AREA: 955905.0625
PRECURSORTYPE: [M+H]+
SMILES: COC1=CC(C)=C2CCC3=C(CC2=C1)C(=O)C(O)=C(C(C)C)C3=O
NAME: 7,20-dihydrofruticuline A
FORMULA: C20H22O4
INCHIKEY: LDVRCIZCIOWBNQ-UHFFFAOYSA-N
CAS: 106664-43-1
Molecular Weight: 326.392
Number of References: 4
Class: Icetexane diterpenoids
Superclass: Diterpenoids
Pathway: Terpenoids
ppm: -0.03500000002532033
CMID: CM243
IONMODE: Positive
COLLISIONENERGY: 40±20eV
INSTRUMENTTYPE: AB SCIEX
INSTRUMENT: Q-TOF
Comment:  
Num Peaks: 98
137.05946	3742.0
163.076	1247.0
133.06447	853.0
103.05355	512.0
131.04764	476.0
151.07481	469.0
327.15829	387.0
295.13275	341.0
135.07962	333.0
122.03371	307.0
105.06866	258.0
145.06508	235.0
94.04026	205.0
121.06516	186.0
175.07549	175.0
157.06288	175.0
91.0527	160.0
263.10489	142.0
77.03756	130.0
235.11249	113.0
127.05466	106.0
79.05436	95.0
189.09213	92.0
187.07336	88.0
107.04857	84.0
171.08	80.0
81.06989	78.0
203.10933	76.0
202.07915	73.0
117.06841	73.0
129.07068	70.0
109.06434	70.0
115.05421	69.0
128.06123	67.0
149.0592	66.0
177.09119	66.0
136.05003	65.0
245.09465	62.0
143.04677	62.0
220.08641	59.0
66.0463	58.0
123.08108	53.0
163.06099	49.0
207.08144	49.0
160.05347	48.0
248.08749	46.0
219.07777	44.0
55.01955	43.0
191.08517	43.0
147.0809	42.0
217.10207	42.0
327.14944	40.0
108.05614	39.0
131.09135	38.0
194.07251	38.0
179.08565	38.0
144.05591	38.0
137.04112	37.0
133.0509	37.0
65.04012	35.0
295.11255	34.0
178.07526	34.0
161.06114	34.0
172.05238	33.0
247.07811	32.0
151.06758	32.0
132.05862	32.0
95.08694	31.0
107.04553	31.0
188.08475	31.0
195.08073	28.0
239.10588	25.0
174.06487	25.0
201.06964	25.0
215.07928	25.0
235.07944	24.0
165.08954	24.0
67.0546	24.0
312.13214	24.0
93.06928	24.0
183.08157	24.0
119.0445	24.0
233.09698	24.0
153.0676	23.0
197.09264	23.0
162.0695	23.0
135.06482	22.0
120.05753	21.0
98.98147	21.0
192.09105	20.0
141.06702	20.0
295.09573	20.0
327.08566	20.0
169.06198	18.0
79.04913	18.0
273.19055	12.0
59.0485	12.0
51.02656	12.0

MSID: 9093
ID: 264
RETENTIONTIME: 29.838
PRECURSORMZ: 297.1481
AREA: 952839.8125
PRECURSORTYPE: [M+H]+
SMILES: CC1CC2=C(O1)C1=C(C(=O)C2=O)C2=C(C=C1)C(C)(C)CCC2
NAME: cryptotanshinone
FORMULA: C19H20O3
INCHIKEY: CAHVBEASHABWEV-UHFFFAOYSA-N
CAS: nan
Molecular Weight: 296.366
Number of References: 7
Class: Naphthoquinones
Superclass: Naphthalenes
Pathway: Polyketides
ppm: -0.9700000000520959
CMID: CM243
IONMODE: Positive
COLLISIONENERGY: 40±20eV
INSTRUMENTTYPE: AB SCIEX
INSTRUMENT: Q-TOF
Comment:  
Num Peaks: 107
297.14856	566.0
237.08997	381.0
209.09755	240.0
261.09445	221.0
205.10045	205.0
279.13931	199.0
233.09555	193.0
165.07071	185.0
279.10004	161.0
190.0766	157.0
221.09306	116.0
166.08015	115.0
194.07257	111.0
193.10098	110.0
211.07642	108.0
189.07063	107.0
249.09128	106.0
181.10187	104.0
178.08054	100.0
282.12204	99.0
236.11978	99.0
239.10898	97.0
264.1131	96.0
269.15225	92.0
254.09184	88.0
255.10292	87.0
251.14359	86.0
222.06839	78.0
169.06203	77.0
251.10634	75.0
203.08287	73.0
227.07014	71.0
141.07288	67.0
197.06107	67.0
227.10558	66.0
246.10619	65.0
179.08438	63.0
261.12769	62.0
202.07642	60.0
153.07005	57.0
208.089	56.0
152.06116	53.0
224.08411	51.0
269.1185	50.0
181.06628	49.0
239.06961	48.0
197.08995	48.0
236.08667	47.0
167.08383	47.0
297.10806	46.0
221.05957	46.0
218.07005	45.0
183.08427	44.0
191.08388	43.0
231.0798	43.0
199.07484	40.0
235.07651	40.0
115.0553	38.0
192.09517	38.0
261.11343	37.0
240.07768	36.0
297.17728	36.0
206.06799	35.0
155.0881	35.0
211.11342	35.0
180.09369	35.0
207.0815	34.0
225.08951	34.0
205.06538	32.0
238.0984	32.0
195.08078	32.0
223.11021	31.0
185.05614	31.0
241.12439	31.0
218.06427	30.0
234.064	30.0
227.09082	30.0
223.07657	28.0
246.06317	27.0
182.07321	26.0
212.08218	26.0
169.05183	25.0
215.08078	25.0
225.05865	25.0
193.06422	25.0
217.09491	24.0
267.10751	24.0
232.08585	24.0
223.14532	24.0
249.0789	23.0
55.05444	23.0
245.09319	23.0
178.06615	22.0
226.09273	22.0
204.08762	21.0
219.07494	21.0
199.10802	20.0
253.08276	20.0
171.0762	20.0
222.05963	20.0
269.11047	19.0
261.05646	18.0
231.07385	14.0
243.09328	13.0
297.08441	13.0
127.05248	13.0
93.06836	12.0

MSID: 9094
ID: 212
RETENTIONTIME: 28.58622
PRECURSORMZ: 273.1855
AREA: 949558.75
PRECURSORTYPE: [M+H]+
SMILES: CC1=CC2=C(C=C1O)[C@@]13CCCC(C)(C)C1C[C@@H]2OC3
NAME: Norsalvioxide
FORMULA: C18H24O2
INCHIKEY: RHXIVZRYHFCBDN-SPQDMEGHSA-N
CAS: 119400-87-2
Molecular Weight: 272.387
Number of References: 1
Class: Podocarpane diterpenoids
Superclass: Diterpenoids
Pathway: Terpenoids
ppm: 0.04499999994322934
CMID: CM243
IONMODE: Positive
COLLISIONENERGY: 40±20eV
INSTRUMENTTYPE: AB SCIEX
INSTRUMENT: Q-TOF
Comment:  
Num Peaks: 57
273.18436	445.0
217.12393	251.0
231.13657	158.0
203.10535	130.0
175.07697	127.0
157.06303	120.0
128.06137	111.0
171.08145	93.0
213.1291	89.0
69.06894	80.0
129.0697	75.0
161.06007	64.0
189.09097	63.0
163.07617	63.0
165.08846	61.0
188.08224	59.0
145.06404	57.0
191.10568	51.0
179.1068	50.0
141.07065	49.0
143.0844	42.0
131.04889	42.0
205.11884	39.0
202.09885	37.0
143.04691	37.0
127.05479	37.0
149.05817	36.0
169.10036	35.0
197.09422	35.0
185.09225	35.0
255.17351	33.0
173.05862	32.0
115.05223	32.0
199.11508	32.0
198.1006	29.0
155.08823	29.0
137.05846	28.0
215.1068	28.0
159.07997	28.0
123.04644	26.0
211.1093	25.0
187.07489	25.0
55.05303	24.0
103.05366	20.0
159.07628	19.0
191.09891	19.0
165.06706	19.0
127.05258	18.0
195.1165	13.0
133.06798	13.0
147.04185	13.0
183.0632	13.0
227.15741	13.0
167.07635	13.0
57.06807	12.0
83.08855	12.0
81.06556	12.0

MSID: 9095
ID: 539
RETENTIONTIME: 37.0794
PRECURSORMZ: 327.1579
AREA: 934669.8125
PRECURSORTYPE: [M+H]+
SMILES: CC(C)C1=CC2=C(C(=O)C1=O)C(C(=O)\C=C\C(C)(C)O)=C(C)C=C2
NAME: 10-(4-hydroxy-4-methylpent-2-enoyl)-13-isopropyl-5-methyl-[1,2]naphthoquinone
FORMULA: C20H22O4
INCHIKEY: QRIJFKANMJMVFQ-CMDGGOBGSA-N
CAS: nan
Molecular Weight: 326.392
Number of References: 2
Class: Secoabietane diterpenoids
Superclass: Diterpenoids
Pathway: Terpenoids
ppm: -1.7350000000533328
CMID: CM243
IONMODE: Positive
COLLISIONENERGY: 40±20eV
INSTRUMENTTYPE: AB SCIEX
INSTRUMENT: Q-TOF
Comment:  
Num Peaks: 125
137.05951	5517.0
151.07486	1095.0
133.06563	1050.0
163.0748	1032.0
145.0663	639.0
122.03591	610.0
103.05458	552.0
295.13452	502.0
327.16193	428.0
131.04991	427.0
175.07555	388.0
121.06627	366.0
94.04029	344.0
263.10657	337.0
127.05359	325.0
157.06415	321.0
91.0546	256.0
105.07071	247.0
107.04961	238.0
115.05425	222.0
245.09779	210.0
187.07341	201.0
117.07056	191.0
79.05525	184.0
109.0654	183.0
77.03758	176.0
171.08133	161.0
128.06128	156.0
143.04797	156.0
235.11255	143.0
160.05228	137.0
202.07921	134.0
189.09488	133.0
220.08939	129.0
174.0688	126.0
219.08073	121.0
81.06903	119.0
66.04473	118.0
144.05949	113.0
135.07965	109.0
136.05122	103.0
177.09515	101.0
129.06961	101.0
137.04918	100.0
161.05872	94.0
217.10646	91.0
123.08221	91.0
108.05719	86.0
248.08295	86.0
172.05373	85.0
77.03586	79.0
215.08366	78.0
165.06946	69.0
159.04405	65.0
178.07793	65.0
203.1066	64.0
231.08429	63.0
247.0751	63.0
207.07869	62.0
179.0844	60.0
194.07394	59.0
119.04774	57.0
131.0387	56.0
65.03856	55.0
192.09383	55.0
152.06236	55.0
191.08253	54.0
265.0881	53.0
233.09407	53.0
55.01739	52.0
173.0585	52.0
132.05641	49.0
207.11955	49.0
261.08972	49.0
221.09744	49.0
149.05925	46.0
280.10724	45.0
143.08429	45.0
145.05333	42.0
195.08217	40.0
133.05434	39.0
312.13568	39.0
190.07796	39.0
93.06742	38.0
205.10326	38.0
159.07986	37.0
227.08788	36.0
131.02974	35.0
235.07352	35.0
175.06	35.0
135.04324	35.0
169.06203	35.0
153.06885	35.0
267.10272	34.0
181.06366	34.0
203.08707	33.0
218.07152	33.0
264.1163	33.0
147.0845	32.0
176.0826	32.0
182.0719	31.0
189.07063	30.0
95.08697	30.0
147.04413	28.0
53.03779	28.0
162.06955	27.0
295.0975	27.0
188.07675	27.0
232.09183	26.0
67.05302	26.0
235.09453	25.0
141.07172	25.0
267.14594	24.0
51.02098	24.0
186.06342	24.0
240.08073	24.0
167.08763	23.0
129.06071	23.0
325.15085	23.0
81.032	23.0
237.09148	22.0
120.05972	22.0
312.11319	13.0
91.47282	12.0
57.06877	12.0

MSID: 9096
ID: 116
RETENTIONTIME: 22.54242
PRECURSORMZ: 335.184
AREA: 934193.5625
PRECURSORTYPE: [M+H]+
SMILES: CC(C)C1=CC(C(O)=O)=C2C(O[C@@]3(O)[C@]2(C)CCCC3(C)C)=C1O
NAME: salvicanaric acid
FORMULA: C19H26O5
INCHIKEY: KLOJCXCHQBUABA-RTBURBONSA-N
CAS: nan
Molecular Weight: 334.412
Number of References: 2
Class: Secoabietane diterpenoids
Superclass: Diterpenoids
Pathway: Terpenoids
ppm: -1.8499999999903594
CMID: CM243
IONMODE: Positive
COLLISIONENERGY: 40±20eV
INSTRUMENTTYPE: AB SCIEX
INSTRUMENT: Q-TOF
Comment:  
Num Peaks: 150
317.17612	745.0
271.16818	656.0
229.12366	562.0
215.10704	469.0
211.1124	415.0
299.16327	375.0
217.08665	318.0
173.06012	220.0
241.12181	217.0
253.15959	200.0
183.11642	159.0
335.18817	150.0
257.11746	140.0
145.06421	132.0
187.07645	131.0
239.10793	125.0
165.08989	120.0
281.15286	119.0
195.08116	119.0
213.09074	118.0
228.11519	113.0
205.12328	113.0
153.06914	104.0
243.10138	103.0
189.09119	101.0
203.10558	100.0
209.09653	95.0
171.08165	93.0
205.08681	89.0
175.07587	89.0
231.10109	88.0
197.09583	87.0
147.04558	81.0
131.04904	80.0
289.18228	80.0
196.08788	77.0
227.10896	74.0
193.10135	71.0
238.09583	69.0
143.05058	68.0
161.06026	67.0
193.09045	67.0
85.06428	66.0
231.13683	66.0
169.0649	66.0
181.064	66.0
233.11992	63.0
163.0726	62.0
123.04223	62.0
259.1347	62.0
149.05952	61.0
128.06262	61.0
201.09508	58.0
169.09927	58.0
155.08719	58.0
223.11357	57.0
177.05507	57.0
167.08414	57.0
221.09785	56.0
207.10443	55.0
199.07799	55.0
219.10144	54.0
141.07082	54.0
241.08682	52.0
217.12274	51.0
200.08388	51.0
202.06566	50.0
159.07892	50.0
181.05872	49.0
182.07489	48.0
223.07407	48.0
189.05887	48.0
210.10326	48.0
69.06983	47.0
224.08307	46.0
55.05309	46.0
225.16194	46.0
174.06525	45.0
177.09157	45.0
247.13254	44.0
143.08221	43.0
287.16391	43.0
81.03303	42.0
197.05733	41.0
178.07825	41.0
228.1078	40.0
154.07651	40.0
137.05975	40.0
209.07954	39.0
243.13498	38.0
214.09842	38.0
203.07208	38.0
142.07649	36.0
81.07094	36.0
168.0921	36.0
179.10307	36.0
269.15274	36.0
157.06689	35.0
187.11261	35.0
185.05783	35.0
91.05476	34.0
183.07932	34.0
179.0834	34.0
157.10127	34.0
107.08427	33.0
219.14348	33.0
299.1514	33.0
194.07156	33.0
227.07059	32.0
95.08428	32.0
163.03883	32.0
238.13663	31.0
213.12935	31.0
59.04938	31.0
173.09619	30.0
247.09404	30.0
185.0938	29.0
263.14676	28.0
243.17316	28.0
255.13939	28.0
165.05969	27.0
235.14603	26.0
151.05467	25.0
201.12979	25.0
299.13446	25.0
216.11516	25.0
57.07183	25.0
271.13272	24.0
213.05357	24.0
207.06779	24.0
115.05236	24.0
187.03894	24.0
239.09883	24.0
166.08047	24.0
266.13251	23.0
109.10038	22.0
85.06157	21.0
273.14581	21.0
159.04311	21.0
188.08247	21.0
172.09001	21.0
249.11185	20.0
335.15051	20.0
119.08751	20.0
127.04831	13.0
265.11731	13.0
115.05132	13.0
65.03947	12.0
71.21471	12.0
53.03931	12.0

MSID: 9097
ID: 271
RETENTIONTIME: 30.09008
PRECURSORMZ: 299.1643
AREA: 933872.8125
PRECURSORTYPE: [M+H]+
SMILES: CC(C)C1=C(O)C(=O)C2=C(C=CC3=C2CCCC3(C)C)C1=O
NAME: deoxyneocryptotanshinone
FORMULA: C19H22O3
INCHIKEY: BIDSIGUBHQOWEC-UHFFFAOYSA-N
CAS: 27468-20-8
Molecular Weight: 298.382
Number of References: 13
Class: Abietane diterpenoids
Superclass: Diterpenoids
Pathway: Terpenoids
ppm: -0.4200000000196269
CMID: CM243
IONMODE: Positive
COLLISIONENERGY: 40±20eV
INSTRUMENTTYPE: AB SCIEX
INSTRUMENT: Q-TOF
Comment:  
Num Peaks: 128
281.15262	3944.0
253.15938	1862.0
211.11221	898.0
193.10254	880.0
221.09767	775.0
223.11046	706.0
178.07811	605.0
205.10207	591.0
239.10771	548.0
238.13341	517.0
165.06963	485.0
238.10016	449.0
195.11794	418.0
195.08237	404.0
266.13068	359.0
181.06516	332.0
210.13998	320.0
167.08653	310.0
196.09045	309.0
141.06953	295.0
209.09494	293.0
210.10307	278.0
233.0943	278.0
183.11627	277.0
181.10205	276.0
153.07022	262.0
225.16469	261.0
299.1647	230.0
235.14734	229.0
189.06949	224.0
211.14636	223.0
190.07814	217.0
152.06131	213.0
166.07655	211.0
263.14178	205.0
169.10168	201.0
179.08456	199.0
220.12448	193.0
223.07681	190.0
215.08531	168.0
155.08217	165.0
168.09576	164.0
197.09428	163.0
180.09125	158.0
196.12337	158.0
191.08543	156.0
206.07382	151.0
208.08781	149.0
182.07341	139.0
248.11868	138.0
251.10815	136.0
169.06348	133.0
129.06973	132.0
182.11041	127.0
177.06926	125.0
257.11725	122.0
218.07318	118.0
224.11659	117.0
222.1051	115.0
205.0656	114.0
192.08995	112.0
197.05853	104.0
154.07639	104.0
171.11609	103.0
230.10889	101.0
229.0864	98.0
224.08728	97.0
203.08447	96.0
243.09964	92.0
226.10181	91.0
225.09268	91.0
207.08171	89.0
209.13318	88.0
142.0752	86.0
151.05334	84.0
194.07413	81.0
220.0867	80.0
183.08049	77.0
128.06363	77.0
157.10114	75.0
237.09021	72.0
202.07663	71.0
211.13356	71.0
169.09531	66.0
156.09247	64.0
235.10829	63.0
211.07806	62.0
176.06328	61.0
143.08444	61.0
219.08241	59.0
215.10542	58.0
210.13289	57.0
145.06763	56.0
187.03877	56.0
157.06186	53.0
253.12198	52.0
173.06255	52.0
263.13223	51.0
241.0851	50.0
185.09764	50.0
127.05482	49.0
201.05046	49.0
206.10757	49.0
204.09622	46.0
256.11316	44.0
237.12489	44.0
207.11836	43.0
131.04892	41.0
247.11693	41.0
210.06616	39.0
281.13126	37.0
187.08031	36.0
227.1058	35.0
251.14229	35.0
266.10989	35.0
198.06895	33.0
139.05736	31.0
209.05954	31.0
213.05054	30.0
185.06166	30.0
180.08467	29.0
171.08278	29.0
55.05377	27.0
194.06322	26.0
83.05019	24.0
187.11246	23.0
229.07454	23.0
222.06862	22.0

MSID: 9098
ID: 135
RETENTIONTIME: 24.05078
PRECURSORMZ: 349.2008
AREA: 922839.0
PRECURSORTYPE: [M+H]+
SMILES: [H][C@@]12CCC3=C(C(O)=C(O)C(=C3)C(C)CO)[C@]1(CCCC2(C)C)C(O)=O
NAME: 16-hydroxycarnosic acid
FORMULA: C20H28O5
INCHIKEY: GUNGXQJKXNQLMP-QTFOPDDFSA-N
CAS: 128286-67-9
Molecular Weight: 348.439
Number of References: 3
Class: Abietane diterpenoids
Superclass: Diterpenoids
Pathway: Terpenoids
ppm: -0.6999999999948159
CMID: CM243
IONMODE: Positive
COLLISIONENERGY: 40±20eV
INSTRUMENTTYPE: AB SCIEX
INSTRUMENT: Q-TOF
Comment:  
Num Peaks: 156
349.20102	2140.0
231.10251	674.0
165.09111	521.0
313.17871	426.0
257.11737	378.0
271.16812	357.0
229.12358	263.0
189.05612	218.0
197.05864	186.0
205.08815	177.0
271.13586	168.0
161.05896	155.0
179.06894	149.0
219.10428	146.0
215.07108	142.0
173.06136	137.0
215.10698	137.0
187.07504	135.0
273.14899	133.0
331.18893	130.0
169.06483	128.0
275.1257	119.0
95.08521	119.0
207.10156	116.0
245.11964	105.0
131.05124	104.0
203.10971	100.0
211.1109	98.0
243.10283	92.0
201.09085	91.0
253.119	83.0
157.06685	82.0
185.06044	80.0
285.1889	80.0
295.172	80.0
141.06728	79.0
243.13795	79.0
227.10741	78.0
289.14056	77.0
211.07391	75.0
217.12268	75.0
216.0791	74.0
159.04553	72.0
214.06253	71.0
128.06259	71.0
177.05112	70.0
213.09068	70.0
147.04436	67.0
167.08789	64.0
255.13618	64.0
193.08359	63.0
163.07631	62.0
67.05392	60.0
233.11537	60.0
133.10086	60.0
189.08575	60.0
119.0864	59.0
145.06653	59.0
239.10179	59.0
155.08592	59.0
185.09641	59.0
195.07973	55.0
191.07335	55.0
199.11247	54.0
143.0482	54.0
253.15796	53.0
149.06187	53.0
261.11069	52.0
183.07794	51.0
199.07655	50.0
223.11058	50.0
188.08376	50.0
225.12807	48.0
105.06987	45.0
181.06789	45.0
93.07134	45.0
197.09026	45.0
123.0422	45.0
143.08685	45.0
231.13527	45.0
69.07143	44.0
209.09505	44.0
159.07887	44.0
181.10216	44.0
200.08521	43.0
235.10992	43.0
219.08398	43.0
171.0752	42.0
233.08397	42.0
165.07475	42.0
245.14877	42.0
183.11504	42.0
270.12564	41.0
157.09999	41.0
267.17517	41.0
229.10431	40.0
247.134	39.0
85.06425	38.0
129.07092	38.0
241.08524	38.0
259.13306	37.0
191.10855	36.0
186.06905	36.0
212.0811	35.0
203.06923	35.0
205.12181	35.0
55.05453	34.0
205.07132	34.0
107.08525	34.0
269.12054	34.0
182.07219	32.0
168.09332	32.0
91.0538	31.0
165.06593	31.0
192.09006	31.0
115.05653	31.0
272.14148	30.0
237.09186	30.0
242.08994	30.0
255.12523	30.0
207.11284	29.0
223.07401	29.0
179.1004	29.0
313.15445	29.0
67.04991	29.0
183.04349	28.0
225.09575	28.0
269.15106	28.0
228.07814	28.0
253.10809	28.0
228.11217	27.0
132.05663	27.0
198.06631	27.0
187.11523	26.0
127.05269	26.0
196.08371	26.0
219.06079	26.0
227.07199	25.0
257.09225	24.0
175.06934	24.0
217.10103	24.0
81.06828	23.0
152.06261	23.0
150.07159	23.0
103.05374	23.0
217.08228	22.0
283.16147	22.0
57.03187	22.0
162.06731	21.0
230.09267	21.0
77.03684	21.0
301.18582	21.0
136.04915	20.0
252.11497	20.0
79.0519	15.0
87.08321	12.0

MSID: 9099
ID: 300
RETENTIONTIME: 30.78352
PRECURSORMZ: 335.2213
AREA: 906880.9375
PRECURSORTYPE: [M+H]+
SMILES: [H][C@]12C[C@H](CC[C@]1(O)[C@@]1(C)CCC[C@@](C)(C(O)=O)[C@]1([H])CC2=O)C(C)=C
NAME: wiedemannic acid
FORMULA: C20H30O4
INCHIKEY: BFOYQQLRIXKEKK-XVPBKVKESA-N
CAS: 129385-69-9
Molecular Weight: 334.456
Number of References: 2
Class: Abietane diterpenoids
Superclass: Diterpenoids
Pathway: Terpenoids
ppm: -0.9350000000267755
CMID: CM243
IONMODE: Positive
COLLISIONENERGY: 40±20eV
INSTRUMENTTYPE: AB SCIEX
INSTRUMENT: Q-TOF
Comment:  
Num Peaks: 144
165.09096	2372.0
299.19849	1811.0
191.10703	1347.0
149.05936	1068.0
95.08512	839.0
217.12392	749.0
205.12163	707.0
215.10678	533.0
203.10674	527.0
243.13774	448.0
201.09206	439.0
257.15485	421.0
163.0724	249.0
145.06404	240.0
183.08041	239.0
185.09491	225.0
177.09135	223.0
175.07565	212.0
157.06425	206.0
197.09421	205.0
239.14549	201.0
317.21063	191.0
131.04776	189.0
187.07487	183.0
155.08701	179.0
173.05991	177.0
103.05365	176.0
179.10678	173.0
143.05042	166.0
67.05386	165.0
159.08121	165.0
281.19193	163.0
55.05375	159.0
229.12189	157.0
161.05882	156.0
165.08089	150.0
219.13597	146.0
141.06947	145.0
91.05466	141.0
93.06937	132.0
202.09883	130.0
129.06969	126.0
189.09096	122.0
231.13803	115.0
200.08363	114.0
137.05844	113.0
109.10126	111.0
81.06908	111.0
153.07016	110.0
225.12787	109.0
335.22003	107.0
115.05537	104.0
154.07755	103.0
123.04426	103.0
211.11356	96.0
173.09598	96.0
171.08144	95.0
169.09908	93.0
128.06026	91.0
117.07064	88.0
121.10406	85.0
275.16605	80.0
182.07202	80.0
109.02763	79.0
256.14441	77.0
199.11092	76.0
142.07631	76.0
147.11786	76.0
241.12152	76.0
230.12663	73.0
79.05357	73.0
157.09985	71.0
181.06245	71.0
119.0863	66.0
150.06667	64.0
152.06247	64.0
127.05478	64.0
219.10263	63.0
69.06893	61.0
259.16751	60.0
213.09192	59.0
131.08476	59.0
195.07819	59.0
97.10123	59.0
107.08617	57.0
261.14844	57.0
77.03763	55.0
199.07913	55.0
271.17108	54.0
193.12152	52.0
286.18686	51.0
188.08493	49.0
156.09486	49.0
183.07379	49.0
270.15759	48.0
158.07236	48.0
167.08774	48.0
143.08907	47.0
184.08496	46.0
253.15773	46.0
211.15056	45.0
233.15254	43.0
147.04422	42.0
133.10187	41.0
183.11752	41.0
247.13377	40.0
214.09529	40.0
179.0845	38.0
147.08104	38.0
171.12115	37.0
168.09317	37.0
219.12292	37.0
227.11163	35.0
105.07078	35.0
160.04742	35.0
299.17984	35.0
95.07175	35.0
135.04105	35.0
162.06966	35.0
253.19669	34.0
145.10179	34.0
131.03879	34.0
255.13907	34.0
83.08318	33.0
202.09048	33.0
149.04858	30.0
177.06659	29.0
196.08902	29.0
209.09628	29.0
170.07349	29.0
228.10899	29.0
244.1467	27.0
256.13501	27.0
247.12454	27.0
139.11507	27.0
187.06683	27.0
287.20505	26.0
166.07144	25.0
271.20496	25.0
201.12817	25.0
168.05508	24.0
255.13126	24.0
181.10199	22.0
284.18063	21.0

MSID: 9100
ID: 299
RETENTIONTIME: 30.78352
PRECURSORMZ: 317.2102
AREA: 901783.3125
PRECURSORTYPE: [M+H]+
SMILES: [H][C@]12CCC=C(C(O)=O)[C@]1(C)CC[C@@H](C)[C@]2(C)CCC1=COC=C1
NAME: Hardwickiic acid
FORMULA: C20H28O3
INCHIKEY: HHWOKJDCJVESIF-JBCDFXQESA-N
CAS: nan
Molecular Weight: 316.441
Number of References: 23
Class: Colensane and Clerodane diterpenoids
Superclass: Diterpenoids
Pathway: Terpenoids
ppm: -1.4700000000402724
CMID: CM243
IONMODE: Positive
COLLISIONENERGY: 40±20eV
INSTRUMENTTYPE: AB SCIEX
INSTRUMENT: Q-TOF
Comment:  
Num Peaks: 147
191.10703	2134.0
299.20016	1824.0
95.08607	1284.0
215.10678	735.0
217.12248	660.0
149.05936	570.0
205.12303	568.0
203.10533	447.0
257.15485	422.0
131.04887	414.0
67.05466	383.0
243.13774	351.0
317.21237	335.0
145.06522	311.0
157.06425	309.0
163.07491	300.0
165.09221	294.0
185.09491	270.0
201.09067	266.0
183.08307	264.0
55.05302	258.0
187.07622	252.0
219.13597	247.0
155.08578	234.0
229.12189	230.0
159.07997	226.0
197.09695	220.0
239.14095	213.0
143.04807	210.0
103.05266	203.0
141.07065	199.0
281.19028	192.0
177.09265	189.0
129.0708	189.0
115.05433	180.0
200.08363	175.0
175.07565	167.0
173.06248	162.0
128.06247	159.0
109.10024	154.0
161.06129	154.0
195.08229	130.0
169.09908	130.0
81.06908	128.0
117.07064	127.0
171.08015	126.0
199.11092	122.0
169.06596	120.0
179.10678	114.0
154.07755	114.0
93.07031	109.0
97.10123	102.0
153.06895	101.0
202.09744	100.0
173.09598	94.0
199.07637	91.0
131.08363	91.0
167.08521	90.0
230.12811	89.0
241.12	88.0
127.05367	88.0
211.11072	88.0
181.06245	86.0
256.14441	84.0
231.13655	83.0
91.05372	83.0
225.12639	81.0
182.07466	81.0
189.09232	81.0
137.05959	80.0
123.04317	77.0
157.10107	76.0
143.08556	76.0
77.03763	75.0
69.06975	75.0
147.04422	74.0
213.09048	74.0
152.06126	72.0
227.10425	72.0
188.0809	68.0
156.09486	65.0
179.08844	63.0
184.08629	63.0
255.14064	62.0
142.07515	61.0
275.16443	61.0
253.15929	60.0
183.1162	59.0
219.09973	57.0
174.06503	56.0
186.06621	55.0
214.09816	55.0
170.07477	55.0
299.18155	54.0
168.09317	53.0
196.09175	52.0
181.10068	49.0
205.1076	48.0
211.15056	48.0
247.13686	48.0
144.05724	47.0
105.06977	47.0
133.09961	46.0
230.11772	45.0
271.17432	45.0
195.11375	44.0
193.12561	43.0
253.19357	43.0
217.10371	43.0
113.09406	43.0
141.05785	42.0
147.11786	40.0
209.0977	37.0
162.06717	37.0
121.09975	37.0
79.05618	37.0
179.06747	36.0
116.05976	36.0
152.05522	35.0
317.17224	35.0
171.11346	35.0
150.06546	35.0
161.05011	35.0
160.04742	35.0
223.10745	34.0
172.08981	34.0
191.084	33.0
239.12277	33.0
210.10725	32.0
256.13971	31.0
270.15921	30.0
259.16751	30.0
244.1467	30.0
213.12909	28.0
197.09009	27.0
119.08309	27.0
145.09352	26.0
201.07123	26.0
281.1673	26.0
107.08515	24.0
164.08452	24.0
77.03247	23.0
155.06749	23.0
182.11035	23.0
237.07655	13.0
99.66383	12.0
51.02381	12.0

MSID: 9101
ID: 404
RETENTIONTIME: 32.63527
PRECURSORMZ: 319.2249
AREA: 884820.6875
PRECURSORTYPE: [M+H]+
SMILES: [H][C@@]12CCC3=CC(C(C)C)=C(O)C(O)=C3C[C@@]1(O)CCCC2(C)C
NAME: demethylsalvicanol
FORMULA: C20H30O3
INCHIKEY: XZANDTPHDIYTME-JXFKEZNVSA-N
CAS: 124960-41-4
Molecular Weight: 318.456
Number of References: 16
Class: Abeoabietane diterpenoids
Superclass: Diterpenoids
Pathway: Terpenoids
ppm: -2.4200000000291766
CMID: CM243
IONMODE: Positive
COLLISIONENERGY: 40±20eV
INSTRUMENTTYPE: AB SCIEX
INSTRUMENT: Q-TOF
Comment:  
Num Peaks: 25
319.22357	591.0
301.21469	276.0
217.11256	55.0
216.11365	50.0
219.12746	39.0
206.12314	28.0
175.06415	28.0
319.19907	27.0
301.18921	26.0
289.20883	26.0
192.1077	25.0
197.09851	25.0
283.19608	25.0
183.07925	22.0
287.19699	22.0
233.14377	21.0
145.06416	20.0
141.06612	19.0
193.11081	19.0
55.05526	17.0
187.1447	16.0
241.12477	13.0
231.10846	13.0
116.05565	13.0
95.08616	12.0

MSID: 9102
ID: 58
RETENTIONTIME: 14.75618
PRECURSORMZ: 361.0919
AREA: 856732.375
PRECURSORTYPE: [M+H]+
SMILES: OC(=O)C(CC1=CC=C(O)C(O)=C1)OC(=O)\C=C\C1=CC(O)=C(O)C=C1
NAME: rosmarinic acid
FORMULA: C18H16O8
INCHIKEY: DOUMFZQKYFQNTF-ZZXKWVIFSA-N
CAS: 179462-74-9
Molecular Weight: 360.32
Number of References: 8277
Class: Cinnamic acids and derivatives
Superclass: Phenylpropanoids (C6-C3)
Pathway: Shikimates and Phenylpropanoids
ppm: -0.4450000000133514
CMID: CM243
IONMODE: Positive
COLLISIONENERGY: 40±20eV
INSTRUMENTTYPE: AB SCIEX
INSTRUMENT: Q-TOF
Comment:  
Num Peaks: 21
163.03885	9990.0
145.02884	2491.0
135.04463	1995.0
89.03807	1784.0
117.03265	1060.0
139.03902	461.0
63.02307	312.0
107.04982	234.0
77.03773	233.0
93.03359	233.0
65.0379	172.0
181.04819	171.0
111.04343	165.0
79.05453	163.0
91.05477	64.0
51.02317	46.0
62.01482	43.0
135.02643	34.0
162.50655	29.0
163.0226	26.0
107.03462	13.0

MSID: 9103
ID: 407
RETENTIONTIME: 32.7106
PRECURSORMZ: 287.1648
AREA: 848388.75
PRECURSORTYPE: [M+H]+
SMILES: C[C@H]1CO[C@@]2(C1)OC(=O)C1=C2C=CC2=C1CCCC2(C)C
NAME: cryptoacetalide
FORMULA: C18H22O3
INCHIKEY: HUTQFIYQAWCICW-ZMZPIMSZSA-N
CAS: 132059-23-5
Molecular Weight: 286.371
Number of References: 6
Class: Illudalane sesquiterpenoids
Superclass: Sesquiterpenoids
Pathway: Terpenoids
ppm: 0.07999999996854967
CMID: CM243
IONMODE: Positive
COLLISIONENERGY: 40±20eV
INSTRUMENTTYPE: AB SCIEX
INSTRUMENT: Q-TOF
Comment:  
Num Peaks: 92
287.16364	12303.0
257.11722	2661.0
272.14291	1072.0
215.07092	915.0
245.11641	741.0
271.13245	527.0
189.091	452.0
244.11003	372.0
241.08507	309.0
243.10114	268.0
217.08646	246.0
230.09103	234.0
147.04544	182.0
229.08488	171.0
256.1084	166.0
255.10315	140.0
227.07184	126.0
201.05461	116.0
175.03812	114.0
128.06139	111.0
174.06766	107.0
187.07626	106.0
257.09366	104.0
213.08768	98.0
159.08247	94.0
143.08443	86.0
131.08704	84.0
285.14572	71.0
202.06129	71.0
188.08229	70.0
161.09863	69.0
227.10431	68.0
203.10538	66.0
213.05623	65.0
272.12354	62.0
173.06123	61.0
228.11349	61.0
199.07503	60.0
133.1019	59.0
241.07594	57.0
55.05376	57.0
171.08148	52.0
189.05196	51.0
219.10268	51.0
145.06407	51.0
229.12343	50.0
185.09363	48.0
141.07068	46.0
91.05374	44.0
161.05885	42.0
149.06058	41.0
201.08794	40.0
142.07634	38.0
79.05445	38.0
167.08778	38.0
195.08096	37.0
214.09964	37.0
231.09789	37.0
287.13708	36.0
165.07211	36.0
129.0686	35.0
133.06349	34.0
127.0537	34.0
105.0718	34.0
155.08337	32.0
185.05898	32.0
217.06769	31.0
131.05003	31.0
255.13287	31.0
163.07245	28.0
244.09013	27.0
186.06758	27.0
146.06964	27.0
175.0757	27.0
169.06345	27.0
242.0974	26.0
159.04666	25.0
170.06969	25.0
198.06755	24.0
117.06643	24.0
144.05844	23.0
271.09857	23.0
199.15105	23.0
217.11819	22.0
227.05855	22.0
211.07803	20.0
245.07961	20.0
119.08525	13.0
177.09009	13.0
152.06493	13.0
284.02881	12.0
69.07139	12.0

MSID: 9104
ID: 111
RETENTIONTIME: 21.66407
PRECURSORMZ: 175.1481
AREA: 843477.8125
PRECURSORTYPE: [M+H]+
SMILES: CC1=CC=C2C(CCCC2(C)C)=C1
NAME: 1,2,3,4-tetrahydro-1,1,6-trimethylnaphthalene
FORMULA: C13H18
INCHIKEY: LTMQZVLXCLQPCT-UHFFFAOYSA-N
CAS: 475-03-6
Molecular Weight: 174.286
Number of References: 339
Class: Himachalane sesquiterpenoids
Superclass: Sesquiterpenoids
Pathway: Terpenoids
ppm: -0.5749999999977717
CMID: CM243
IONMODE: Positive
COLLISIONENERGY: 40±20eV
INSTRUMENTTYPE: AB SCIEX
INSTRUMENT: Q-TOF
Comment:  
Num Peaks: 38
91.05481	346.0
175.14725	338.0
105.07095	312.0
133.10097	255.0
81.0701	250.0
79.05457	236.0
77.03862	235.0
117.07084	232.0
119.08437	209.0
131.08611	127.0
115.05557	107.0
55.05457	106.0
67.05478	93.0
95.08624	88.0
103.05283	86.0
145.10204	74.0
93.06859	67.0
107.08635	63.0
65.03872	58.0
105.06192	53.0
116.06313	48.0
51.0225	48.0
128.0627	47.0
147.11931	46.0
53.03863	31.0
121.09888	31.0
129.07103	29.0
132.09387	27.0
69.07068	27.0
78.04767	27.0
127.05279	26.0
175.11224	25.0
130.0688	21.0
173.13751	21.0
147.08011	19.0
51.0204	15.0
133.11227	13.0
141.07321	13.0

MSID: 9105
ID: 464
RETENTIONTIME: 34.55337
PRECURSORMZ: 299.164
AREA: 836694.1875
PRECURSORTYPE: [M+H]+
SMILES: C[C@@H](CO)C1=CC2=C(C(=O)C1=O)C1=C(C=C2)C(C)(C)CCC1
NAME: R-(+)-grandifolia D
FORMULA: C19H22O3
INCHIKEY: BYUVIYNVJOALKQ-NSHDSACASA-N
CAS: nan
Molecular Weight: 298.382
Number of References: 1
Class: Abietane diterpenoids
Superclass: Diterpenoids
Pathway: Terpenoids
ppm: -0.7200000000580076
CMID: CM243
IONMODE: Positive
COLLISIONENERGY: 40±20eV
INSTRUMENTTYPE: AB SCIEX
INSTRUMENT: Q-TOF
Comment:  
Num Peaks: 104
183.08034	2637.0
299.16446	2624.0
253.15918	2601.0
169.10155	1296.0
155.08571	1107.0
257.11859	1077.0
179.08574	638.0
153.06888	592.0
281.15402	484.0
211.11063	416.0
223.11174	393.0
154.07747	334.0
239.10753	333.0
235.14714	330.0
238.13474	292.0
167.0864	281.0
69.0689	192.0
152.06239	177.0
165.06824	165.0
195.11641	158.0
129.06964	146.0
178.07535	128.0
141.07057	126.0
256.11136	120.0
220.12431	101.0
168.09309	101.0
193.10103	97.0
205.09909	95.0
181.09927	94.0
196.08755	89.0
180.09241	88.0
83.04833	85.0
197.09824	82.0
128.06241	81.0
183.11612	77.0
127.05693	77.0
166.07893	77.0
181.06238	75.0
157.10101	71.0
195.0822	70.0
209.0976	65.0
156.09113	63.0
55.05445	61.0
115.05322	59.0
97.06259	57.0
211.07362	55.0
71.08572	54.0
153.06404	54.0
151.05443	54.0
229.08621	50.0
57.06878	47.0
169.08499	44.0
140.06036	41.0
81.06992	41.0
209.12875	39.0
190.07935	39.0
206.106	39.0
95.08604	37.0
69.06728	37.0
67.05223	37.0
182.07458	35.0
237.12772	35.0
210.13982	35.0
299.19666	35.0
225.12776	34.0
208.08765	34.0
168.05627	34.0
207.11819	34.0
139.05263	34.0
177.06912	34.0
241.08795	32.0
192.09386	32.0
141.12642	31.0
299.13907	29.0
197.08449	28.0
200.08771	28.0
97.10216	27.0
229.11734	26.0
191.09204	25.0
251.1064	25.0
201.09335	25.0
169.0697	24.0
271.15485	24.0
213.09181	24.0
224.07683	24.0
142.07509	23.0
173.05853	23.0
143.08667	23.0
222.10201	23.0
189.07068	23.0
131.0477	23.0
199.07767	22.0
180.08453	22.0
158.06982	22.0
215.07939	21.0
77.04018	20.0
107.08815	20.0
145.06633	19.0
217.12383	19.0
137.13177	13.0
126.03452	13.0
93.07027	12.0
83.08672	12.0
65.04015	12.0

MSID: 9106
ID: 222
RETENTIONTIME: 28.58622
PRECURSORMZ: 369.1667
AREA: 816224.625
PRECURSORTYPE: [M+Na]+
SMILES: [H][C@]12CCC=C3C(=O)OC[C@@]13C[C@@H](O)[C@@H](C)[C@]2(C)C[C@@H](O)C1=COC=C1
NAME: 7α,12α-dihydroxyhautriwaic acid 19-lactone
FORMULA: C20H26O5
INCHIKEY: DIROQTBWRVNDKN-LTIDKFJVSA-N
CAS: nan
Molecular Weight: 346.423
Number of References: 1
Class: Colensane and Clerodane diterpenoids
Superclass: Diterpenoids
Pathway: Terpenoids
ppm: -1.0950000000207183
CMID: CM243
IONMODE: Positive
COLLISIONENERGY: 40±20eV
INSTRUMENTTYPE: AB SCIEX
INSTRUMENT: Q-TOF
Comment:  
Num Peaks: 4
369.1673	2929.0
333.20398	115.0
369.13907	39.0
369.11459	25.0

MSID: 9107
ID: 510
RETENTIONTIME: 36.37193
PRECURSORMZ: 203.1788
AREA: 810809.75
PRECURSORTYPE: [M+H]+
SMILES: CC(CCC=C(C)C)C1=CC=C(C)C=C1
NAME: ar-curcumene
FORMULA: C15H22
INCHIKEY: VMYXUZSZMNBRCN-UHFFFAOYSA-N
CAS: 644-30-4
Molecular Weight: 202.34
Number of References: 554
Class: Bisabolane sesquiterpenoids
Superclass: Sesquiterpenoids
Pathway: Terpenoids
ppm: -1.174999999989268
CMID: CM243
IONMODE: Positive
COLLISIONENERGY: 40±20eV
INSTRUMENTTYPE: AB SCIEX
INSTRUMENT: Q-TOF
Comment:  
Num Peaks: 46
105.06971	1476.0
203.1792	844.0
95.08507	749.0
91.0546	744.0
119.08516	726.0
67.05463	690.0
147.11659	645.0
81.06992	617.0
77.03758	616.0
93.06837	609.0
133.10179	548.0
109.1012	458.0
79.05439	446.0
107.08611	297.0
55.05372	275.0
161.13206	269.0
69.0697	253.0
65.03857	209.0
175.14943	170.0
121.10184	165.0
123.11698	137.0
103.05458	111.0
51.02238	98.0
117.06845	88.0
131.08469	88.0
91.049	79.0
145.10287	77.0
53.03922	63.0
135.11836	53.0
119.07447	51.0
115.05111	42.0
83.08581	40.0
146.10977	36.0
147.04532	32.0
95.06979	31.0
92.06014	29.0
129.06961	28.0
203.04102	25.0
160.12415	23.0
57.07025	23.0
78.04836	23.0
116.06392	21.0
80.05898	21.0
115.04691	13.0
157.11081	12.0
75.02224	12.0

MSID: 9108
ID: 254
RETENTIONTIME: 29.65425
PRECURSORMZ: 359.1121
AREA: 799005.6875
PRECURSORTYPE: [M+H]+
SMILES: COC1=CC(O)=C2C(=O)C(OC)=C(OC2=C1)C1=CC(OC)=C(OC)C=C1
NAME: retusin
FORMULA: C19H18O7
INCHIKEY: HHGPYJLEJGNWJA-UHFFFAOYSA-N
CAS: 1245-15-4
Molecular Weight: 358.348
Number of References: 175
Class: Flavonols
Superclass: Flavonoids
Pathway: Shikimates and Phenylpropanoids
ppm: -0.9800000000268483
CMID: CM243
IONMODE: Positive
COLLISIONENERGY: 40±20eV
INSTRUMENTTYPE: AB SCIEX
INSTRUMENT: Q-TOF
Comment:  
Num Peaks: 93
359.11285	8520.0
298.08322	3026.0
326.07901	2252.0
344.09149	958.0
162.06847	758.0
343.08212	694.0
282.05161	330.0
163.07497	324.0
165.05452	247.0
136.01595	239.0
147.04308	217.0
270.08685	216.0
310.04926	200.0
254.05775	168.0
315.08621	162.0
108.02167	158.0
329.06583	154.0
299.0546	151.0
211.07806	129.0
314.07523	123.0
255.06564	122.0
283.05914	118.0
181.06647	117.0
183.02881	108.0
328.06277	106.0
300.06488	99.0
301.06839	99.0
199.07782	95.0
137.02295	89.0
227.07187	84.0
327.05066	84.0
148.0531	83.0
343.0676	81.0
237.05251	80.0
241.08813	75.0
226.06351	73.0
265.04852	72.0
153.01691	71.0
239.07591	68.0
171.08022	65.0
91.05282	62.0
209.06094	62.0
165.02055	60.0
151.0401	55.0
197.06128	53.0
153.069	51.0
286.08755	50.0
128.06363	47.0
183.07518	47.0
231.06813	47.0
296.06937	46.0
253.0472	45.0
269.08182	41.0
80.02488	39.0
242.09132	38.0
301.06497	36.0
196.05342	34.0
359.06833	34.0
119.05107	34.0
168.05513	32.0
225.05447	32.0
107.01223	32.0
315.06711	32.0
313.0676	32.0
243.06758	31.0
311.05203	31.0
162.05226	30.0
169.06348	30.0
224.08434	30.0
254.04214	29.0
325.07172	29.0
170.07481	29.0
327.08432	28.0
133.02849	28.0
133.99945	27.0
255.05782	26.0
81.06822	25.0
299.03766	25.0
343.03494	24.0
297.07291	24.0
68.99816	23.0
298.02911	23.0
138.99962	23.0
214.09393	23.0
285.10934	22.0
341.104	22.0
194.06866	21.0
106.00753	19.0
185.05766	19.0
79.01789	18.0
357.93158	18.0
265.05807	13.0
51.02173	12.0

MSID: 9109
ID: 563
RETENTIONTIME: 38.00097
PRECURSORMZ: 363.1805
AREA: 784813.75
PRECURSORTYPE: [M+H]+
SMILES: [H][C@@]12C[C@@H](O)C3=C(C(=O)C(O)=C(C(C)C)C3=O)[C@@]11CCC[C@]2(C)CO[C@H]1O
NAME: conacytone
FORMULA: C20H26O6
INCHIKEY: HWCRIILCNXONSY-SYMKQFHVSA-N
CAS: nan
Molecular Weight: 362.423
Number of References: 3
Class: Abeoabietane diterpenoids
Superclass: Diterpenoids
Pathway: Terpenoids
ppm: -0.26500000001306034
CMID: CM243
IONMODE: Positive
COLLISIONENERGY: 40±20eV
INSTRUMENTTYPE: AB SCIEX
INSTRUMENT: Q-TOF
Comment:  
Num Peaks: 222
317.17545	10438.0
271.16922	5392.0
299.16263	3467.0
229.12169	2568.0
215.10658	2196.0
211.11194	1938.0
289.17999	1045.0
253.15906	1005.0
173.05974	865.0
183.11736	678.0
243.10239	633.0
228.11322	620.0
189.08945	507.0
231.13931	501.0
231.1006	492.0
197.0954	491.0
241.12129	489.0
187.07471	460.0
281.1539	458.0
213.09029	430.0
257.11847	417.0
217.0862	396.0
161.06116	358.0
171.08128	341.0
165.09206	339.0
259.13101	330.0
203.10654	323.0
199.07343	317.0
239.10741	306.0
200.08345	304.0
193.10094	285.0
181.06493	280.0
195.08073	280.0
193.08595	272.0
205.08498	254.0
196.08884	252.0
69.06887	245.0
169.10019	243.0
168.09302	235.0
247.13509	231.0
167.08379	224.0
145.0639	215.0
153.07002	201.0
143.08308	200.0
155.08563	191.0
209.09467	189.0
157.06534	179.0
221.09447	179.0
227.10699	178.0
243.13904	177.0
185.0974	171.0
201.09048	168.0
141.06935	168.0
123.04414	165.0
225.1644	163.0
175.0742	162.0
169.06453	161.0
128.06235	158.0
149.0616	157.0
152.06233	150.0
178.07657	149.0
159.08105	148.0
213.12746	146.0
327.15475	143.0
245.11919	137.0
225.12619	134.0
223.11163	134.0
147.04408	131.0
256.10968	129.0
214.09796	129.0
181.10051	129.0
219.10242	128.0
163.07475	128.0
238.09834	127.0
165.06941	125.0
201.05159	124.0
177.09119	124.0
183.08025	123.0
131.04875	121.0
182.07185	120.0
210.10564	120.0
217.12083	119.0
154.07861	117.0
241.08632	115.0
219.14012	113.0
263.14145	112.0
207.10399	110.0
255.10129	110.0
143.05145	109.0
185.06143	106.0
233.11493	105.0
210.14113	103.0
199.11073	102.0
59.0485	101.0
179.10532	101.0
197.05827	98.0
129.06956	98.0
187.11087	97.0
201.12659	97.0
243.17416	97.0
177.05339	94.0
127.05466	94.0
269.12164	91.0
115.05422	91.0
256.14417	91.0
297.1485	87.0
195.11357	86.0
205.12004	86.0
315.1571	85.0
216.1147	85.0
95.08408	85.0
191.0703	84.0
191.10684	82.0
271.12891	82.0
223.07359	82.0
137.05946	81.0
255.13884	80.0
299.13382	78.0
55.05516	78.0
215.06779	77.0
221.07845	76.0
67.0546	75.0
287.16495	73.0
157.0997	71.0
285.1123	71.0
181.08733	71.0
188.08072	71.0
226.09857	71.0
81.06989	70.0
133.06447	69.0
174.06616	68.0
267.10263	66.0
85.065	64.0
91.0527	64.0
275.12518	63.0
202.05966	62.0
224.08553	61.0
363.181	61.0
345.17468	60.0
184.0529	60.0
238.13612	59.0
269.15057	59.0
257.15305	58.0
172.08836	58.0
230.13235	58.0
142.08086	58.0
221.11923	57.0
235.15004	55.0
166.07759	55.0
107.08404	53.0
245.1514	53.0
79.05523	53.0
229.09944	53.0
244.10974	52.0
163.03973	52.0
227.06862	52.0
213.05455	52.0
180.09102	52.0
198.06732	52.0
211.09203	51.0
105.06767	50.0
242.09102	49.0
190.06169	49.0
211.07352	48.0
203.07166	48.0
241.10457	48.0
247.09967	48.0
257.09964	48.0
219.06473	48.0
228.07625	46.0
117.07053	46.0
212.11778	46.0
251.10316	45.0
203.0856	45.0
239.08318	45.0
197.13252	45.0
186.0647	44.0
225.09239	44.0
200.04742	44.0
251.14352	43.0
131.08127	42.0
158.07097	42.0
225.15263	41.0
217.06744	41.0
149.09628	41.0
71.04771	39.0
145.10046	39.0
247.16896	39.0
309.14761	39.0
159.11565	38.0
170.07333	37.0
209.07767	37.0
137.09387	37.0
231.08273	36.0
135.04205	36.0
187.0372	36.0
161.09596	36.0
93.06928	36.0
173.0984	36.0
273.11127	35.0
237.12912	34.0
109.09912	34.0
147.07971	34.0
144.05592	33.0
189.04904	32.0
156.09471	32.0
179.06731	32.0
273.14685	31.0
266.12872	31.0
171.06464	31.0
119.08084	30.0
162.06702	30.0
253.11386	29.0
151.05435	29.0
261.11179	27.0
210.06448	26.0
168.05746	25.0
206.07356	25.0
139.05025	23.0
71.04523	21.0
57.07245	12.0
340.3732	12.0

MSID: 9110
ID: 553
RETENTIONTIME: 37.213
PRECURSORMZ: 315.1948
AREA: 771409.0
PRECURSORTYPE: [M+H]+
SMILES: [H][C@@]12C(=O)C(=O)C3=C(C=C(O)C(=C3)C(C)C)[C@@]1(C)CCCC2(C)C
NAME: 5-epixanthoperol
FORMULA: C20H26O3
INCHIKEY: KVTOPOITUALWOF-AZUAARDMSA-N
CAS: 119817-27-5
Molecular Weight: 314.425
Number of References: 7
Class: Abietane diterpenoids
Superclass: Diterpenoids
Pathway: Terpenoids
ppm: -1.2200000000461841
CMID: CM243
IONMODE: Positive
COLLISIONENERGY: 40±20eV
INSTRUMENTTYPE: AB SCIEX
INSTRUMENT: Q-TOF
Comment:  
Num Peaks: 199
229.12158	1134.0
297.18552	909.0
191.10811	596.0
217.12218	533.0
315.19348	490.0
237.1275	434.0
255.14029	433.0
149.05914	404.0
213.09305	391.0
195.07791	378.0
257.15448	300.0
215.10793	288.0
167.08498	272.0
131.04869	249.0
279.1702	247.0
273.14835	231.0
153.06995	224.0
165.06934	218.0
173.05966	182.0
175.07413	181.0
157.06281	181.0
214.10074	180.0
181.06352	178.0
199.07471	174.0
95.08499	171.0
165.09198	159.0
203.10506	157.0
241.12119	156.0
141.06929	154.0
223.11006	152.0
197.09668	152.0
143.08536	150.0
163.07468	150.0
209.09599	149.0
185.09465	144.0
55.05441	142.0
128.06229	140.0
152.06105	135.0
205.12274	132.0
187.07596	130.0
179.10654	128.0
129.07063	123.0
209.13423	119.0
179.08688	112.0
103.0555	106.0
202.09995	103.0
211.11327	102.0
245.15434	101.0
271.17072	101.0
287.19803	98.0
254.13382	96.0
181.09779	95.0
183.07884	95.0
315.0874	93.0
111.08028	92.0
239.10579	92.0
189.09204	91.0
157.10086	89.0
161.06108	89.0
243.13741	88.0
188.08467	86.0
211.07628	86.0
207.10109	84.0
227.10985	84.0
194.07379	83.0
251.17911	83.0
67.05296	83.0
171.08249	82.0
231.10347	82.0
173.09703	81.0
231.14218	80.0
221.09729	80.0
166.07626	79.0
222.10764	78.0
193.10356	77.0
155.08435	77.0
169.10138	76.0
69.06965	76.0
199.10788	76.0
127.05239	74.0
169.0619	73.0
201.09178	73.0
178.07779	71.0
145.06265	71.0
115.05417	69.0
269.18579	68.0
177.06764	67.0
208.08887	65.0
174.06866	64.0
200.08058	62.0
57.03248	61.0
142.07729	60.0
236.12263	60.0
91.05453	60.0
228.11313	60.0
97.06732	59.0
315.15173	59.0
159.07974	59.0
93.06924	58.0
85.06406	57.0
213.1288	56.0
161.09589	56.0
219.11827	56.0
194.10791	53.0
198.06723	53.0
269.15527	52.0
196.08875	49.0
272.06494	48.0
154.07854	48.0
225.09375	47.0
273.14026	47.0
226.09995	47.0
253.12622	45.0
168.08786	45.0
171.1158	45.0
79.0552	45.0
259.13089	45.0
183.11462	44.0
77.04096	44.0
83.08396	44.0
105.07063	44.0
123.043	43.0
180.09093	41.0
107.08704	40.0
227.14084	40.0
207.07854	40.0
183.07355	40.0
168.00661	39.0
215.08925	39.0
81.06897	38.0
186.06595	37.0
233.11783	37.0
282.16135	37.0
109.10112	36.0
221.11768	36.0
256.14874	35.0
193.09268	35.0
204.09306	35.0
153.05783	34.0
71.04768	34.0
179.07115	34.0
219.10233	34.0
184.08736	34.0
69.03384	34.0
300.0593	33.0
212.08347	33.0
133.06441	33.0
193.0641	33.0
257.13565	33.0
185.06001	32.0
217.08754	32.0
156.09341	31.0
173.04678	31.0
147.07727	31.0
205.09891	30.0
131.08458	30.0
240.11092	30.0
144.05702	30.0
113.09495	30.0
176.06297	30.0
135.0807	30.0
165.05675	29.0
65.04009	29.0
238.13148	28.0
267.13452	28.0
190.08052	28.0
137.06169	28.0
195.11485	27.0
117.07047	27.0
115.04891	27.0
214.0907	27.0
191.07021	27.0
235.10487	27.0
255.11526	27.0
264.15433	26.0
189.05569	26.0
250.13556	26.0
234.10429	26.0
243.10686	25.0
242.13052	25.0
236.1106	25.0
167.06599	25.0
156.07507	25.0
55.0188	25.0
95.07735	24.0
195.06013	24.0
119.08506	24.0
216.07573	24.0
147.03809	22.0
297.14667	22.0
158.07213	22.0
127.04688	22.0
225.07172	21.0
126.0432	21.0
237.09131	21.0
133.10394	13.0
271.11911	13.0
312.93192	12.0
95.09358	12.0

MSID: 9111
ID: 268
RETENTIONTIME: 29.98457
PRECURSORMZ: 331.1546
AREA: 756224.4375
PRECURSORTYPE: [M+H]+
SMILES: [H][C@@]1(OC(=O)C2=C1C=CC1=C2[C@H](O)CCC1(C)C)[C@]1([H])[C@@H](C)COC1=O
NAME: salprzelactone B
FORMULA: C19H22O5
INCHIKEY: ZMYIHFOLJJNKDI-GKZLCFLNSA-N
CAS: nan
Molecular Weight: 330.381
Number of References: 1
Class: nan
Superclass: nan
Pathway: Terpenoids
ppm: 0.04999999998744897
CMID: CM243
IONMODE: Positive
COLLISIONENERGY: 40±20eV
INSTRUMENTTYPE: AB SCIEX
INSTRUMENT: Q-TOF
Comment:  
Num Peaks: 258
313.142	15827.0
257.08258	2105.0
295.13303	1874.0
267.13809	1701.0
271.09528	1289.0
298.1203	929.0
225.09113	770.0
255.06554	722.0
285.14563	711.0
227.0703	681.0
197.09557	627.0
207.08022	621.0
179.08582	618.0
243.10107	614.0
237.09163	572.0
270.08838	566.0
242.05771	536.0
253.08604	491.0
252.11317	457.0
213.05473	416.0
209.09485	344.0
280.10574	317.0
284.10797	311.0
277.11905	299.0
178.07935	296.0
285.1142	295.0
255.10464	288.0
241.05156	287.0
265.08829	286.0
181.06244	283.0
249.12698	274.0
229.05222	272.0
283.09528	261.0
242.09276	261.0
269.08173	261.0
271.13397	258.0
206.10748	256.0
165.06955	254.0
235.07515	252.0
195.07817	250.0
182.07201	247.0
259.17221	244.0
270.1254	242.0
252.08052	241.0
215.10533	240.0
256.077	233.0
153.07016	226.0
224.08424	219.0
191.0867	219.0
331.15118	214.0
219.08087	209.0
201.05594	209.0
241.08501	199.0
169.10161	198.0
210.0675	193.0
211.07513	189.0
261.07562	186.0
228.07645	185.0
217.12102	183.0
157.06548	183.0
234.10461	174.0
251.0677	171.0
152.06245	171.0
197.05846	167.0
223.07379	166.0
221.13254	164.0
199.07774	150.0
215.06943	145.0
173.05861	144.0
141.06947	136.0
183.07909	136.0
181.10066	136.0
128.06136	135.0
221.09613	134.0
255.09213	134.0
205.06412	134.0
169.06468	129.0
186.06888	121.0
155.08699	117.0
243.06902	117.0
287.1619	113.0
189.07076	112.0
127.05367	111.0
267.10287	110.0
166.07774	110.0
227.10719	110.0
161.05881	109.0
229.12337	109.0
257.11713	109.0
193.09837	106.0
262.09732	105.0
247.07526	103.0
253.12189	101.0
298.10678	101.0
154.07753	100.0
187.0762	100.0
168.05888	99.0
69.06893	99.0
239.10307	98.0
216.09329	98.0
206.07515	98.0
214.06233	96.0
143.08672	96.0
238.06078	94.0
239.14397	94.0
209.06229	92.0
224.12091	90.0
185.06026	89.0
203.10672	88.0
279.10513	87.0
229.0448	85.0
209.08353	85.0
285.18533	84.0
143.05042	84.0
129.06857	82.0
257.15482	81.0
167.08647	80.0
237.05241	80.0
171.07887	80.0
196.09175	80.0
139.05383	78.0
185.09624	76.0
192.09259	76.0
190.07672	76.0
269.11707	75.0
145.0652	75.0
165.09094	75.0
269.15723	75.0
215.08667	74.0
200.08224	74.0
237.07805	73.0
238.09856	72.0
225.04997	72.0
203.08578	72.0
295.11618	72.0
151.05208	71.0
142.07864	70.0
200.04485	70.0
253.06891	69.0
211.11212	67.0
233.09869	67.0
191.10837	66.0
205.10059	66.0
131.05112	64.0
222.06561	64.0
189.09096	63.0
331.18683	63.0
208.0849	61.0
243.08275	59.0
183.04729	59.0
231.12016	58.0
266.09381	58.0
248.0831	58.0
196.05061	57.0
201.09343	57.0
272.1073	56.0
217.08783	56.0
197.07907	56.0
202.07794	55.0
175.07825	55.0
269.10742	55.0
295.17172	55.0
207.11827	55.0
214.10101	55.0
234.06566	54.0
256.10678	53.0
180.0938	53.0
236.08533	52.0
177.06918	51.0
240.07785	50.0
265.12177	50.0
198.06888	49.0
55.05302	49.0
233.08224	49.0
149.06174	49.0
220.08371	49.0
205.08376	48.0
206.10187	47.0
81.07084	47.0
199.1109	47.0
171.043	46.0
159.07996	46.0
91.05278	46.0
285.25977	45.0
187.0387	45.0
227.04669	45.0
187.1097	45.0
255.04521	45.0
270.061	44.0
207.10417	44.0
249.08989	44.0
259.10916	43.0
331.2706	43.0
196.12466	43.0
226.09877	43.0
218.07309	43.0
221.09175	43.0
147.04659	42.0
105.06876	42.0
156.09363	42.0
73.02695	41.0
193.06299	41.0
234.08363	41.0
171.11987	41.0
176.0619	40.0
172.0898	40.0
211.14912	40.0
184.05305	40.0
231.09485	39.0
213.08762	39.0
225.12785	39.0
243.13315	38.0
261.06931	38.0
233.05981	38.0
158.07111	38.0
97.0636	37.0
242.08209	36.0
257.04489	36.0
312.11166	36.0
189.06671	36.0
201.08649	35.0
277.08969	35.0
157.10353	35.0
224.05054	34.0
284.08157	34.0
268.07053	34.0
55.01742	34.0
173.09856	32.0
195.04672	32.0
226.06784	32.0
295.09094	31.0
289.10696	31.0
192.05594	31.0
190.06186	30.0
269.0528	30.0
202.10161	30.0
220.05321	30.0
144.05957	30.0
205.12302	29.0
255.03583	29.0
119.08415	29.0
251.14374	29.0
164.06319	29.0
167.04849	29.0
279.08713	29.0
204.09334	28.0
213.24205	27.0
196.08353	27.0
245.07954	27.0
207.06754	26.0
163.05614	26.0
252.05254	26.0
212.0481	25.0
67.05466	24.0
117.06639	23.0
203.03275	22.0
140.05811	18.0
115.05117	13.0

MSID: 9112
ID: 59
RETENTIONTIME: 14.75618
PRECURSORMZ: 378.1178
AREA: 748921.8125
PRECURSORTYPE: [M+NH4]+
SMILES: [H][C@](CC1=CC=C(O)C(O)=C1)(OC(=O)\C=C\C1=CC=C(O)C(O)=C1)C(O)=O
NAME: (R)-(+)-rosmarinic acid
FORMULA: C18H16O8
INCHIKEY: DOUMFZQKYFQNTF-WUTVXBCWSA-N
CAS: 20283-92-5
Molecular Weight: 360.32
Number of References: 1024
Class: Cinnamic acids and derivatives
Superclass: Phenylpropanoids (C6-C3)
Pathway: Shikimates and Phenylpropanoids
ppm: -1.094000000023243
CMID: CM243
IONMODE: Positive
COLLISIONENERGY: 40±20eV
INSTRUMENTTYPE: AB SCIEX
INSTRUMENT: Q-TOF
Comment:  
Num Peaks: 33
163.03886	22860.0
135.04465	4008.0
145.02885	3988.0
117.03477	1930.0
89.039	1765.0
139.03902	894.0
93.0336	392.0
107.04984	351.0
181.05084	336.0
77.0386	247.0
65.0379	233.0
79.05454	213.0
111.04343	203.0
63.0223	186.0
153.12733	165.0
91.05572	112.0
93.06761	33.0
378.25363	32.0
79.04497	31.0
139.0217	30.0
165.04463	26.0
71.05035	25.0
171.13805	24.0
119.04692	23.0
135.11522	23.0
107.03666	23.0
145.00407	21.0
134.60568	20.0
91.04543	19.0
109.10346	13.0
83.08687	12.0
68.99742	12.0
62.01791	12.0

MSID: 9113
ID: 78
RETENTIONTIME: 17.8357
PRECURSORMZ: 363.1792
AREA: 746406.4375
PRECURSORTYPE: [M+H]+
SMILES: [H][C@]1(CC(=O)C2=C(C(O)=C(O)C(C(C)C)=C2O)[C@@]1(C)CCC(O)=O)C(C)=C
NAME: candesalvone B
FORMULA: C20H26O6
INCHIKEY: UJXCXNZYTUFKHP-YBTHPKLGSA-N
CAS: nan
Molecular Weight: 362.423
Number of References: 3
Class: Abeoabietane diterpenoids
Superclass: Diterpenoids
Pathway: Terpenoids
ppm: -1.5650000000277942
CMID: CM243
IONMODE: Positive
COLLISIONENERGY: 40±20eV
INSTRUMENTTYPE: AB SCIEX
INSTRUMENT: Q-TOF
Comment:  
Num Peaks: 115
299.16483	1067.0
239.10478	328.0
281.15274	276.0
221.0963	270.0
203.03291	165.0
211.1123	158.0
257.11893	153.0
213.08922	141.0
195.07834	138.0
271.1713	136.0
215.10551	115.0
193.10397	114.0
231.10248	106.0
283.16638	100.0
257.15033	90.0
256.11011	90.0
241.08673	85.0
177.09018	84.0
243.1028	78.0
181.06654	74.0
173.05875	74.0
317.16901	72.0
223.07544	71.0
224.0815	71.0
263.14508	65.0
178.07948	64.0
197.09436	60.0
263.09424	59.0
271.15839	59.0
253.15637	59.0
304.13174	59.0
238.09573	58.0
196.0878	58.0
165.09108	57.0
271.1326	56.0
183.11502	53.0
345.16797	53.0
203.1041	52.0
229.12503	52.0
167.08534	52.0
165.06969	52.0
197.06136	51.0
199.07513	50.0
303.11972	49.0
185.09639	48.0
227.10443	46.0
187.07368	46.0
147.04552	46.0
245.07513	45.0
189.05205	44.0
225.09131	43.0
223.10762	43.0
228.11806	41.0
223.09592	41.0
149.09415	41.0
169.06482	40.0
201.08943	39.0
183.08057	39.0
153.06908	39.0
363.17975	38.0
129.07202	36.0
179.08595	36.0
266.1308	36.0
215.07248	35.0
152.06017	34.0
141.06842	34.0
145.06532	34.0
235.14893	33.0
299.14282	33.0
285.1095	33.0
253.12364	32.0
198.06766	32.0
135.0787	31.0
123.04327	31.0
217.08656	30.0
210.06625	29.0
171.07773	29.0
107.08828	29.0
185.06041	29.0
173.09612	29.0
227.06902	29.0
237.09181	28.0
221.08611	28.0
210.10316	28.0
167.08028	27.0
168.09457	27.0
257.08124	27.0
161.05646	26.0
200.08517	26.0
248.11415	26.0
203.08595	26.0
172.08737	25.0
175.0408	25.0
217.04761	25.0
191.08821	25.0
200.04778	25.0
212.08392	24.0
243.13792	24.0
145.05118	24.0
304.11295	22.0
206.07251	22.0
228.07663	21.0
195.07013	21.0
201.05472	21.0
252.11339	20.0
243.08907	20.0
220.08971	19.0
231.09058	18.0
165.06465	14.0
205.04745	13.0
139.03432	13.0
303.10779	13.0
261.07901	13.0
85.06244	12.0
79.05276	12.0

MSID: 9114
ID: 511
RETENTIONTIME: 36.37193
PRECURSORMZ: 317.1751
AREA: 726735.8125
PRECURSORTYPE: [M+H]+
SMILES: [H][C@]12CC[C@]3(OC(=O)C(C)=C3)C3=CC(=O)OC[C@@]13CCCC2(C)C
NAME: castanolide
FORMULA: C19H24O4
INCHIKEY: CMUMLTURMRRALD-ZNZDAUKMSA-N
CAS: nan
Molecular Weight: 316.397
Number of References: 1
Class: Secoabietane diterpenoids
Superclass: Diterpenoids
Pathway: Terpenoids
ppm: -0.18500000004451067
CMID: CM243
IONMODE: Positive
COLLISIONENERGY: 40±20eV
INSTRUMENTTYPE: AB SCIEX
INSTRUMENT: Q-TOF
Comment:  
Num Peaks: 136
317.17731	502.0
299.16611	453.0
271.16769	275.0
211.11343	245.0
229.12177	243.0
217.08771	229.0
215.10666	201.0
173.0598	136.0
281.15399	133.0
243.09941	111.0
253.16226	106.0
183.11345	102.0
241.12289	100.0
231.13789	98.0
195.08081	96.0
161.05872	94.0
171.08006	93.0
289.18008	84.0
213.09322	82.0
196.08752	80.0
231.10216	79.0
165.09087	74.0
167.08511	73.0
143.08313	73.0
228.11035	72.0
187.07343	71.0
205.08644	70.0
169.10025	70.0
202.06113	68.0
201.09193	67.0
243.13759	64.0
153.06886	64.0
181.0663	62.0
155.08691	62.0
193.08603	60.0
199.07625	60.0
239.10597	60.0
152.06479	59.0
200.08351	58.0
189.09219	55.0
213.12897	55.0
193.09964	55.0
95.08507	54.0
257.2081	53.0
141.06824	52.0
131.05104	52.0
203.10382	52.0
145.06158	51.0
197.09683	50.0
238.09842	50.0
69.06889	49.0
257.11542	49.0
219.13875	48.0
168.09308	48.0
259.14053	47.0
129.06738	46.0
221.09601	46.0
219.10829	45.0
175.07556	44.0
191.1042	44.0
225.12479	44.0
143.04916	43.0
147.04651	42.0
127.0525	41.0
185.0575	41.0
177.05476	41.0
185.09348	39.0
223.11316	38.0
207.10124	38.0
159.07864	38.0
178.07663	37.0
227.10117	36.0
55.05445	36.0
157.06416	36.0
163.03854	36.0
179.09227	34.0
128.06018	34.0
177.09254	34.0
271.1532	33.0
241.08336	33.0
183.08296	33.0
217.12091	33.0
210.10571	33.0
147.03938	32.0
201.04889	32.0
205.12291	31.0
154.07866	30.0
223.07513	30.0
219.09814	29.0
245.11621	29.0
209.09758	29.0
197.05421	28.0
211.10347	28.0
299.15256	28.0
117.06633	27.0
247.13055	27.0
149.05806	26.0
174.0675	26.0
243.17577	26.0
256.10507	25.0
91.05273	25.0
195.11774	25.0
123.04745	24.0
166.07892	24.0
85.06593	24.0
159.04282	24.0
257.10287	24.0
158.07472	23.0
198.10185	23.0
172.08585	23.0
199.11079	23.0
184.08751	23.0
182.06927	23.0
317.21219	23.0
81.07168	22.0
214.09804	22.0
181.09924	22.0
299.13223	22.0
127.04587	21.0
233.11203	21.0
67.05463	20.0
173.09717	20.0
213.05032	20.0
189.05719	20.0
206.07082	19.0
191.06358	19.0
220.12137	18.0
79.05439	17.0
233.09409	17.0
132.05754	13.0
107.08205	13.0
144.04305	13.0
121.06197	13.0
117.07163	13.0
57.06951	12.0
139.07455	12.0

MSID: 9115
ID: 470
RETENTIONTIME: 34.93587
PRECURSORMZ: 293.2476
AREA: 725991.5625
PRECURSORTYPE: [M+H]+
SMILES: CC\C=C/C\C=C/C\C=C/CCCCCCCC(=O)OC
NAME: methyl linolenate
FORMULA: C19H32O2
INCHIKEY: DVWSXZIHSUZZKJ-YSTUJMKBSA-N
CAS: 301-00-8
Molecular Weight: 292.462
Number of References: 1709
Class: Wax monoesters
Superclass: Fatty esters
Pathway: Fatty acids
ppm: -0.45500000004494723
CMID: CM243
IONMODE: Positive
COLLISIONENERGY: 40±20eV
INSTRUMENTTYPE: AB SCIEX
INSTRUMENT: Q-TOF
Comment:  
Num Peaks: 70
67.0538	2483.0
81.06989	2452.0
95.08599	1265.0
79.05437	728.0
55.05443	510.0
109.10117	436.0
93.06834	258.0
91.05364	257.0
123.11695	231.0
69.06887	231.0
293.24799	216.0
131.08688	215.0
107.08709	197.0
261.21786	187.0
121.09966	185.0
65.03855	171.0
173.13449	164.0
243.2093	159.0
159.11813	158.0
135.11833	155.0
83.08578	153.0
145.0993	144.0
77.03757	142.0
149.13098	135.0
137.13057	129.0
53.0392	101.0
119.08619	97.0
147.11655	97.0
177.1277	96.0
105.07169	94.0
161.13202	87.0
151.14706	82.0
133.10176	82.0
163.11104	81.0
85.0641	79.0
163.14481	69.0
187.14706	65.0
149.09509	62.0
83.05009	60.0
97.06641	55.0
293.23123	55.0
191.14478	54.0
117.06948	53.0
177.1642	53.0
293.2178	46.0
57.07024	45.0
123.07892	44.0
51.02377	37.0
141.08681	37.0
129.06847	36.0
165.1638	35.0
275.20807	35.0
209.15417	34.0
95.04875	34.0
237.18192	33.0
151.10733	32.0
59.04775	31.0
111.11441	31.0
201.1655	31.0
71.08405	30.0
105.06165	30.0
223.16724	30.0
233.22562	29.0
205.15512	27.0
251.20718	26.0
293.19434	26.0
99.07893	25.0
179.14072	24.0
161.12207	24.0
195.13274	13.0

MSID: 9116
ID: 478
RETENTIONTIME: 35.4412
PRECURSORMZ: 363.1805
AREA: 725638.875
PRECURSORTYPE: [M+H]+
SMILES: [H][C@@]12[C@@H]3OC(=O)[C@@]1(CCCC2(C)C)C1=C(O)C(O)=C(C=C1[C@@H]3O)C(C)CO
NAME: 16-Hydroxyrosmanol
FORMULA: C20H26O6
INCHIKEY: CVXJXNWPXLHWHD-MMKQEVOBSA-N
CAS: nan
Molecular Weight: 362.423
Number of References: 2
Class: Abietane diterpenoids
Superclass: Diterpenoids
Pathway: Terpenoids
ppm: -0.26500000001306034
CMID: CM243
IONMODE: Positive
COLLISIONENERGY: 40±20eV
INSTRUMENTTYPE: AB SCIEX
INSTRUMENT: Q-TOF
Comment:  
Num Peaks: 194
317.17542	5631.0
271.17081	2257.0
299.16431	1589.0
229.12166	1362.0
211.11192	989.0
215.10513	944.0
253.15903	553.0
289.17996	467.0
173.05844	456.0
228.11469	380.0
183.11734	314.0
243.10085	312.0
213.09169	290.0
281.15387	287.0
231.10207	279.0
257.11688	276.0
189.08942	261.0
197.09676	260.0
217.08473	251.0
239.10587	242.0
259.13412	226.0
203.10513	224.0
231.13631	216.0
193.10091	196.0
187.07469	195.0
171.08255	184.0
161.05989	178.0
241.12431	177.0
165.09204	158.0
153.07121	150.0
243.13748	150.0
181.06358	148.0
225.16585	146.0
195.08209	145.0
175.07419	143.0
69.06968	141.0
199.07893	139.0
193.08731	136.0
200.08344	134.0
169.09889	131.0
247.13199	130.0
168.09554	130.0
145.06389	129.0
205.08775	114.0
59.04925	112.0
221.09445	111.0
143.08307	111.0
152.06232	108.0
209.09749	107.0
227.10698	107.0
327.1618	106.0
185.09605	102.0
238.09682	101.0
141.06934	97.0
213.12888	95.0
157.06654	94.0
210.1042	92.0
149.0592	91.0
247.09811	89.0
123.04196	87.0
169.06451	85.0
183.08156	85.0
225.12616	84.0
219.1024	84.0
201.08768	81.0
211.09627	79.0
196.08745	79.0
155.08562	79.0
159.08104	77.0
167.08377	74.0
178.07916	74.0
241.08325	74.0
154.07738	74.0
137.06059	74.0
128.06233	70.0
177.09378	70.0
199.11209	69.0
147.04288	69.0
187.1122	69.0
163.07474	69.0
179.1066	66.0
269.1152	65.0
198.10452	65.0
217.12225	65.0
182.07051	64.0
315.15707	63.0
223.1116	63.0
245.11917	62.0
129.07068	61.0
185.06142	61.0
131.04762	61.0
165.07065	61.0
263.14618	61.0
299.12872	59.0
219.14009	58.0
223.07649	57.0
205.12141	56.0
181.10181	56.0
363.18283	55.0
197.06238	55.0
255.09972	55.0
207.10257	54.0
210.14111	53.0
256.10809	53.0
189.08539	52.0
174.06615	52.0
233.08501	51.0
213.05452	51.0
233.1179	50.0
257.15143	50.0
157.09846	50.0
195.11493	49.0
229.08757	49.0
91.05363	49.0
197.08026	48.0
127.05465	48.0
214.09651	48.0
189.05846	48.0
191.10683	48.0
256.14258	45.0
172.08835	45.0
227.07451	45.0
224.08257	45.0
215.07784	44.0
230.12936	44.0
142.07851	44.0
119.08617	43.0
297.1434	43.0
161.05244	43.0
211.07777	43.0
191.07162	42.0
261.11334	42.0
228.09842	42.0
95.08407	42.0
228.07771	41.0
243.16956	41.0
285.11227	41.0
225.09236	41.0
263.13983	41.0
173.09581	41.0
253.13878	41.0
259.16882	41.0
239.14223	40.0
215.06778	40.0
235.15001	40.0
151.03629	38.0
266.13031	38.0
55.0537	36.0
226.1015	36.0
217.07175	36.0
166.08011	36.0
180.09232	35.0
145.10046	35.0
177.05338	35.0
85.0659	34.0
216.1118	34.0
269.15054	34.0
202.09584	34.0
115.05631	33.0
159.04892	32.0
171.11971	32.0
186.06735	32.0
161.09843	31.0
201.0488	31.0
224.11775	30.0
221.08279	29.0
141.06352	29.0
267.09781	28.0
160.05098	28.0
184.05156	28.0
243.09015	27.0
363.16791	27.0
184.09142	27.0
287.16159	26.0
165.05556	26.0
109.10014	25.0
345.16373	25.0
131.03865	25.0
198.07144	25.0
244.11125	25.0
93.06833	24.0
183.04181	24.0
190.05898	24.0
203.06744	24.0
198.0618	23.0
269.10876	23.0
179.0699	23.0
212.12062	23.0
79.05523	22.0
144.08882	22.0
309.13208	13.0
115.04896	13.0
59.6226	12.0
355.3251	12.0

MSID: 9117
ID: 251
RETENTIONTIME: 29.6159
PRECURSORMZ: 301.18
AREA: 719919.1875
PRECURSORTYPE: [M+H]+
SMILES: CC1=C(O)C(=O)C=C2C(=C1)[C@@H]1CC3C(C)(C)CCC[C@]23CO1
NAME: Miltipolone
FORMULA: C19H24O3
INCHIKEY: QCERTNNJMAPQRG-QLYZIHHJSA-N
CAS: 131086-61-8
Molecular Weight: 300.398
Number of References: 1
Class: Podocarpane diterpenoids
Superclass: Diterpenoids
Pathway: Terpenoids
ppm: -0.3700000000321779
CMID: CM243
IONMODE: Positive
COLLISIONENERGY: 40±20eV
INSTRUMENTTYPE: AB SCIEX
INSTRUMENT: Q-TOF
Comment:  
Num Peaks: 137
227.1087	358.0
283.16949	339.0
301.18216	325.0
231.10233	315.0
157.06427	273.0
241.12306	265.0
185.06161	264.0
259.13284	182.0
213.1291	180.0
245.12097	174.0
165.06958	164.0
203.07047	157.0
255.17352	134.0
129.0697	132.0
223.11186	131.0
171.0789	127.0
128.06027	120.0
199.07915	118.0
203.10536	117.0
55.05303	113.0
258.12167	107.0
199.11093	104.0
141.07065	102.0
197.05847	101.0
153.07018	97.0
185.09627	97.0
175.07309	96.0
152.06128	92.0
183.08044	92.0
225.09409	84.0
217.12105	80.0
184.08498	80.0
181.06247	80.0
201.08929	79.0
143.05161	78.0
173.0625	77.0
195.1165	75.0
231.13359	73.0
188.08226	72.0
211.078	71.0
213.0905	71.0
127.05369	71.0
265.16168	71.0
189.05327	70.0
143.08675	69.0
179.08452	68.0
208.09059	67.0
158.0699	65.0
131.04889	65.0
95.08513	63.0
155.0858	62.0
273.18274	62.0
216.07605	58.0
166.07903	57.0
217.08643	57.0
115.05328	56.0
161.05884	56.0
159.08122	55.0
240.11127	55.0
197.0956	54.0
200.08504	52.0
243.09805	51.0
195.08231	50.0
187.07355	50.0
180.0912	49.0
241.10785	49.0
157.09863	48.0
173.05734	48.0
169.0647	47.0
165.09097	47.0
145.06287	46.0
159.04539	45.0
179.07272	43.0
255.1391	43.0
207.07742	42.0
209.09914	42.0
139.05501	41.0
186.06757	41.0
212.08235	40.0
170.07095	39.0
184.05176	39.0
219.0983	39.0
167.08775	39.0
226.10028	38.0
156.0912	37.0
67.05387	36.0
123.04427	36.0
194.07135	35.0
144.05606	35.0
91.05373	34.0
171.11092	34.0
229.12636	33.0
240.1492	33.0
155.04555	33.0
182.07336	31.0
160.05238	31.0
172.08597	30.0
170.11055	30.0
178.07544	30.0
154.07877	30.0
198.06752	29.0
168.05382	28.0
239.10463	27.0
211.11215	26.0
268.14917	26.0
215.10536	26.0
191.10298	26.0
250.13129	26.0
283.14807	25.0
205.09219	25.0
196.09041	25.0
202.05988	25.0
193.10385	25.0
189.09233	24.0
127.04375	24.0
197.0901	24.0
220.08665	24.0
55.04576	24.0
83.08587	24.0
85.06419	24.0
210.09875	23.0
147.04779	23.0
152.05765	23.0
149.06056	22.0
165.05826	22.0
185.03764	21.0
235.10822	21.0
194.10956	21.0
174.07022	20.0
133.10188	19.0
163.07242	19.0
260.14282	13.0
115.04908	13.0
77.03592	13.0
139.04115	13.0
229.11006	13.0
97.05878	12.0

MSID: 9118
ID: 207
RETENTIONTIME: 28.41567
PRECURSORMZ: 285.0757
AREA: 699333.8125
PRECURSORTYPE: [M+H]+
SMILES: COC1=CC=C(C=C1)C1=CC(=O)C2=C(O)C=C(O)C=C2O1
NAME: 5,7-dihydroxy-2-(4'-methoxyphenyl)-4H-1-benzopyran-4-one
FORMULA: C16H12O5
INCHIKEY: DANYIYRPLHHOCZ-UHFFFAOYSA-N
CAS: 480-44-4
Molecular Weight: 284.268
Number of References: 2135
Class: Flavones
Superclass: Flavonoids
Pathway: Shikimates and Phenylpropanoids
ppm: -0.6000000000199179
CMID: CM243
IONMODE: Positive
COLLISIONENERGY: 40±20eV
INSTRUMENTTYPE: AB SCIEX
INSTRUMENT: Q-TOF
Comment:  
Num Peaks: 66
285.07614	8840.0
242.05768	2534.0
270.05292	662.0
124.01521	502.0
167.03455	388.0
197.06117	372.0
213.05614	318.0
187.03868	271.0
145.03217	138.0
120.05656	121.0
168.05632	117.0
96.01853	109.0
241.05	106.0
185.06024	83.0
196.05196	82.0
119.04887	82.0
160.05359	79.0
91.05464	77.0
186.06752	75.0
145.06519	74.0
224.05197	67.0
243.09952	66.0
169.06212	61.0
157.06792	55.0
121.02862	53.0
139.05382	50.0
214.06087	49.0
65.0378	48.0
141.06946	47.0
67.01617	44.0
225.05583	42.0
140.06389	40.0
68.99487	39.0
131.0511	36.0
187.01726	36.0
255.10149	34.0
158.07356	34.0
171.04298	32.0
128.06245	30.0
127.05145	29.0
173.06117	29.0
55.01887	26.0
267.13965	25.0
132.05536	25.0
151.05447	25.0
149.02466	24.0
152.06123	24.0
167.01303	23.0
95.08701	23.0
93.03251	22.0
123.0073	22.0
159.04413	21.0
201.05037	21.0
111.04223	20.0
242.01501	20.0
142.04128	20.0
68.02211	19.0
107.04865	18.0
199.02521	13.0
215.11681	13.0
157.05809	13.0
246.43983	13.0
118.03905	13.0
222.15755	12.0
79.05442	12.0
62.99888	12.0

MSID: 9119
ID: 286
RETENTIONTIME: 30.48698
PRECURSORMZ: 331.1169
AREA: 697459.1875
PRECURSORTYPE: [M+H]+
SMILES: [H][C@]12CO[C@H](C3=CC=C(O)C(O)=C3)[C@@]1([H])CO[C@@H]2C1=CC(O)=C(O)C=C1
NAME: (-)-3,3'-bisdemethylpinoresinol
FORMULA: C18H18O6
INCHIKEY: OQSOTSIYXPYTRE-YDOWWZDFSA-N
CAS: nan
Molecular Weight: 330.337
Number of References: 19
Class: Furofuranoid lignans
Superclass: Lignans
Pathway: Shikimates and Phenylpropanoids
ppm: -1.265000000046257
CMID: CM243
IONMODE: Positive
COLLISIONENERGY: 40±20eV
INSTRUMENTTYPE: AB SCIEX
INSTRUMENT: Q-TOF
Comment:  
Num Peaks: 115
197.04471	9559.0
331.11557	2427.0
182.02049	1911.0
136.0159	1863.0
164.01051	1097.0
161.06131	612.0
133.06459	256.0
139.00304	244.0
153.01807	224.0
108.02163	190.0
313.14377	121.0
80.02398	105.0
285.14566	90.0
313.17322	83.0
154.02769	78.0
285.18533	77.0
137.02061	75.0
289.10864	73.0
271.13239	72.0
121.06527	63.0
215.10966	58.0
52.02983	58.0
331.19043	57.0
79.0527	54.0
68.99651	51.0
182.00331	50.0
161.0526	50.0
163.99797	49.0
103.05564	46.0
91.05653	46.0
166.9966	44.0
169.06723	40.0
134.07198	39.0
181.01237	38.0
217.12103	38.0
105.07078	38.0
169.04941	38.0
209.0977	37.0
211.07372	37.0
77.03849	36.0
283.16946	36.0
165.02553	34.0
215.06801	34.0
181.08354	34.0
331.09241	34.0
109.06138	34.0
152.00934	34.0
237.12933	33.0
191.10838	33.0
229.12338	32.0
187.07487	32.0
165.06831	31.0
331.14941	29.0
331.17438	29.0
118.03907	29.0
133.09961	28.0
195.07956	28.0
242.08514	28.0
271.10013	27.0
243.13927	27.0
141.05319	27.0
257.06848	26.0
303.15189	26.0
295.13809	26.0
209.05096	25.0
301.18555	25.0
225.1161	25.0
203.06766	25.0
135.04332	25.0
137.01144	25.0
183.0791	25.0
103.05067	25.0
178.0715	25.0
252.07588	24.0
227.10426	24.0
285.13406	24.0
128.06247	24.0
199.07498	24.0
200.07948	23.0
223.11183	23.0
267.13492	23.0
126.03127	23.0
203.10533	23.0
265.12177	23.0
315.08786	23.0
240.1158	23.0
243.06291	23.0
125.02396	23.0
245.12096	23.0
55.01815	22.0
143.05042	22.0
135.99762	22.0
316.09872	22.0
179.08319	22.0
221.13254	22.0
195.07545	22.0
285.11423	21.0
145.09706	21.0
80.0196	21.0
154.02162	21.0
79.01874	20.0
159.11827	20.0
111.00716	20.0
131.08476	20.0
163.03989	20.0
155.08456	19.0
211.11072	19.0
90.04348	19.0
133.05215	18.0
231.10081	17.0
213.05188	17.0
95.04884	16.0
173.05089	13.0
73.02946	12.0
63.02299	12.0

MSID: 9120
ID: 134
RETENTIONTIME: 23.7445
PRECURSORMZ: 421.1863
AREA: 687744.875
PRECURSORTYPE: [M+H]+
SMILES: [H][C@]12[C@@H](O)[C@H](O)C=C3C(=O)OC[C@@]13C[C@@H](OC(C)=O)[C@H](C)[C@]2(C)C[C@@H](O)C1=COC=C1
NAME: Acetic acid (5R,6R,6aR,7S,8R,9R,10aS)-7-((R)-2-furan-3-yl-2-hydroxy-ethyl)-5,6-dihydroxy-7,8-dimethyl-3-oxo-3,5,6,6a,7,8,9,10-octahydro-2-oxa-cyclopenta[d]naphthalen-9-yl ester
FORMULA: C22H28O8
INCHIKEY: IBLBZUYWMXRHOH-LMPOLWKMSA-N
CAS: nan
Molecular Weight: 420.46
Number of References: 1
Class: Colensane and Clerodane diterpenoids
Superclass: Diterpenoids
Pathway: Terpenoids
ppm: 0.05499999997482519
CMID: CM243
IONMODE: Positive
COLLISIONENERGY: 40±20eV
INSTRUMENTTYPE: AB SCIEX
INSTRUMENT: Q-TOF
Comment:  
Num Peaks: 209
261.1123	2377.0
325.14432	1330.0
361.16315	1018.0
289.10895	846.0
297.14908	759.0
219.06516	720.0
271.09558	608.0
313.14407	538.0
331.15512	483.0
237.09338	456.0
209.0965	405.0
343.15491	381.0
255.10022	363.0
267.13678	353.0
283.13348	287.0
295.13333	272.0
233.11688	237.0
307.13327	235.0
225.08989	224.0
279.13651	221.0
227.10596	206.0
243.10286	200.0
247.09862	200.0
421.18683	189.0
191.06931	176.0
315.16119	165.0
319.1571	159.0
231.10254	157.0
253.08475	152.0
241.08374	151.0
211.07393	149.0
254.09227	145.0
285.14923	144.0
249.1288	143.0
270.09027	138.0
331.14441	136.0
213.09355	130.0
271.13428	129.0
271.08911	127.0
265.08218	125.0
301.13824	123.0
269.11734	117.0
213.05353	116.0
227.07202	110.0
259.09366	110.0
229.08803	109.0
283.09723	102.0
217.08662	99.0
181.10217	97.0
277.12097	94.0
165.06973	94.0
228.07965	93.0
273.11017	92.0
215.10699	92.0
267.10156	89.0
197.09578	89.0
297.11362	82.0
255.09396	79.0
269.1543	77.0
239.10788	76.0
219.09995	76.0
243.06316	75.0
193.10403	74.0
145.06418	74.0
255.06581	73.0
195.07976	70.0
253.11748	70.0
245.11659	69.0
287.12735	69.0
235.0739	69.0
246.08817	68.0
287.0925	68.0
218.09357	68.0
257.08286	66.0
183.08192	66.0
264.11356	65.0
173.06137	65.0
255.13777	64.0
240.07809	63.0
239.07001	63.0
285.11618	61.0
298.11725	61.0
223.07549	60.0
295.09464	59.0
256.07257	59.0
203.10555	59.0
252.11345	59.0
299.12595	59.0
231.06383	58.0
251.1409	58.0
224.08302	58.0
282.08963	58.0
265.12524	56.0
201.05754	56.0
181.06395	56.0
300.13126	54.0
166.07791	54.0
403.17322	53.0
273.14417	53.0
179.08337	53.0
236.11868	51.0
288.10065	50.0
261.07431	50.0
230.06001	50.0
157.10001	50.0
221.09489	49.0
141.07079	49.0
312.13794	49.0
385.16873	48.0
295.11819	48.0
246.05284	48.0
251.10365	47.0
197.06003	47.0
185.09776	47.0
189.05209	47.0
272.10599	47.0
281.11667	47.0
262.0976	46.0
207.08185	46.0
245.0798	46.0
169.06358	46.0
284.10004	45.0
221.12985	45.0
269.082	44.0
233.09744	44.0
315.12122	44.0
310.11673	44.0
205.05031	44.0
185.06046	44.0
155.08472	43.0
163.07632	43.0
267.08875	43.0
348.1568	43.0
159.11595	42.0
153.07031	42.0
282.11758	42.0
243.08759	41.0
237.12204	41.0
236.08406	41.0
268.11252	40.0
258.08414	40.0
233.08099	39.0
183.04085	38.0
287.16882	38.0
270.12567	38.0
330.14713	38.0
237.07076	38.0
261.08539	38.0
281.15771	37.0
264.07855	36.0
167.08537	36.0
196.08647	36.0
203.06926	36.0
199.07933	36.0
280.11261	35.0
199.06828	35.0
257.11899	35.0
256.06158	35.0
286.12418	35.0
171.08034	34.0
200.08522	34.0
212.08539	34.0
177.05374	32.0
263.10699	32.0
239.1427	32.0
245.04607	32.0
284.138	31.0
178.07692	31.0
242.05948	31.0
297.10013	31.0
267.05994	30.0
224.11967	29.0
313.10422	29.0
211.1095	29.0
373.16022	29.0
175.07584	29.0
127.0538	28.0
275.08835	28.0
205.08397	28.0
208.08936	28.0
210.10321	28.0
210.0663	28.0
301.10596	27.0
361.12595	27.0
232.10414	25.0
249.08243	24.0
289.08063	24.0
204.07536	24.0
193.06865	24.0
391.17746	24.0
309.11548	23.0
289.06564	23.0
215.0912	23.0
240.11148	23.0
83.04845	22.0
300.09903	22.0
226.06808	22.0
179.06895	22.0
325.09311	22.0
272.09305	21.0
292.10751	20.0
189.08038	19.0
348.14948	15.0
377.16095	13.0
152.06383	13.0
129.06871	13.0
133.10088	12.0
81.03477	12.0
57.06812	12.0

MSID: 9121
ID: 353
RETENTIONTIME: 31.60367
PRECURSORMZ: 267.173
AREA: 679415.6875
PRECURSORTYPE: [M+H]+
SMILES: CC(C)C1=CC2=C(C=C1O)C1=C(CC2)C(C)=C(C)C=C1
NAME: 9,10-dihydro-7,8-dimethyl-2-(1-methylethyl)phenanthren-3-ol
FORMULA: C19H22O
INCHIKEY: DZXJOGOEZWVRTO-UHFFFAOYSA-N
CAS: nan
Molecular Weight: 266.383
Number of References: 4
Class: Phenanthrenes
Superclass: Phenanthrenoids
Pathway: Shikimates and Phenylpropanoids
ppm: -1.890000000003056
CMID: CM243
IONMODE: Positive
COLLISIONENERGY: 40±20eV
INSTRUMENTTYPE: AB SCIEX
INSTRUMENT: Q-TOF
Comment:  
Num Peaks: 67
267.17657	765.0
197.097	746.0
165.06834	244.0
169.10294	232.0
153.07021	230.0
154.0788	213.0
209.13315	178.0
211.11076	177.0
152.06129	177.0
181.06514	177.0
225.12645	166.0
179.08586	163.0
167.08398	144.0
178.07808	124.0
224.15616	108.0
141.06834	106.0
183.07913	105.0
182.07074	103.0
239.14403	103.0
169.06599	102.0
195.07961	98.0
128.0625	90.0
239.17886	86.0
181.10204	84.0
224.1239	80.0
183.11491	79.0
196.08907	74.0
155.08704	74.0
197.08463	70.0
166.07779	63.0
197.13138	59.0
193.10524	58.0
210.10304	53.0
196.12198	53.0
191.08676	51.0
129.0686	49.0
194.07002	49.0
207.11551	48.0
55.05376	48.0
157.06552	47.0
223.10603	47.0
177.06924	46.0
143.08443	46.0
105.03366	41.0
237.12939	41.0
151.05452	40.0
169.09401	40.0
154.07271	35.0
223.14992	35.0
128.05142	32.0
193.09708	32.0
208.08638	32.0
211.10365	30.0
180.09386	29.0
189.0708	29.0
192.09264	28.0
190.07677	23.0
267.15576	23.0
163.05368	22.0
203.08305	22.0
155.07727	22.0
239.1304	22.0
205.10063	21.0
149.05939	21.0
234.14064	13.0
172.53081	12.0
71.04532	12.0

MSID: 9122
ID: 333
RETENTIONTIME: 31.17302
PRECURSORMZ: 447.201
AREA: 678860.9375
PRECURSORTYPE: [M+H]+
SMILES: [H][C@]12C[C@H](OC(C)=O)C=C3C(=O)OC[C@@]13C[C@@H](OC(C)=O)[C@@H](C)[C@]2(C)C[C@@H](O)C1=COC=C1
NAME: salvigresin
FORMULA: C24H30O8
INCHIKEY: QNEVSNMXAPYPNG-OLAFXDAZSA-N
CAS: nan
Molecular Weight: 446.497
Number of References: 2
Class: Colensane and Clerodane diterpenoids
Superclass: Diterpenoids
Pathway: Terpenoids
ppm: -0.895000000014079
CMID: CM243
IONMODE: Positive
COLLISIONENERGY: 40±20eV
INSTRUMENTTYPE: AB SCIEX
INSTRUMENT: Q-TOF
Comment:  
Num Peaks: 219
315.15918	10995.0
327.1604	4769.0
271.09692	2416.0
299.16293	1657.0
272.10574	1261.0
297.1488	1073.0
309.14792	891.0
281.15417	804.0
255.10156	745.0
286.12061	680.0
300.13608	665.0
243.10112	624.0
239.10463	540.0
267.10291	511.0
285.15063	427.0
284.10306	341.0
285.11591	331.0
273.11154	327.0
257.15173	316.0
257.11719	309.0
209.0963	291.0
221.09616	286.0
229.05077	279.0
254.0936	273.0
314.14807	261.0
269.15247	254.0
227.10576	239.0
257.0795	237.0
249.08994	236.0
237.09015	232.0
387.17963	231.0
357.16666	212.0
282.12393	200.0
243.06599	192.0
213.05333	192.0
245.08112	188.0
291.13721	176.0
279.13461	166.0
225.09116	163.0
205.08519	159.0
243.09348	157.0
225.05441	148.0
241.04855	146.0
215.10681	145.0
219.10265	144.0
193.10249	141.0
312.13593	136.0
256.10995	135.0
239.06828	135.0
201.0518	133.0
227.07033	130.0
269.1171	129.0
256.07077	128.0
241.08656	128.0
251.14378	126.0
269.08017	119.0
197.05849	115.0
263.14331	113.0
211.07231	111.0
211.11073	107.0
197.0956	105.0
255.06403	104.0
217.08786	97.0
181.09938	96.0
253.15932	95.0
230.05832	95.0
251.10654	91.0
253.12036	90.0
266.09225	90.0
236.11696	89.0
281.11807	88.0
268.11227	86.0
193.08617	86.0
178.07675	85.0
195.08095	83.0
215.07234	82.0
229.08337	80.0
267.13654	79.0
259.09659	79.0
255.08905	77.0
185.05896	77.0
284.13773	77.0
228.07944	76.0
242.09737	75.0
226.10028	73.0
238.09708	72.0
169.0647	71.0
254.12952	70.0
240.07939	70.0
251.06929	68.0
258.08862	68.0
224.08429	68.0
203.08302	67.0
231.08446	67.0
294.12271	67.0
447.19528	66.0
231.10233	65.0
228.04247	65.0
264.11331	64.0
244.07022	64.0
266.1322	64.0
248.12016	64.0
297.11166	63.0
223.1104	61.0
253.0892	61.0
283.09534	61.0
165.06833	61.0
242.05621	61.0
196.08766	60.0
234.06569	59.0
221.09033	59.0
206.07097	57.0
183.08177	57.0
252.0759	57.0
447.30713	56.0
166.07777	56.0
271.16949	55.0
229.12192	55.0
265.0899	54.0
214.06093	54.0
286.09741	54.0
298.12036	54.0
213.0905	52.0
231.06808	50.0
181.06511	49.0
221.05829	49.0
312.12555	48.0
173.05864	47.0
179.08846	46.0
369.16919	46.0
339.1568	46.0
263.10834	46.0
169.10036	45.0
279.09863	45.0
305.10587	44.0
327.11435	44.0
207.08025	44.0
233.09274	43.0
341.16724	43.0
199.07225	42.0
267.13171	42.0
209.05806	41.0
235.14728	41.0
276.11731	40.0
267.0741	38.0
265.1218	37.0
189.05597	37.0
201.04903	37.0
411.28586	37.0
191.08673	37.0
393.27969	36.0
220.12733	36.0
271.12598	36.0
189.08963	36.0
141.06949	36.0
313.15073	36.0
249.12703	36.0
183.11623	35.0
250.09567	35.0
223.07529	35.0
223.14844	35.0
163.07492	35.0
235.11124	35.0
167.08522	34.0
81.06909	34.0
201.09346	34.0
194.07817	33.0
241.12459	33.0
219.07655	33.0
228.07353	33.0
207.06334	32.0
314.12897	32.0
182.076	32.0
191.0705	31.0
313.1022	31.0
153.0714	29.0
210.10587	29.0
221.12965	28.0
129.0697	28.0
429.30536	28.0
345.16229	27.0
309.1066	27.0
93.07033	27.0
242.13394	27.0
224.11948	26.0
297.09647	26.0
200.08228	26.0
248.07388	26.0
218.10783	26.0
251.05843	26.0
228.1105	26.0
214.09962	26.0
157.06795	26.0
247.09377	25.0
301.1091	25.0
256.06137	25.0
285.06961	25.0
180.09251	24.0
233.05687	24.0
95.088	24.0
295.1297	24.0
208.08635	24.0
287.12543	24.0
145.06406	24.0
187.06819	24.0
243.13623	24.0
190.06189	23.0
213.03905	23.0
125.09735	23.0
236.08536	23.0
238.13637	23.0
152.06369	23.0
243.04462	23.0
196.04515	22.0
216.08037	22.0
177.09137	22.0
289.10703	21.0
374.16705	15.0
141.06483	13.0

MSID: 9123
ID: 156
RETENTIONTIME: 26.78898
PRECURSORMZ: 394.2235
AREA: 658462.25
PRECURSORTYPE: [M+NH4]+
SMILES: CCOC(=O)[C@@]1(O)C2=C3CCCC(C)(C)C3=CC=C2C(=O)[C@]1(O)[C@@H](C)CO
NAME: salvianone ester B
FORMULA: C21H28O6
INCHIKEY: XYVQLQAAKDUMGO-QDEDPJFRSA-N
CAS: nan
Molecular Weight: 376.45
Number of References: 1
Class: nan
Superclass: Diterpenoids
Pathway: Terpenoids
ppm: 0.5360000000109721
CMID: CM243
IONMODE: Positive
COLLISIONENERGY: 40±20eV
INSTRUMENTTYPE: AB SCIEX
INSTRUMENT: Q-TOF
Comment:  
Num Peaks: 229
217.05025	3938.0
277.10754	3232.0
313.18002	1115.0
259.09647	1078.0
377.19846	1068.0
283.17099	1019.0
297.18582	711.0
359.18314	681.0
299.1662	619.0
223.11176	611.0
215.10957	575.0
318.14792	529.0
245.1178	500.0
289.10855	496.0
315.19727	395.0
300.17328	391.0
213.09184	360.0
331.18851	358.0
271.16617	353.0
229.12477	331.0
239.10905	328.0
265.15836	319.0
255.13742	315.0
303.12109	296.0
281.15405	286.0
253.12335	285.0
295.16995	273.0
161.05876	263.0
221.09605	255.0
218.09326	246.0
177.09129	245.0
233.11806	238.0
241.12143	231.0
243.101	218.0
257.12021	210.0
193.1024	200.0
227.10565	199.0
187.11098	199.0
271.13068	187.0
309.14606	187.0
240.11722	184.0
173.05855	179.0
327.16379	179.0
225.08958	178.0
267.1012	177.0
195.07811	175.0
195.11778	171.0
191.0704	170.0
165.07076	158.0
243.06435	158.0
211.11064	156.0
254.12939	150.0
231.10222	141.0
209.09479	138.0
237.11266	137.0
203.07176	135.0
145.06516	134.0
270.12851	132.0
257.15631	131.0
174.06885	131.0
341.17252	127.0
211.07506	127.0
241.0834	125.0
238.09999	121.0
199.07492	119.0
172.08846	118.0
107.08613	115.0
181.06766	114.0
197.0955	113.0
199.11084	111.0
226.09723	111.0
189.05858	108.0
231.06648	106.0
345.17487	105.0
263.1416	102.0
284.1409	102.0
183.11746	97.0
208.08766	97.0
267.138	96.0
228.11188	95.0
165.08963	94.0
179.08575	93.0
171.08009	92.0
189.0909	92.0
285.11081	91.0
227.10123	91.0
181.10193	91.0
55.05446	90.0
256.14587	86.0
221.09023	83.0
244.10988	83.0
274.08664	81.0
205.08649	79.0
222.10204	78.0
157.06541	76.0
169.06717	75.0
183.08168	74.0
178.07797	72.0
185.09618	72.0
268.14743	72.0
317.13901	72.0
141.07059	72.0
180.09242	70.0
169.09901	69.0
200.08356	68.0
273.15189	68.0
210.10434	68.0
313.14017	67.0
153.07011	66.0
237.12775	66.0
202.02359	65.0
159.07991	64.0
217.08344	63.0
196.08757	60.0
184.09154	60.0
285.14883	59.0
282.16327	59.0
201.05588	57.0
91.05275	57.0
291.13705	56.0
191.10425	56.0
237.15941	56.0
287.11865	55.0
272.13629	55.0
167.08514	55.0
269.15234	54.0
224.08418	54.0
237.09155	54.0
154.0787	52.0
298.15912	52.0
235.10962	52.0
248.1185	52.0
149.06049	51.0
265.12167	51.0
207.07874	51.0
197.06252	50.0
142.07509	50.0
128.06242	50.0
230.09386	50.0
149.09875	49.0
250.13582	49.0
236.11835	48.0
281.13599	47.0
275.1286	47.0
243.13765	47.0
318.12344	47.0
215.06648	47.0
235.06157	47.0
377.17181	47.0
267.17642	46.0
299.12213	46.0
191.06093	46.0
184.05566	45.0
249.09445	45.0
212.07939	44.0
131.04883	43.0
394.22595	43.0
251.10797	43.0
224.1179	43.0
233.08067	43.0
182.07063	42.0
214.09665	42.0
256.10825	41.0
194.07399	41.0
188.08351	41.0
267.0932	40.0
143.08199	40.0
229.09364	40.0
168.09311	40.0
252.11154	40.0
155.08694	39.0
220.12723	39.0
173.09464	39.0
195.06854	38.0
247.05824	38.0
203.11084	37.0
222.13852	37.0
228.07933	37.0
190.06316	36.0
190.0753	36.0
123.04421	36.0
210.06885	35.0
253.15141	35.0
175.0743	35.0
267.17163	35.0
227.07022	35.0
239.14389	34.0
129.07076	34.0
269.18768	33.0
225.05579	33.0
213.12044	32.0
225.16306	32.0
156.09602	32.0
261.11353	32.0
176.04497	31.0
146.03879	31.0
224.07538	31.0
221.07858	31.0
218.05566	31.0
270.09149	31.0
152.06	31.0
201.08365	30.0
202.09737	30.0
246.08783	30.0
160.05232	29.0
331.1582	28.0
183.04193	28.0
289.08023	28.0
158.0723	28.0
259.06177	28.0
209.05939	27.0
239.06969	27.0
323.13904	26.0
265.13922	26.0
284.13431	26.0
277.07004	26.0
259.1264	26.0
214.06226	25.0
226.05894	25.0
216.07883	25.0
268.10733	24.0
229.04176	24.0
169.09009	24.0
95.08795	24.0
245.05339	24.0
204.09328	23.0
149.05571	13.0
133.05211	13.0
77.04104	12.0

MSID: 9124
ID: 50
RETENTIONTIME: 14.3007
PRECURSORMZ: 449.1086
AREA: 656089.75
PRECURSORTYPE: [M+H]+
SMILES: OC[C@H]1OC(OC2=CC=C(C=C2O)C2=CC(=O)C3=C(O2)C=C(O)C=C3O)[C@H](O)[C@@H](O)[C@@H]1O
NAME: luteolin-4'-O-glucoside
FORMULA: C21H20O11
INCHIKEY: UHNXUSWGOJMEFO-MKJMBMEGSA-N
CAS: 6920-38-3
Molecular Weight: 448.383
Number of References: 22
Class: Flavones
Superclass: Flavonoids
Pathway: Shikimates and Phenylpropanoids
ppm: 0.20999999998139174
CMID: CM243
IONMODE: Positive
COLLISIONENERGY: 40±20eV
INSTRUMENTTYPE: AB SCIEX
INSTRUMENT: Q-TOF
Comment:  
Num Peaks: 21
287.05594	18516.0
449.10727	1476.0
153.0182	284.0
241.05026	84.0
135.04344	81.0
179.03355	40.0
269.04343	39.0
245.04605	33.0
449.06577	33.0
286.09766	26.0
161.02789	25.0
273.06482	25.0
137.02303	20.0
117.03154	18.0
68.99657	14.0
241.02441	13.0
212.04829	13.0
171.03932	13.0
133.02856	13.0
83.04845	12.0
192.08598	12.0

MSID: 9125
ID: 456
RETENTIONTIME: 34.02375
PRECURSORMZ: 281.1536
AREA: 655351.5625
PRECURSORTYPE: [M+H]+
SMILES: CC(C)C1=CC(=O)C2=C(C=CC3=C2C=CCC3(C)C)C1=O
NAME: sibiriquinone A
FORMULA: C19H20O2
INCHIKEY: QLYRTJYMSVNUFC-UHFFFAOYSA-N
CAS: nan
Molecular Weight: 280.367
Number of References: 5
Class: Secoabietane diterpenoids
Superclass: Diterpenoids
Pathway: Terpenoids
ppm: -0.5550000000198452
CMID: CM243
IONMODE: Positive
COLLISIONENERGY: 40±20eV
INSTRUMENTTYPE: AB SCIEX
INSTRUMENT: Q-TOF
Comment:  
Num Peaks: 95
281.15405	2913.0
205.10191	693.0
253.15764	566.0
223.1132	551.0
221.09604	545.0
266.12888	461.0
193.10239	431.0
178.07666	398.0
233.09563	364.0
238.13322	360.0
165.07076	332.0
190.07664	321.0
251.10951	318.0
181.10191	272.0
238.09998	254.0
195.08084	253.0
195.11778	251.0
209.09477	243.0
189.07068	219.0
167.08388	206.0
263.14316	181.0
211.11348	178.0
210.14125	175.0
191.08528	161.0
211.14621	157.0
183.11745	157.0
218.07446	153.0
196.08894	146.0
179.08574	144.0
153.07132	143.0
181.06502	141.0
141.07059	133.0
152.0612	133.0
166.07768	132.0
224.11935	131.0
225.16158	130.0
220.12723	129.0
215.08659	120.0
206.07367	118.0
208.08766	117.0
248.12157	114.0
192.09251	113.0
239.10905	112.0
207.08296	110.0
235.14415	109.0
155.0845	108.0
196.12323	106.0
223.07518	105.0
210.10576	104.0
154.07748	101.0
203.08711	94.0
169.10155	93.0
205.06544	92.0
180.09636	90.0
182.10895	86.0
177.06912	85.0
202.07925	85.0
222.1064	83.0
171.11725	71.0
219.07935	69.0
142.0786	65.0
156.08868	59.0
253.12646	56.0
197.134	55.0
220.0909	55.0
185.0975	54.0
230.10574	53.0
235.11261	53.0
183.08035	52.0
247.11058	50.0
157.09979	50.0
197.101	49.0
223.09419	49.0
206.10742	49.0
129.06964	49.0
168.09311	48.0
194.07126	47.0
245.12852	45.0
209.13161	45.0
176.06314	44.0
193.08334	44.0
225.12483	43.0
251.08934	42.0
210.09297	42.0
238.08789	40.0
151.05202	38.0
237.09305	34.0
128.06352	33.0
207.10974	33.0
168.08295	33.0
239.17569	28.0
229.09956	26.0
265.12485	25.0
143.08434	23.0
133.52022	12.0

MSID: 9126
ID: 533
RETENTIONTIME: 36.7976
PRECURSORMZ: 471.3463
AREA: 653586.875
PRECURSORTYPE: [M+H]+
SMILES: [H][C@@]12CC(C)(C)CC[C@@]1(CC[C@]1(C)C2=CC(=O)[C@]2([H])[C@@]3(C)CC[C@H](O)C(C)(C)[C@]3([H])CC[C@@]12C)C(O)=O
NAME: 11-oxooleanolic acid
FORMULA: C30H46O4
INCHIKEY: ILTQYWVUOPDTOL-DBWGAYEVSA-N
CAS: nan
Molecular Weight: 470.693
Number of References: 20
Class: Oleanane triterpenoids
Superclass: Triterpenoids
Pathway: Terpenoids
ppm: -1.1350000000334148
CMID: CM243
IONMODE: Positive
COLLISIONENERGY: 40±20eV
INSTRUMENTTYPE: AB SCIEX
INSTRUMENT: Q-TOF
Comment:  
Num Peaks: 151
471.34659	1177.0
203.17905	756.0
453.33157	492.0
161.13071	351.0
133.10057	335.0
425.34265	311.0
135.11714	282.0
147.1153	265.0
191.17989	252.0
107.084	234.0
121.10068	227.0
109.10113	222.0
95.085	217.0
217.19435	207.0
187.14832	184.0
119.08508	175.0
189.16479	169.0
81.06985	147.0
149.1333	145.0
175.14671	140.0
123.11581	114.0
163.14725	110.0
173.13441	109.0
93.07114	109.0
435.32828	105.0
201.16541	98.0
243.2092	97.0
207.13493	96.0
217.19003	91.0
159.11559	91.0
411.32898	89.0
55.05368	87.0
131.08458	85.0
245.22644	85.0
177.16542	80.0
145.09924	78.0
69.06966	78.0
105.06963	75.0
453.31281	67.0
215.1769	66.0
221.1541	64.0
383.29221	64.0
181.12021	64.0
179.10524	63.0
205.19852	62.0
233.15523	62.0
263.16516	60.0
229.1972	59.0
235.16797	58.0
213.16313	58.0
193.12263	57.0
137.12936	56.0
247.16887	55.0
171.11453	54.0
231.20921	53.0
365.31549	52.0
157.10088	51.0
205.12416	51.0
67.05538	49.0
231.13625	49.0
165.09326	49.0
343.22668	49.0
407.33234	48.0
139.07677	46.0
471.38486	45.0
153.09056	45.0
199.14935	44.0
79.05434	43.0
167.10651	42.0
289.2132	41.0
275.20145	41.0
209.15408	38.0
83.08575	38.0
303.20267	36.0
161.09341	36.0
219.13713	36.0
341.24817	35.0
245.15437	35.0
185.13197	35.0
285.2561	34.0
91.0564	34.0
177.12761	34.0
151.1494	34.0
219.21107	33.0
387.25229	33.0
201.12929	33.0
249.18851	33.0
57.06947	33.0
111.07823	32.0
305.17215	31.0
361.24051	31.0
191.10406	29.0
241.19572	29.0
269.22278	29.0
319.19138	29.0
261.1861	29.0
283.2037	28.0
365.27805	28.0
187.11482	28.0
453.27109	27.0
471.27429	27.0
191.16229	27.0
355.25854	27.0
279.15552	26.0
357.2439	26.0
195.1176	26.0
393.31412	26.0
97.104	26.0
293.16568	26.0
219.17339	25.0
369.27969	25.0
301.17834	25.0
375.25095	25.0
297.22604	25.0
189.12305	25.0
251.17912	25.0
125.09827	25.0
137.0984	25.0
241.16074	25.0
205.08769	25.0
257.21735	25.0
315.22305	24.0
135.07957	24.0
153.09904	24.0
203.14973	24.0
273.18561	23.0
217.15971	23.0
415.28128	23.0
191.13927	23.0
301.20895	22.0
265.18045	22.0
253.1465	22.0
411.28329	22.0
243.17255	22.0
237.14864	21.0
103.05451	21.0
175.1143	20.0
277.17902	20.0
143.0842	20.0
147.07729	19.0
225.16138	19.0
261.14493	18.0
171.11325	18.0
149.09264	17.0
259.164	15.0
363.2518	13.0
355.2327	13.0
289.17654	13.0
233.91853	12.0
77.04355	12.0
71.08484	12.0

MSID: 9127
ID: 206
RETENTIONTIME: 28.3897
PRECURSORMZ: 375.1069
AREA: 646981.25
PRECURSORTYPE: [M+H]+
SMILES: [H][C@](CC1=CC(O)=C(O)C=C1)(OC(=O)\C=C\C1=CC(O)=C(O)C=C1)C(=O)OC
NAME: rosmarinic acid methyl ester
FORMULA: C19H18O8
INCHIKEY: XHALVRQBZGZHFE-BBOMDTFKSA-N
CAS: 99353-00-1
Molecular Weight: 374.347
Number of References: 276
Class: Cinnamic acids and derivatives
Superclass: Phenylpropanoids (C6-C3)
Pathway: Shikimates and Phenylpropanoids
ppm: -1.0950000000207183
CMID: CM243
IONMODE: Positive
COLLISIONENERGY: 40±20eV
INSTRUMENTTYPE: AB SCIEX
INSTRUMENT: Q-TOF
Comment:  
Num Peaks: 100
375.1055	5186.0
317.06598	1061.0
299.0563	702.0
359.07761	665.0
342.07245	568.0
345.06052	467.0
360.0842	402.0
271.05994	342.0
327.05069	195.0
284.03217	186.0
314.08044	173.0
274.04956	172.0
311.05722	164.0
341.06244	157.0
325.06644	128.0
302.04291	117.0
289.07047	105.0
313.07281	95.0
256.03323	93.0
343.08395	88.0
285.07794	83.0
228.04253	83.0
330.03659	79.0
329.0676	75.0
344.05698	73.0
226.06058	71.0
151.03889	71.0
312.0322	63.0
311.12631	61.0
283.0575	61.0
243.06453	60.0
297.07123	58.0
269.04169	58.0
241.05014	53.0
217.05042	52.0
284.06519	52.0
261.07733	50.0
327.02942	50.0
242.06085	50.0
212.04675	49.0
153.01813	48.0
328.05927	45.0
297.03915	44.0
331.08182	42.0
296.06937	41.0
215.06808	41.0
281.04752	40.0
259.02258	40.0
289.06213	40.0
312.06335	38.0
257.04346	38.0
298.04605	38.0
301.07178	36.0
314.04575	34.0
183.02881	33.0
326.04364	33.0
177.05232	32.0
187.07629	32.0
299.02582	31.0
240.04456	31.0
257.08112	31.0
149.05821	30.0
341.04614	30.0
229.05083	29.0
316.06403	28.0
241.03796	28.0
227.07335	27.0
329.14224	26.0
299.00549	26.0
183.04604	26.0
254.05933	25.0
273.04364	25.0
189.01562	25.0
360.03403	24.0
310.04929	23.0
345.03503	23.0
301.0293	23.0
173.05997	23.0
245.04285	23.0
137.02411	23.0
340.95572	22.0
282.04834	22.0
159.04173	22.0
205.05017	22.0
161.05888	22.0
181.01509	20.0
225.05301	20.0
203.03703	20.0
329.05341	20.0
151.02927	20.0
253.04408	18.0
211.0368	17.0
131.08257	16.0
141.06256	13.0
147.04547	13.0
109.0246	13.0
160.05119	13.0
171.04436	13.0
201.05742	13.0
319.12543	12.0

MSID: 9128
ID: 558
RETENTIONTIME: 37.4694
PRECURSORMZ: 309.2779
AREA: 642860.25
PRECURSORTYPE: [M+H]+
SMILES: [H][C@@]12CC[C@@](C)(O)[C@H](CC[C@@](C)(O)C=C)[C@@]1(C)CCCC2(C)C
NAME: sclareol
FORMULA: C20H36O2
INCHIKEY: XVULBTBTFGYVRC-HHUCQEJWSA-N
CAS: 515-03-7
Molecular Weight: 308.505
Number of References: 715
Class: Labdane diterpenoids
Superclass: Diterpenoids
Pathway: Terpenoids
ppm: -1.4550000000213004
CMID: CM243
IONMODE: Positive
COLLISIONENERGY: 40±20eV
INSTRUMENTTYPE: AB SCIEX
INSTRUMENT: Q-TOF
Comment:  
Num Peaks: 56
81.06984	352.0
95.08498	329.0
57.06946	288.0
69.06883	243.0
67.05296	242.0
55.0544	214.0
109.1011	210.0
309.27832	180.0
83.08574	174.0
71.08565	136.0
123.11578	133.0
109.06531	100.0
137.13049	96.0
97.10109	82.0
263.27158	72.0
151.14816	61.0
121.10065	58.0
137.09608	58.0
291.26877	57.0
79.05432	53.0
193.19475	51.0
85.10109	49.0
105.06861	48.0
93.07018	48.0
95.04964	47.0
133.10054	47.0
97.06442	41.0
111.11847	40.0
149.13208	39.0
107.08601	39.0
161.13068	36.0
221.19048	36.0
309.25421	35.0
125.13221	33.0
53.03846	32.0
165.16371	30.0
207.20819	30.0
175.14539	28.0
123.07993	27.0
179.17599	26.0
135.11826	26.0
147.11171	25.0
77.03666	24.0
235.20097	24.0
157.10085	23.0
99.11787	23.0
71.07905	23.0
91.05171	21.0
163.14847	20.0
83.05003	17.0
132.09007	13.0
221.1759	13.0
117.07365	13.0
80.02386	12.0
65.04404	12.0
59.05072	12.0

MSID: 9129
ID: 274
RETENTIONTIME: 30.30547
PRECURSORMZ: 329.1737
AREA: 642856.375
PRECURSORTYPE: [M+H]+
SMILES: [H][C@]12OC(=O)[C@@]3(CCCC(C)(C)[C@]13[H])C1=C(O)C(=O)C(=CC1=C2)C(C)C
NAME: sagequinone methide A
FORMULA: C20H24O4
INCHIKEY: CYJLXXSGOZGYMC-VOWSPCBNSA-N
CAS: nan
Molecular Weight: 328.408
Number of References: 2
Class: Abietane diterpenoids
Superclass: Diterpenoids
Pathway: Terpenoids
ppm: -1.5850000000341424
CMID: CM243
IONMODE: Positive
COLLISIONENERGY: 40±20eV
INSTRUMENTTYPE: AB SCIEX
INSTRUMENT: Q-TOF
Comment:  
Num Peaks: 146
329.17419	7278.0
299.12744	1433.0
314.15161	1386.0
271.13409	411.0
301.14316	400.0
285.14905	234.0
269.15414	220.0
313.14212	189.0
239.10771	172.0
254.12958	161.0
171.0815	147.0
231.10089	138.0
286.15216	122.0
255.13918	121.0
273.14722	120.0
165.09354	109.0
67.05309	109.0
301.18054	106.0
285.11102	103.0
199.07645	102.0
141.07069	102.0
258.12646	95.0
143.08444	92.0
211.11221	90.0
230.09402	87.0
299.10202	87.0
243.10118	85.0
128.0614	83.0
153.069	83.0
273.1116	83.0
157.10236	79.0
241.0851	77.0
227.10876	76.0
193.09982	76.0
91.05469	73.0
55.0545	71.0
259.09351	70.0
79.05534	70.0
281.11813	69.0
142.07637	68.0
195.08099	66.0
165.07088	60.0
224.08434	60.0
155.08461	59.0
227.14272	57.0
226.1342	56.0
267.09659	54.0
183.11494	54.0
93.0694	52.0
183.08049	52.0
203.06912	52.0
245.08118	51.0
223.11337	51.0
286.11572	50.0
169.10423	50.0
171.11609	49.0
98.98452	49.0
81.06823	48.0
213.08771	47.0
199.11237	47.0
259.13135	46.0
297.15057	46.0
129.06973	46.0
240.11284	45.0
221.09476	44.0
198.06619	44.0
301.12106	44.0
171.04179	44.0
105.07182	43.0
258.08868	42.0
208.12454	41.0
215.10399	41.0
251.14229	41.0
257.1188	41.0
181.06516	41.0
243.13477	40.0
276.20526	40.0
225.09415	40.0
167.084	40.0
157.06554	40.0
127.05261	39.0
69.06733	39.0
133.10078	39.0
197.09015	39.0
119.0842	38.0
299.09018	37.0
168.09705	37.0
185.09897	37.0
282.1207	37.0
215.06952	36.0
314.1221	36.0
311.1626	36.0
268.26471	35.0
283.13165	35.0
213.12773	35.0
175.07443	35.0
134.10492	34.0
241.15962	34.0
179.08327	33.0
108.08784	33.0
182.07077	32.0
173.05739	32.0
80.0573	32.0
269.08023	32.0
212.08383	32.0
212.11664	32.0
244.10854	31.0
209.09918	31.0
122.07391	30.0
178.08072	29.0
155.08096	28.0
259.08405	27.0
185.05901	27.0
209.1346	27.0
207.11694	27.0
159.0788	27.0
253.12198	27.0
236.11551	26.0
240.08098	26.0
195.11656	25.0
229.08344	25.0
254.1124	25.0
237.12791	25.0
329.11557	24.0
57.0703	24.0
207.07889	24.0
185.13362	24.0
132.08693	23.0
199.1483	23.0
260.13974	23.0
253.08459	23.0
197.06128	23.0
271.09378	23.0
83.0484	22.0
137.09061	22.0
190.0741	22.0
109.10131	22.0
245.11797	22.0
93.06563	22.0
145.06409	21.0
97.0646	20.0
211.07379	20.0
152.05406	19.0
194.06868	19.0
95.08229	13.0
86.05982	12.0

MSID: 9130
ID: 141
RETENTIONTIME: 25.37897
PRECURSORMZ: 297.1486
AREA: 641590.125
PRECURSORTYPE: [M+H]+
SMILES: [H][C@]12CC[C@](C)(CO1)C1=CC=C3C=C(C(C)C)C(=O)C(=O)C3=C21
NAME: salviadionether
FORMULA: C19H20O3
INCHIKEY: SZYQZNRDFUIGTP-AUUYWEPGSA-N
CAS: nan
Molecular Weight: 296.366
Number of References: 1
Class: nan
Superclass: Diterpenoids
Pathway: Terpenoids
ppm: -0.4700000000639193
CMID: CM243
IONMODE: Positive
COLLISIONENERGY: 40±20eV
INSTRUMENTTYPE: AB SCIEX
INSTRUMENT: Q-TOF
Comment:  
Num Peaks: 65
297.1507	561.0
269.15585	121.0
237.09485	118.0
239.1048	96.0
254.09222	82.0
254.13281	78.0
209.09503	77.0
279.13647	74.0
282.12906	69.0
224.08444	67.0
211.07532	64.0
221.09631	64.0
255.1033	61.0
193.10399	59.0
165.06844	58.0
225.09279	54.0
267.0983	53.0
212.08107	50.0
199.11246	50.0
236.08252	49.0
211.11089	48.0
166.07788	47.0
227.10739	45.0
169.06229	44.0
197.09575	43.0
249.08856	43.0
251.14551	41.0
221.06137	37.0
181.06392	35.0
196.08232	35.0
178.07558	35.0
143.0845	34.0
264.11829	32.0
226.09897	31.0
197.06	31.0
223.14275	31.0
128.05925	30.0
202.0809	30.0
241.15669	29.0
238.1033	28.0
191.08417	28.0
213.09209	26.0
235.07536	26.0
222.07164	26.0
207.07617	25.0
208.12323	25.0
183.0766	25.0
227.14429	25.0
223.0769	25.0
194.06877	24.0
179.08334	24.0
251.10361	23.0
180.09264	23.0
153.06544	23.0
226.13873	23.0
234.06735	22.0
261.13126	22.0
253.08626	21.0
237.07977	20.0
203.08876	20.0
236.11111	20.0
219.07961	20.0
187.11121	12.0
138.03259	12.0
131.08823	12.0

MSID: 9131
ID: 72
RETENTIONTIME: 15.81515
PRECURSORMZ: 331.1902
AREA: 633035.625
PRECURSORTYPE: [M+H]+
SMILES: [H][C@@]12C[C@@H]3OC[C@@]1(CCCC2(C)C)C1=C3C(=O)C(C(C)C)=C(O)C1=O
NAME: 7,20-epoxyroyleanone
FORMULA: C20H26O4
INCHIKEY: LADFDPNXEFQAHR-JOOBJXAISA-N
CAS: nan
Molecular Weight: 330.424
Number of References: 2
Class: Abietane diterpenoids
Superclass: Diterpenoids
Pathway: Terpenoids
ppm: -0.7350000000201362
CMID: CM243
IONMODE: Positive
COLLISIONENERGY: 40±20eV
INSTRUMENTTYPE: AB SCIEX
INSTRUMENT: Q-TOF
Comment:  
Num Peaks: 149
283.16949	1685.0
223.11188	727.0
331.19049	506.0
265.15692	478.0
199.11095	361.0
241.12611	258.0
313.17673	243.0
227.1102	195.0
225.09117	181.0
231.10384	179.0
157.06429	171.0
240.11128	160.0
165.07085	157.0
195.11378	147.0
179.08585	141.0
181.06908	140.0
285.18375	137.0
235.11125	134.0
187.07358	133.0
180.09253	132.0
185.06163	131.0
215.1097	130.0
257.11877	121.0
153.0714	118.0
208.08919	117.0
237.16406	117.0
173.05994	114.0
81.06909	108.0
203.10677	108.0
129.0686	108.0
271.13083	105.0
253.1235	102.0
183.07913	99.0
209.09773	97.0
213.09052	96.0
225.1279	96.0
141.06718	94.0
239.10616	89.0
207.07745	87.0
197.09561	87.0
243.13472	85.0
267.17657	85.0
169.06854	83.0
192.09262	83.0
295.16843	82.0
152.06129	81.0
167.0865	79.0
207.11691	78.0
245.11487	77.0
188.08362	76.0
156.09612	74.0
195.07959	71.0
155.08946	69.0
178.07808	69.0
205.10204	69.0
211.07233	68.0
165.09351	68.0
169.10292	67.0
229.11749	64.0
193.09978	63.0
128.0625	63.0
268.14597	63.0
254.13109	63.0
199.07916	63.0
184.04912	59.0
149.06058	59.0
215.06947	58.0
221.09618	57.0
189.0883	56.0
200.08229	56.0
95.08801	55.0
205.0838	55.0
171.11606	51.0
198.06754	48.0
190.07811	48.0
228.11644	48.0
239.1001	48.0
161.06009	48.0
255.13756	47.0
203.07327	47.0
201.0907	47.0
145.0676	46.0
185.09628	46.0
181.10597	46.0
147.04544	45.0
243.10571	45.0
197.05849	45.0
159.08124	43.0
166.07652	43.0
247.1369	43.0
194.10957	42.0
222.09923	42.0
239.14403	42.0
193.06303	41.0
191.08405	41.0
285.1705	41.0
184.08632	41.0
217.11818	40.0
143.08559	40.0
267.13657	40.0
222.14011	39.0
277.15823	39.0
131.0489	39.0
154.07878	38.0
175.0731	38.0
194.07274	38.0
225.08382	37.0
269.15088	37.0
182.07205	36.0
242.12785	36.0
157.10356	35.0
127.05591	35.0
179.07274	34.0
165.05827	34.0
177.06662	34.0
252.11168	33.0
219.10266	33.0
237.09167	33.0
271.16791	33.0
226.09882	33.0
231.08745	33.0
142.07751	32.0
197.12999	32.0
231.1351	32.0
171.08275	30.0
143.04927	30.0
208.08212	29.0
217.08788	28.0
152.05405	28.0
285.1424	26.0
250.12976	26.0
313.15768	26.0
205.06557	25.0
172.09113	25.0
203.0928	25.0
236.12149	24.0
210.11014	24.0
91.05467	24.0
331.07999	24.0
55.05667	24.0
180.08464	23.0
227.08511	23.0
224.07991	23.0
249.12396	22.0
179.10158	22.0
67.05467	21.0
235.09023	20.0
109.10231	13.0
273.15039	12.0

MSID: 8889
ID: 247
RETENTIONTIME: 26.10165
PRECURSORMZ: 345.1702
AREA: 68588192.0
PRECURSORTYPE: [M-H]-
SMILES: [H][C@@]12[C@@H]3OC(=O)[C@@]1(CCCC2(C)C)C1=C(O)C(O)=C(C=C1[C@@H]3O)C(C)C
NAME: Oxydesaminoisorosmaricin
FORMULA: C20H26O5
INCHIKEY: LCAZOMIGFDQMNC-FORWCCJISA-N
CAS: 80225-53-2
Molecular Weight: 346.423
Number of References: 559
Class: Abietane diterpenoids
Superclass: Diterpenoids
Pathway: Terpenoids
ppm: 5.6843418860808015e-11
CMID: CM243
IONMODE: Negative
COLLISIONENERGY: 40±20eV
INSTRUMENTTYPE: AB SCIEX
INSTRUMENT: Q-TOF
Comment:  
Num Peaks: 1258
301.18423	455325.0
283.17197	261185.0
267.13922	40774.0
345.16995	38961.0
217.08731	20009.0
268.14691	19857.0
258.12695	19588.0
227.10841	12715.0
273.18637	8937.0
253.12308	7823.0
300.17218	7636.0
229.08728	6967.0
230.0948	6743.0
285.14957	6627.0
164.08495	5487.0
299.16354	5405.0
215.07202	4348.0
286.15753	4219.0
240.11545	3824.0
204.07898	3181.0
201.09204	3148.0
243.10344	2765.0
175.03978	2420.0
216.07849	2233.0
257.11945	2102.0
271.1701	2073.0
163.07671	1834.0
259.17111	1622.0
202.06389	1520.0
187.07651	1229.0
218.09415	1084.0
189.09102	1082.0
255.17599	1020.0
165.09251	1003.0
226.09863	990.0
257.1524	934.0
251.10637	933.0
201.05455	927.0
184.05238	900.0
189.056	889.0
187.04034	860.0
137.09633	813.0
265.12314	802.0
200.08374	778.0
214.09943	778.0
201.07399	768.0
203.07019	756.0
174.03195	746.0
177.09151	731.0
188.08376	729.0
225.09256	691.0
282.16269	535.0
159.04393	534.0
191.07028	510.0
190.09827	472.0
212.11949	468.0
215.10793	450.0
243.13855	440.0
255.14003	432.0
199.07658	429.0
231.10155	421.0
271.15399	411.0
252.1145	403.0
256.11075	394.0
172.05331	387.0
212.08525	379.0
272.17569	366.0
173.05925	364.0
185.06081	356.0
178.1003	355.0
213.09187	351.0
231.1745	349.0
244.10915	341.0
186.06929	338.0
256.14523	333.0
271.13141	333.0
219.10185	332.0
228.07903	331.0
149.05913	327.0
214.06361	321.0
211.07675	314.0
284.14175	307.0
203.10786	286.0
228.11452	277.0
151.07448	275.0
281.15524	263.0
190.06316	256.0
241.12257	252.0
238.09846	245.0
171.08104	241.0
184.08826	240.0
200.05049	235.0
185.0981	225.0
239.14375	222.0
158.03654	221.0
179.10933	215.0
188.0475	201.0
229.12286	200.0
202.09869	196.0
205.08606	194.0
245.11847	194.0
188.12003	186.0
199.10976	186.0
189.07216	186.0
230.13045	182.0
265.15979	178.0
239.1059	177.0
171.04517	176.0
187.06044	176.0
173.02448	175.0
242.0937	171.0
197.09741	168.0
135.08229	160.0
284.17642	158.0
216.11305	153.0
239.17706	152.0
282.23672	152.0
257.19009	151.0
172.088	151.0
123.08069	150.0
259.13171	149.0
146.03542	146.0
156.05707	146.0
243.08511	144.0
176.04662	140.0
244.1474	139.0
163.0692	139.0
241.0876	138.0
162.03293	138.0
192.07735	135.0
151.1118	135.0
214.13382	133.0
298.15826	132.0
174.06813	129.0
176.08429	128.0
266.13342	127.0
175.07605	125.0
161.06084	125.0
269.11957	124.0
148.05414	122.0
240.15187	121.0
183.04408	119.0
231.13727	117.0
145.02773	117.0
213.12904	111.0
237.09315	111.0
249.12865	111.0
122.03777	108.0
198.0706	106.0
201.049	102.0
197.06168	102.0
232.10899	101.0
210.06783	101.0
213.05185	100.0
242.13332	98.0
147.0466	97.0
150.0675	96.0
203.09392	94.0
162.06908	94.0
198.10506	91.0
269.15652	90.0
157.06551	88.0
199.0379	88.0
135.04588	86.0
214.07651	86.0
191.10548	85.0
157.03114	84.0
254.13055	84.0
223.15154	84.0
172.04817	81.0
186.03189	80.0
209.09529	80.0
258.16156	79.0
136.05032	79.0
147.08223	79.0
225.13223	78.0
250.10028	78.0
183.0825	78.0
143.04973	77.0
282.22357	76.0
250.13435	76.0
202.0444	75.0
238.13474	73.0
284.17145	72.0
169.0658	72.0
170.07448	72.0
79.05524	71.0
224.08728	70.0
273.1637	69.0
257.18381	69.0
232.14629	69.0
236.08246	68.0
254.16959	68.0
212.09666	67.0
201.12675	67.0
161.09688	66.0
175.11104	66.0
200.0602	65.0
245.19054	65.0
211.1109	65.0
258.10022	64.0
160.05327	62.0
251.14673	62.0
204.10696	61.0
129.03397	61.0
241.15907	60.0
240.08965	59.0
231.15961	58.0
253.15735	58.0
204.88977	57.0
237.16554	57.0
189.13277	57.0
245.1568	57.0
57.03344	57.0
161.02232	57.0
196.0937	56.0
300.14673	56.0
186.10402	54.0
232.10004	54.0
203.0074	53.0
202.62946	53.0
204.94585	53.0
220.85202	53.0
121.06824	52.0
182.03723	51.0
203.05205	51.0
130.04599	51.0
197.87633	50.0
68.99761	50.0
173.09404	49.0
217.05846	49.0
230.16016	49.0
200.11699	48.0
225.16309	48.0
235.11296	48.0
203.96289	48.0
131.04962	48.0
270.12134	47.0
133.02896	46.0
219.13519	46.0
244.09232	46.0
159.07974	46.0
206.2925	45.0
107.04904	45.0
202.39951	45.0
213.12045	45.0
302.4534	45.0
212.52045	45.0
217.12628	45.0
300.23157	45.0
302.22693	45.0
284.20776	44.0
175.0605	44.0
199.46919	44.0
302.70718	44.0
300.95825	44.0
195.03238	44.0
203.38988	44.0
289.17041	44.0
302.26437	44.0
204.15733	44.0
206.09282	44.0
218.08258	44.0
205.45927	44.0
204.25249	44.0
301.95288	43.0
218.12741	43.0
299.12457	43.0
228.09529	43.0
189.03043	42.0
201.99429	42.0
198.83624	42.0
247.13719	42.0
147.04185	42.0
202.43016	42.0
203.89296	42.0
178.09116	42.0
301.99374	41.0
200.51338	41.0
200.5952	41.0
203.46251	41.0
205.15619	41.0
202.82326	41.0
203.18045	40.0
188.1133	40.0
302.18777	40.0
201.11426	40.0
222.07033	40.0
302.51981	39.0
237.13237	39.0
221.61816	39.0
208.68343	39.0
203.78252	39.0
202.47615	39.0
187.88907	39.0
317.16724	39.0
209.05707	39.0
202.28668	39.0
207.67459	39.0
203.5603	38.0
280.1496	38.0
193.89893	38.0
227.07594	38.0
202.80234	38.0
167.0397	38.0
300.87329	38.0
223.07547	38.0
200.31097	38.0
215.04761	38.0
202.23236	38.0
232.70316	38.0
302.97134	38.0
192.07193	37.0
186.05594	37.0
303.3959	37.0
203.32564	37.0
203.70563	37.0
286.11942	37.0
199.51068	37.0
272.15955	37.0
215.56635	37.0
201.81201	37.0
165.07365	37.0
201.44353	36.0
199.71683	36.0
212.16655	36.0
201.61035	36.0
227.83507	36.0
200.67703	36.0
300.11789	36.0
214.3689	36.0
219.06561	36.0
304.54666	36.0
201.93863	36.0
167.05363	36.0
83.0496	36.0
201.39905	36.0
234.30283	36.0
302.13159	36.0
302.73956	36.0
203.24886	36.0
193.24904	36.0
284.31509	35.0
216.50912	35.0
197.11667	35.0
215.14096	35.0
201.71603	35.0
208.83058	35.0
266.26923	35.0
203.03531	35.0
201.82315	35.0
183.11696	35.0
207.27682	35.0
199.05725	35.0
202.13768	35.0
201.52832	35.0
282.10184	35.0
199.83864	35.0
231.62288	35.0
204.03282	35.0
196.85414	35.0
231.08218	35.0
201.22815	35.0
196.19383	35.0
226.13249	35.0
302.05328	35.0
160.01735	35.0
202.32568	35.0
193.689	35.0
221.9857	35.0
221.85002	35.0
200.9754	35.0
200.91849	35.0
222.09952	35.0
300.69327	35.0
195.58391	34.0
222.2849	34.0
204.71039	34.0
168.05884	34.0
304.46463	34.0
285.10162	34.0
223.89088	34.0
302.24905	34.0
200.7131	34.0
199.42078	34.0
199.38622	34.0
203.35776	34.0
304.89026	34.0
203.14276	34.0
257.0896	34.0
219.70818	34.0
250.09253	34.0
203.39687	34.0
226.39322	34.0
226.70865	34.0
253.09192	34.0
302.09073	34.0
201.38516	34.0
275.40833	34.0
302.56921	33.0
222.49666	33.0
203.48766	33.0
302.00903	33.0
223.09888	33.0
204.47087	33.0
201.45326	33.0
203.65952	33.0
303.32599	33.0
200.02556	33.0
205.23615	33.0
273.14752	33.0
232.47914	33.0
187.81659	33.0
155.10799	33.0
216.37946	33.0
187.11267	33.0
208.94946	33.0
213.37358	33.0
219.98695	33.0
210.92029	33.0
200.83383	33.0
198.5174	33.0
197.95071	33.0
145.06665	33.0
200.65346	32.0
197.5844	32.0
184.44452	32.0
192.43854	32.0
251.36559	32.0
251.08775	32.0
191.20026	32.0
201.7355	32.0
303.70132	32.0
219.54854	32.0
202.91951	32.0
199.79434	32.0
198.00583	32.0
213.07471	32.0
239.13164	32.0
268.87064	32.0
200.88657	32.0
208.87303	32.0
206.40503	32.0
206.12515	32.0
209.3956	32.0
171.48218	32.0
171.91333	32.0
191.05269	32.0
198.42358	32.0
210.42992	32.0
210.83638	32.0
202.97391	32.0
220.99757	32.0
220.53778	32.0
266.25964	32.0
200.72836	31.0
201.62286	31.0
303.51022	31.0
200.37196	31.0
165.94798	31.0
191.47388	31.0
219.87514	31.0
218.05655	31.0
300.66782	31.0
217.78477	31.0
172.59322	31.0
144.05643	31.0
211.76164	31.0
302.95261	31.0
198.28979	31.0
210.19133	31.0
208.65938	31.0
198.86386	31.0
284.2309	31.0
205.63617	31.0
344.02835	31.0
119.08948	31.0
190.60762	31.0
178.26108	31.0
95.04867	30.0
233.15602	30.0
227.35197	30.0
189.4386	30.0
95.08399	30.0
221.13298	30.0
217.91486	30.0
216.7527	30.0
215.03468	30.0
143.08722	30.0
210.96722	30.0
210.15584	30.0
209.95856	30.0
209.30634	30.0
227.06413	30.0
206.95972	30.0
206.91747	30.0
306.60944	30.0
205.27824	30.0
204.5563	30.0
203.84262	30.0
180.05681	30.0
202.94182	30.0
189.41029	30.0
208.05438	30.0
204.30847	30.0
197.97552	30.0
191.52538	30.0
195.92371	30.0
192.95918	30.0
302.63223	30.0
302.30182	30.0
197.05342	30.0
198.33531	30.0
200.16824	30.0
200.8033	30.0
198.134	30.0
198.69957	30.0
200.69507	30.0
223.39297	29.0
163.42204	29.0
219.44263	29.0
199.87325	29.0
234.10799	29.0
132.98491	29.0
282.13309	29.0
221.06308	29.0
158.13013	29.0
187.70387	29.0
219.58336	29.0
184.6281	29.0
272.89511	29.0
229.05467	29.0
214.38898	29.0
199.15121	29.0
304.1691	29.0
199.53973	29.0
202.36607	29.0
228.06128	29.0
230.06212	29.0
210.21404	29.0
218.4023	29.0
232.8989	29.0
299.96014	29.0
209.7798	29.0
206.60063	29.0
299.20081	28.0
199.97156	28.0
190.69011	28.0
304.43387	28.0
157.46585	28.0
203.67488	28.0
164.21042	28.0
187.29222	28.0
204.27348	28.0
211.12656	28.0
196.76347	28.0
211.02696	28.0
239.30582	28.0
178.06239	28.0
198.30635	28.0
205.38489	28.0
195.97168	28.0
205.99161	28.0
199.20235	28.0
206.26578	28.0
166.42264	28.0
187.98573	28.0
202.15717	28.0
200.40523	28.0
213.75711	28.0
189.24187	28.0
202.18224	28.0
302.21671	28.0
202.69777	28.0
249.09001	28.0
197.7868	28.0
239.92429	28.0
284.10709	28.0
302.99179	28.0
201.80228	28.0
200.20149	28.0
207.6619	28.0
193.95076	28.0
203.60081	28.0
250.6488	28.0
251.23053	28.0
221.25386	28.0
201.27817	27.0
205.54491	27.0
201.42963	27.0
210.62315	27.0
240.39929	27.0
191.43187	27.0
198.15607	27.0
217.68651	27.0
210.12886	27.0
213.95616	27.0
196.71129	27.0
197.62431	27.0
206.22076	27.0
182.60316	27.0
270.78	27.0
189.55049	27.0
199.56879	27.0
183.71245	27.0
302.79068	27.0
195.74692	27.0
230.8649	27.0
200.27217	27.0
200.39552	27.0
235.07542	27.0
163.32315	27.0
207.71271	27.0
200.58272	27.0
198.72304	27.0
208.35112	27.0
220.18599	27.0
196.78409	27.0
220.10753	27.0
204.83932	27.0
204.96127	27.0
264.92227	26.0
266.11584	26.0
209.16469	26.0
266.25165	26.0
218.49348	26.0
209.03299	26.0
198.65402	26.0
266.04236	26.0
209.68478	26.0
212.98753	26.0
222.15352	26.0
209.8564	26.0
225.34387	26.0
319.11826	26.0
226.16783	26.0
214.80499	26.0
187.15555	26.0
197.29544	26.0
213.28775	26.0
167.14731	26.0
248.92775	26.0
201.86211	26.0
300.24515	26.0
212.74892	26.0
215.79933	26.0
134.03496	26.0
212.27354	26.0
216.2412	26.0
208.3172	26.0
300.54218	26.0
224.36443	26.0
196.89125	26.0
258.97568	26.0
211.49525	26.0
216.82191	26.0
244.599	26.0
299.09409	26.0
237.91415	26.0
191.37633	26.0
197.48805	26.0
205.83844	26.0
222.86345	26.0
202.88463	26.0
199.29358	26.0
286.50052	26.0
285.28021	26.0
286.19397	26.0
219.74738	26.0
202.97949	26.0
205.0482	26.0
303.2305	26.0
200.48149	26.0
234.64021	26.0
272.5668	26.0
242.39702	26.0
233.93123	26.0
199.65318	26.0
230.64772	26.0
272.66382	26.0
203.29633	26.0
190.83482	26.0
231.04051	26.0
199.91617	26.0
274.94211	26.0
286.11279	26.0
220.68614	26.0
302.48917	26.0
220.79236	26.0
205.7963	26.0
305.28366	26.0
189.93358	26.0
202.26997	26.0
208.18011	26.0
228.16777	26.0
218.93085	26.0
196.13211	26.0
223.49544	26.0
283.84964	26.0
189.97812	26.0
201.77863	26.0
199.02686	26.0
282.28442	26.0
207.07808	26.0
206.04221	26.0
287.24359	26.0
277.31302	26.0
231.78238	26.0
222.64128	26.0
229.43573	26.0
303.13501	26.0
206.19968	26.0
206.69073	26.0
229.30522	26.0
302.92703	26.0
248.09875	25.0
221.20288	25.0
197.411	25.0
225.29536	25.0
195.48532	25.0
221.09804	25.0
215.50597	25.0
221.99883	25.0
221.66336	25.0
191.32756	25.0
221.35292	25.0
157.09863	25.0
215.96191	25.0
240.6985	25.0
218.31691	25.0
158.68846	25.0
243.16605	25.0
219.21349	25.0
158.49361	25.0
186.4395	25.0
219.3672	25.0
194.70566	25.0
241.67183	25.0
166.77403	25.0
327.12039	25.0
196.35571	25.0
185.95576	25.0
226.04414	25.0
238.58527	25.0
219.69801	25.0
217.65906	25.0
194.49666	25.0
155.5498	25.0
223.94658	25.0
157.66867	25.0
183.32773	25.0
220.02763	25.0
220.04797	25.0
155.04214	25.0
196.81705	25.0
216.43564	25.0
222.91023	25.0
195.81818	25.0
222.98187	25.0
209.81526	25.0
148.54308	25.0
205.02016	25.0
168.38399	25.0
199.52174	25.0
205.33437	25.0
164.04982	25.0
269.38953	25.0
234.9283	25.0
206.87097	25.0
175.34308	25.0
175.51949	25.0
207.18378	25.0
207.41078	25.0
207.44322	25.0
228.34383	25.0
306.99881	25.0
207.99083	25.0
198.82106	25.0
164.82211	25.0
208.38504	25.0
148.0863	25.0
198.67471	25.0
187.43967	25.0
205.05942	25.0
168.58611	25.0
198.61261	25.0
204.80287	25.0
184.50571	25.0
201.64789	25.0
202.20172	25.0
202.41066	25.0
202.54861	25.0
192.18051	25.0
174.00612	25.0
285.20248	25.0
200.73947	25.0
200.56192	25.0
231.29958	25.0
188.92676	25.0
174.82477	25.0
203.76993	25.0
203.87619	25.0
188.64555	25.0
199.95355	25.0
204.18112	25.0
188.49359	25.0
204.52129	25.0
230.61499	25.0
209.12503	25.0
187.73071	25.0
209.52458	25.0
175.82838	25.0
211.89705	25.0
262.53839	25.0
167.93826	25.0
167.67947	25.0
134.43773	25.0
187.26541	25.0
212.61469	25.0
212.70322	25.0
212.85606	25.0
165.78024	25.0
213.00754	25.0
198.04442	25.0
299.80753	25.0
255.94936	25.0
177.70192	25.0
302.60498	25.0
253.73575	25.0
194.06805	25.0
194.17038	25.0
213.69269	25.0
214.00343	25.0
211.82863	25.0
227.42581	25.0
210.38162	25.0
211.29308	25.0
209.77412	25.0
168.11217	25.0
198.34911	25.0
210.28645	25.0
210.34326	25.0
210.76245	25.0
168.09566	25.0
195.35938	25.0
259.10651	25.0
211.33435	25.0
227.51295	25.0
166.49719	24.0
229.86313	24.0
191.9091	24.0
233.13957	24.0
192.79733	24.0
224.121	24.0
192.67635	24.0
185.20737	24.0
194.39697	24.0
192.30679	24.0
237.52762	24.0
222.75819	24.0
228.23286	24.0
342.0097	24.0
238.11659	24.0
184.99953	24.0
224.77533	24.0
164.47655	24.0
163.84169	24.0
206.74142	24.0
281.11749	24.0
208.56744	24.0
213.63829	24.0
197.68765	24.0
213.60251	24.0
197.8474	24.0
203.45134	24.0
213.3092	24.0
167.52481	24.0
195.60582	24.0
212.37057	24.0
168.036	24.0
203.52817	24.0
210.57767	24.0
293.04166	24.0
198.54913	24.0
208.26491	24.0
199.62689	24.0
291.51315	24.0
208.15186	24.0
190.98907	24.0
207.77904	24.0
287.55737	24.0
267.95453	24.0
207.2303	24.0
188.67111	24.0
204.37007	24.0
199.1678	24.0
205.95929	24.0
199.63795	24.0
205.55754	24.0
190.95253	24.0
214.34596	24.0
204.75102	24.0
251.06137	24.0
214.65575	24.0
183.16202	24.0
221.55841	24.0
201.88992	24.0
186.19756	24.0
300.81046	24.0
219.92886	24.0
202.49426	24.0
284.4505	24.0
219.17723	24.0
330.1134	24.0
166.76012	24.0
303.19125	24.0
196.49709	24.0
156.18311	24.0
216.0166	24.0
183.07323	24.0
245.81656	24.0
246.11758	24.0
246.80478	24.0
182.8613	24.0
216.26135	24.0
300.44879	24.0
217.41785	24.0
214.77054	24.0
302.76852	24.0
285.53168	24.0
108.02188	24.0
285.55484	23.0
233.35643	23.0
282.90836	23.0
284.25235	23.0
285.88425	23.0
302.68335	23.0
135.45131	23.0
271.69446	23.0
336.04691	23.0
300.82574	23.0
157.81873	23.0
157.70064	23.0
157.58998	23.0
242.26897	23.0
328.29929	23.0
244.19637	23.0
247.75645	23.0
125.78757	23.0
63.5545	23.0
161.13293	23.0
253.94481	23.0
235.76057	23.0
260.13843	23.0
268.92361	23.0
302.33249	23.0
284.02621	23.0
206.46413	23.0
162.10149	23.0
167.50706	23.0
213.51093	23.0
198.48981	23.0
176.49126	23.0
197.57614	23.0
197.561	23.0
197.36697	23.0
214.31012	23.0
197.21155	23.0
167.23975	23.0
195.72226	23.0
215.31194	23.0
216.54947	23.0
167.02199	23.0
217.53194	23.0
217.63017	23.0
193.8703	23.0
193.83485	23.0
192.11807	23.0
191.70566	23.0
219.3382	23.0
219.46439	23.0
198.90392	23.0
198.99094	23.0
219.85916	23.0
199.32399	23.0
204.34767	23.0
204.36166	23.0
169.34221	23.0
205.73167	23.0
203.75037	23.0
203.21814	23.0
170.02596	23.0
206.54012	23.0
206.64427	23.0
171.06053	23.0
206.84563	23.0
202.51376	23.0
208.62827	23.0
208.74992	23.0
208.98061	23.0
209.07547	23.0
174.10043	23.0
212.29781	23.0
200.44128	23.0
199.73067	23.0
167.66173	23.0
191.46574	23.0
169.24283	23.0
190.64684	23.0
231.42619	23.0
223.5584	23.0
229.36305	23.0
230.49901	23.0
230.75333	23.0
186.26437	23.0
221.03105	23.0
186.83281	23.0
224.8326	23.0
190.04697	23.0
187.33376	23.0
224.46124	23.0
190.25627	23.0
200.00479	22.0
174.5271	22.0
241.81952	22.0
265.08487	22.0
201.67848	22.0
211.38133	22.0
284.68179	22.0
226.7691	22.0
133.98961	22.0
199.37239	22.0
175.01257	22.0
325.83405	22.0
201.96368	22.0
236.11707	22.0
257.38174	22.0
200.14746	22.0
200.45653	22.0
208.49249	22.0
228.43707	22.0
141.56612	22.0
204.63194	22.0
121.0273	22.0
205.43822	22.0
232.96765	22.0
203.81326	22.0
233.05734	22.0
123.04375	22.0
271.1153	22.0
203.27817	22.0
231.74063	22.0
233.85185	22.0
163.04044	22.0
202.74377	22.0
202.12515	22.0
207.92163	22.0
208.11089	22.0
282.5033	22.0
288.42151	22.0
188.28661	22.0
224.61092	22.0
196.2487	22.0
249.62042	22.0
204.13914	22.0
213.41792	22.0
223.30956	22.0
215.69576	22.0
195.41687	22.0
216.36794	22.0
166.57933	22.0
195.09393	22.0
217.50017	22.0
217.87294	22.0
189.65701	22.0
191.77211	22.0
243.05916	22.0
191.62431	22.0
240.82765	22.0
190.52246	22.0
223.58328	22.0
215.20992	22.0
167.47411	22.0
303.98126	22.0
213.48087	22.0
213.5882	22.0
198.45946	22.0
299.61594	22.0
188.69397	22.0
223.62575	22.0
195.90314	22.0
197.00119	22.0
180.53149	22.0
197.32845	21.0
277.43372	21.0
184.75719	21.0
185.75151	21.0
188.36589	21.0
181.07137	21.0
187.80586	21.0
81.07053	21.0
192.52005	21.0
192.60159	21.0
330.56192	21.0
193.62085	21.0
302.16394	21.0
186.53845	21.0
176.57323	21.0
198.24292	21.0
189.16913	21.0
179.0674	21.0
201.56169	21.0
303.49146	21.0
194.05032	21.0
188.47343	21.0
301.87122	21.0
188.62268	21.0
69.73	21.0
201.36292	21.0
125.09549	21.0
220.56541	21.0
219.30194	21.0
263.0575	21.0
209.53876	21.0
157.84087	21.0
220.95972	21.0
220.33423	21.0
133.63391	21.0
211.65193	21.0
220.28191	21.0
219.50645	21.0
218.77148	21.0
222.73042	21.0
212.4091	21.0
216.78297	21.0
216.57973	21.0
213.61539	21.0
213.8645	21.0
215.85399	21.0
167.40822	21.0
167.31953	21.0
214.71458	21.0
158.07225	21.0
214.48792	21.0
208.23241	21.0
206.35719	21.0
269.54062	21.0
205.7106	21.0
168.17439	21.0
224.21336	21.0
238.03651	21.0
207.3149	21.0
224.81644	21.0
187.1877	20.0
227.66808	20.0
195.20337	20.0
163.11047	20.0
63.42653	20.0
223.00966	20.0
243.95616	20.0
153.09489	20.0
232.08214	20.0
152.67957	20.0
176.74895	20.0
183.79607	20.0
218.20697	20.0
156.51616	20.0
218.28363	20.0
156.45001	20.0
192.37605	20.0
189.46286	20.0
177.07066	20.0
191.79109	20.0
315.15958	20.0
166.17007	20.0
188.18449	20.0
190.58734	20.0
250.86435	20.0
159.53583	20.0
189.6125	20.0
304.09055	20.0
238.9545	20.0
273.00513	20.0
300.74423	20.0
133.37254	20.0
128.87605	20.0
257.92245	20.0
211.54367	20.0
167.36008	20.0
284.34976	20.0
201.54918	20.0
135.14946	20.0
175.53505	20.0
284.07242	20.0
201.8454	20.0
139.33324	20.0
202.02492	20.0
171.80806	20.0
283.92883	20.0
200.94765	20.0
272.14017	20.0
232.5329	20.0
197.89561	20.0
214.02063	20.0
126.98756	20.0
203.64134	20.0
207.01466	20.0
270.62372	20.0
189.34425	19.0
231.845	19.0
202.66151	19.0
189.20953	19.0
236.34886	19.0
201.75081	19.0
238.39169	19.0
226.01176	19.0
191.0175	19.0
209.15053	19.0
149.04956	19.0
134.25386	19.0
287.20709	19.0
249.36983	19.0
251.7803	19.0
195.70308	19.0
257.29221	19.0
138.57944	19.0
193.1347	19.0
192.85582	19.0
155.72816	19.0
183.86644	19.0
212.90607	19.0
218.60785	19.0
192.05022	19.0
134.64447	19.0
135.89046	19.0
198.74236	18.0
162.19626	18.0
150.65952	18.0
196.44354	18.0
161.4874	18.0
316.01373	18.0
74.54169	18.0
304.71417	18.0
254.30855	18.0
243.75584	18.0
238.88638	18.0
195.25673	18.0
216.41547	17.0
63.85542	17.0
302.11627	17.0
235.55612	17.0
173.92346	17.0
112.07439	17.0
66.81402	16.0
261.21039	16.0
71.01151	16.0
179.30203	16.0
60.99516	15.0

MSID: 8890
ID: 290
RETENTIONTIME: 27.5719
PRECURSORMZ: 331.1907
AREA: 66863640.0
PRECURSORTYPE: [M-H]-
SMILES: [H][C@@]12CCC3=C(C(O)=C(O)C(=C3)C(C)C)[C@]1(CCCC2(C)C)C(O)=O
NAME: carnosic acid
FORMULA: C20H28O4
INCHIKEY: QRYRORQUOLYVBU-VBKZILBWSA-N
CAS: nan
Molecular Weight: 332.44
Number of References: 219
Class: Abietane diterpenoids
Superclass: Diterpenoids
Pathway: Terpenoids
ppm: -0.23499999997511622
CMID: CM243
IONMODE: Negative
COLLISIONENERGY: 40±20eV
INSTRUMENTTYPE: AB SCIEX
INSTRUMENT: Q-TOF
Comment:  
Num Peaks: 995
301.18228	357532.0
331.19223	246407.0
283.17007	72538.0
201.09187	64129.0
267.13901	35489.0
215.10776	29061.0
281.15503	15922.0
299.16498	14200.0
241.12238	12279.0
217.12321	10855.0
200.08357	5834.0
242.13008	4688.0
257.15378	4045.0
265.12292	3835.0
243.13989	2876.0
214.09926	2337.0
286.15729	2089.0
186.06781	1739.0
268.1467	1582.0
227.10675	1258.0
240.11525	1224.0
253.12288	1167.0
203.10771	842.0
202.09993	773.0
245.11673	758.0
228.11581	712.0
285.14767	711.0
252.11429	692.0
303.19443	650.0
255.13826	611.0
216.11575	589.0
269.15469	564.0
187.07635	552.0
213.09027	503.0
329.17615	394.0
199.07506	362.0
225.09091	358.0
172.05318	340.0
239.1057	337.0
251.10617	336.0
313.18057	325.0
164.08356	288.0
300.1889	281.0
212.08366	275.0
285.18573	261.0
226.09991	261.0
330.10245	261.0
57.03413	258.0
313.14246	254.0
188.0836	254.0
184.08812	249.0
185.05933	237.0
300.20419	235.0
229.12268	220.0
300.17365	201.0
177.09137	200.0
158.03766	197.0
271.13443	183.0
222.10371	183.0
165.08861	182.0
189.09221	182.0
266.12842	180.0
282.16412	177.0
295.1709	169.0
258.12833	157.0
265.1564	154.0
280.1084	153.0
238.09978	146.0
330.08643	140.0
97.06311	137.0
249.12845	122.0
279.13571	113.0
159.04381	112.0
209.09938	110.0
200.10435	110.0
171.12061	90.0
223.11624	88.0
185.09796	86.0
198.1049	86.0
284.13986	86.0
79.05344	86.0
144.0563	85.0
199.11374	85.0
151.07918	84.0
200.06973	83.0
211.07375	82.0
224.08563	81.0
295.13391	80.0
239.14355	79.0
330.12915	78.0
237.08995	77.0
190.10081	76.0
239.17839	76.0
254.13034	75.0
173.05783	75.0
229.08414	74.0
221.09641	74.0
187.11386	73.0
235.10977	69.0
198.06631	68.0
191.10533	67.0
269.11774	66.0
226.08813	66.0
244.15332	65.0
273.18777	65.0
256.10898	65.0
251.14186	64.0
174.07057	63.0
250.09853	62.0
330.06686	61.0
297.14771	60.0
244.10895	60.0
207.08073	59.0
223.07237	59.0
163.07782	58.0
225.12617	56.0
286.1308	55.0
255.17111	55.0
250.13416	55.0
212.05798	54.0
219.53094	54.0
301.9935	53.0
300.69812	53.0
200.4328	53.0
197.06013	51.0
189.12587	49.0
287.16537	49.0
210.10315	49.0
257.10825	48.0
221.13571	48.0
175.1122	48.0
230.09164	48.0
243.10324	48.0
223.71198	48.0
284.16959	47.0
270.12274	47.0
218.57292	47.0
99.08316	46.0
222.61334	46.0
221.00322	46.0
171.04631	46.0
216.74965	46.0
200.92528	46.0
202.06512	46.0
173.09648	45.0
216.17622	45.0
150.06979	45.0
300.14819	44.0
302.18582	44.0
231.13708	44.0
212.11504	44.0
240.09097	43.0
137.09506	43.0
216.13014	43.0
245.07841	42.0
223.14697	42.0
201.72701	42.0
265.0687	42.0
230.13324	41.0
221.82506	41.0
299.13449	41.0
263.14465	41.0
282.23486	41.0
245.1566	41.0
203.95293	41.0
202.72968	40.0
176.08545	40.0
214.07919	40.0
157.10219	40.0
220.01147	40.0
215.82074	40.0
217.64589	40.0
221.32216	39.0
223.17769	39.0
268.11462	39.0
311.1666	39.0
149.05901	39.0
218.55411	39.0
253.15248	38.0
224.82507	38.0
223.21426	38.0
183.07971	38.0
281.1304	38.0
207.59824	38.0
258.11417	38.0
259.09525	38.0
224.13255	38.0
216.27271	38.0
216.86067	38.0
162.06894	38.0
217.67767	38.0
302.02582	37.0
171.07834	37.0
221.73172	37.0
205.73994	37.0
220.40237	37.0
222.28033	37.0
211.80708	37.0
255.10854	37.0
222.74925	37.0
146.03767	37.0
204.94429	37.0
296.13574	37.0
202.56796	37.0
224.45813	37.0
240.49629	37.0
217.98119	37.0
203.07143	37.0
161.05946	37.0
244.07376	37.0
218.39343	36.0
203.46234	36.0
208.97337	36.0
220.4809	36.0
220.44019	36.0
266.2818	36.0
214.19957	36.0
201.70892	36.0
184.0549	36.0
220.32388	36.0
204.12358	36.0
206.46819	36.0
203.22496	35.0
211.11217	35.0
209.53999	35.0
217.72679	35.0
236.66945	35.0
301.97137	35.0
225.37897	35.0
172.09042	35.0
237.1925	35.0
221.7813	35.0
169.10004	35.0
222.40738	35.0
198.814	35.0
222.56805	35.0
285.11298	35.0
227.36656	34.0
202.58607	34.0
256.81155	34.0
255.3432	34.0
224.17506	34.0
297.10889	34.0
221.4052	34.0
215.56905	34.0
199.95062	34.0
217.10301	34.0
216.94865	34.0
242.10417	34.0
202.98212	34.0
220.91733	34.0
200.87253	34.0
214.40027	34.0
214.7718	33.0
197.69438	33.0
214.9254	33.0
231.9492	33.0
233.62109	33.0
216.22949	33.0
233.5777	33.0
282.14767	33.0
282.26611	33.0
219.47871	33.0
201.79794	33.0
302.49573	33.0
303.77957	33.0
222.04097	33.0
200.63388	33.0
330.73972	33.0
214.38449	32.0
298.11575	32.0
210.0705	32.0
313.11646	32.0
270.07285	32.0
231.07158	32.0
232.13864	32.0
202.47319	32.0
221.93591	32.0
200.30388	32.0
220.36023	32.0
199.54787	32.0
202.04007	32.0
223.6739	32.0
219.33076	32.0
216.4081	32.0
218.12868	32.0
219.02776	32.0
226.91641	32.0
228.07884	32.0
196.5079	32.0
217.78026	31.0
238.36278	31.0
330.94635	31.0
206.52307	31.0
236.78246	31.0
220.62051	31.0
222.12852	31.0
303.4332	31.0
302.45316	31.0
209.96265	31.0
222.97292	31.0
226.03807	31.0
300.23303	31.0
229.23386	31.0
244.92206	31.0
226.14262	31.0
276.75699	31.0
224.56818	31.0
218.50053	31.0
225.26285	31.0
206.33875	31.0
57.02452	31.0
197.92026	31.0
188.18031	31.0
201.0766	31.0
205.36508	31.0
202.0011	31.0
196.38849	30.0
219.29016	30.0
218.21257	30.0
204.83775	30.0
222.99486	30.0
209.1362	30.0
217.90456	30.0
193.77061	30.0
259.16147	30.0
209.20134	30.0
201.52538	30.0
202.92493	30.0
214.88232	30.0
224.30704	30.0
223.55968	30.0
223.8614	30.0
221.3309	30.0
238.07108	30.0
330.9321	30.0
223.30498	30.0
252.08009	29.0
302.28625	29.0
302.6763	29.0
199.7748	29.0
226.38567	29.0
218.88576	29.0
202.31856	29.0
185.45786	29.0
236.50526	29.0
236.11839	29.0
202.49271	29.0
199.42477	29.0
282.04898	29.0
216.21797	29.0
216.09848	29.0
196.71661	29.0
233.75433	29.0
219.6064	29.0
245.71504	29.0
221.91257	29.0
222.01324	29.0
208.66911	29.0
207.07509	29.0
205.39174	29.0
221.65736	29.0
167.78714	28.0
221.05272	28.0
206.9666	28.0
232.07152	28.0
224.90143	28.0
217.43356	28.0
227.4655	28.0
199.36807	28.0
221.72005	28.0
241.21819	28.0
216.9299	28.0
222.33583	28.0
223.93175	28.0
216.87221	28.0
228.92409	28.0
205.11957	28.0
281.11069	28.0
221.71277	28.0
234.00293	28.0
200.49797	28.0
189.17841	28.0
222.2453	28.0
201.54623	28.0
218.77277	28.0
219.91852	28.0
271.17151	28.0
227.26468	28.0
201.59212	28.0
293.63852	28.0
222.55783	28.0
219.08574	28.0
219.76897	27.0
216.51471	27.0
241.15279	27.0
223.82039	27.0
219.9679	27.0
219.73703	27.0
220.68451	27.0
186.03976	27.0
218.71628	27.0
202.88586	27.0
218.60622	27.0
243.07423	27.0
252.14539	27.0
239.08147	27.0
235.97997	27.0
180.05667	27.0
228.79669	27.0
225.29959	27.0
228.18385	27.0
208.02457	27.0
208.85306	27.0
205.88885	27.0
231.1088	27.0
208.49799	27.0
229.44296	27.0
215.4986	27.0
302.07687	27.0
215.3017	27.0
302.79898	27.0
207.78029	26.0
200.66023	26.0
218.93066	26.0
198.18761	26.0
218.70035	26.0
195.67004	26.0
306.31091	26.0
250.85484	26.0
298.08194	26.0
252.59187	26.0
220.54051	26.0
315.06546	26.0
135.45349	26.0
216.03658	26.0
237.48819	26.0
238.93614	26.0
226.9415	26.0
219.86334	26.0
194.40228	26.0
304.29013	26.0
303.70959	26.0
247.15547	26.0
200.61307	26.0
208.25908	26.0
247.42804	26.0
210.65994	26.0
249.41757	26.0
318.26489	26.0
219.12198	26.0
250.27046	26.0
134.55914	26.0
229.68333	26.0
228.28001	26.0
165.10875	26.0
223.59921	26.0
201.36415	26.0
268.97159	26.0
215.68265	26.0
239.39653	26.0
223.36644	26.0
224.19559	26.0
198.9231	26.0
203.9921	26.0
234.76604	26.0
203.6342	26.0
202.80357	26.0
232.43416	26.0
330.8056	26.0
204.1026	26.0
235.06923	26.0
203.52661	26.0
206.6244	26.0
198.61383	26.0
286.77386	26.0
241.59857	26.0
217.87421	26.0
270.39801	26.0
242.04019	26.0
287.28818	26.0
288.01398	26.0
190.87526	26.0
167.48918	26.0
199.19666	26.0
280.23297	26.0
238.82867	25.0
227.08315	25.0
239.88466	25.0
221.61653	25.0
227.7137	25.0
197.38745	25.0
227.31046	25.0
200.90723	25.0
197.23615	25.0
205.52228	25.0
222.71564	25.0
229.75606	25.0
222.8735	25.0
233.09453	25.0
224.24985	25.0
234.31012	25.0
223.42938	25.0
224.42586	25.0
233.05417	25.0
235.05722	25.0
231.91043	25.0
195.95781	25.0
235.4823	25.0
223.02995	25.0
198.54622	25.0
231.73299	25.0
222.9232	25.0
198.35997	25.0
196.96805	25.0
236.46913	25.0
225.53778	25.0
231.35451	25.0
222.80479	25.0
225.68929	25.0
196.57655	25.0
230.91679	25.0
198.03737	25.0
233.66301	25.0
230.34424	25.0
226.59348	25.0
200.34409	25.0
226.84119	25.0
222.38693	25.0
221.46204	25.0
229.03671	25.0
240.03636	25.0
203.82289	25.0
155.98967	25.0
156.44989	25.0
213.92592	25.0
159.40091	25.0
204.16975	25.0
204.06763	25.0
214.41605	25.0
214.67422	25.0
214.8163	25.0
203.91797	25.0
215.78333	25.0
174.47392	25.0
167.33968	25.0
275.67468	25.0
216.08553	25.0
270.1662	25.0
216.35191	25.0
192.76727	25.0
216.47148	25.0
169.06566	25.0
216.77272	25.0
202.9319	25.0
213.05739	25.0
212.63736	25.0
212.54169	25.0
212.3804	25.0
330.8822	25.0
206.19107	25.0
329.65958	25.0
206.77786	25.0
207.45998	25.0
111.17521	25.0
208.33116	25.0
208.41032	25.0
204.91064	25.0
209.06256	25.0
204.75787	25.0
204.67801	25.0
204.64018	25.0
302.10413	25.0
135.03894	25.0
301.92203	25.0
138.92076	25.0
139.45337	25.0
204.43991	25.0
204.40491	25.0
146.50905	25.0
268.004	25.0
249.10217	25.0
218.32253	25.0
186.47411	25.0
253.03719	25.0
185.84213	25.0
201.73396	25.0
251.98836	25.0
243.17653	25.0
219.06255	25.0
220.29045	25.0
253.89467	25.0
220.21779	25.0
201.93848	25.0
219.63107	25.0
246.31714	25.0
187.63397	25.0
189.01411	25.0
220.05069	25.0
244.31096	25.0
220.58852	25.0
217.45233	25.0
221.17795	25.0
192.32837	25.0
242.39224	25.0
221.02505	25.0
218.04625	25.0
202.70457	25.0
191.06607	25.0
229.60913	24.0
302.83475	24.0
73.13971	24.0
330.03839	24.0
243.4469	24.0
303.9537	24.0
239.00728	24.0
189.2444	24.0
193.29109	24.0
329.13882	24.0
305.40836	24.0
190.24396	24.0
229.39551	24.0
265.03842	24.0
248.78389	24.0
238.79085	24.0
196.11961	24.0
175.60757	24.0
263.13351	24.0
168.64827	24.0
234.11081	24.0
260.18088	24.0
167.83028	24.0
176.06596	24.0
236.08377	24.0
271.60065	24.0
184.12001	24.0
254.81145	24.0
238.33406	24.0
185.02734	24.0
165.76498	24.0
232.77917	24.0
236.89096	24.0
195.53583	24.0
237.7886	24.0
228.73152	24.0
292.78668	24.0
149.28984	24.0
264.11298	24.0
168.01173	24.0
205.42403	24.0
198.6718	24.0
213.49358	24.0
219.37137	24.0
222.62943	24.0
219.17561	24.0
219.15532	24.0
215.36061	24.0
219.00893	24.0
199.15796	24.0
216.05241	24.0
224.02113	24.0
222.69371	24.0
218.98863	24.0
203.34363	24.0
216.63	24.0
203.03514	24.0
217.16507	24.0
221.34837	24.0
223.33278	24.0
218.94371	24.0
217.33105	24.0
217.59387	24.0
202.62093	24.0
223.0943	24.0
202.51639	24.0
202.25031	24.0
218.48462	24.0
224.97926	24.0
222.8618	24.0
209.81509	24.0
220.9348	24.0
207.21886	24.0
200.80452	24.0
227.00346	24.0
209.01018	24.0
198.41377	24.0
221.99135	24.0
220.25993	24.0
210.61446	24.0
210.73669	24.0
205.03822	24.0
201.39473	24.0
201.89812	24.0
201.92038	24.0
206.14749	24.0
206.09406	24.0
227.57776	24.0
220.75288	23.0
218.74234	23.0
202.35059	23.0
192.59056	23.0
185.80342	23.0
241.09196	23.0
219.56287	23.0
243.70825	23.0
220.12479	23.0
189.1151	23.0
219.84737	23.0
202.12637	23.0
245.36057	23.0
247.83025	23.0
247.58519	23.0
218.2719	23.0
245.51706	23.0
252.6915	23.0
175.07591	23.0
218.17641	23.0
184.5295	23.0
147.83842	23.0
147.17952	23.0
300.138	23.0
212.10506	23.0
141.71286	23.0
300.83569	23.0
204.53653	23.0
210.0407	23.0
204.69482	23.0
207.73512	23.0
206.56387	23.0
72.04006	23.0
330.69519	23.0
69.27277	23.0
205.65707	23.0
213.36339	23.0
213.43636	23.0
213.68678	23.0
203.5769	23.0
202.45369	23.0
256.99521	23.0
182.03444	23.0
258.35336	23.0
259.71826	23.0
217.2632	23.0
203.60765	23.0
284.70139	23.0
272.28049	23.0
165.50284	23.0
204.01866	23.0
282.71545	23.0
283.13876	23.0
160.37294	23.0
221.29593	23.0
220.03036	23.0
233.93553	23.0
222.7814	23.0
199.68346	23.0
225.63043	23.0
196.55183	23.0
226.40924	23.0
236.34566	23.0
230.03816	23.0
224.6445	23.0
197.71228	23.0
235.14581	23.0
222.82964	23.0
198.88028	23.0
223.24937	23.0
222.50232	23.0
225.05272	23.0
225.81729	23.0
221.67049	23.0
239.8149	23.0
228.97743	23.0
199.30586	23.0
221.55093	23.0
237.86412	23.0
237.61497	23.0
229.21014	23.0
234.47205	23.0
236.83519	23.0
251.50359	22.0
199.76511	22.0
299.57843	22.0
236.5625	22.0
230.95102	22.0
148.22446	22.0
213.27185	22.0
290.86789	22.0
225.65103	22.0
239.98022	22.0
183.2202	22.0
266.23865	22.0
216.00491	22.0
269.54684	22.0
167.36501	22.0
215.8754	22.0
267.85974	22.0
170.55231	22.0
203.75859	22.0
266.09006	22.0
232.71045	22.0
233.16331	22.0
199.48978	22.0
202.75476	22.0
235.81151	22.0
219.10023	22.0
283.6795	22.0
258.30457	22.0
217.84241	22.0
186.09987	22.0
199.2395	22.0
90.18607	22.0
188.49075	22.0
197.08488	22.0
210.39708	22.0
238.61685	22.0
206.8356	22.0
229.42665	22.0
200.5784	22.0
222.31538	22.0
303.46902	22.0
226.87364	22.0
304.95157	22.0
220.71361	22.0
190.35474	22.0
242.95821	22.0
302.7785	22.0
111.93542	22.0
197.88443	22.0
247.06926	22.0
249.76723	22.0
229.0708	22.0
225.89235	22.0
240.36571	22.0
211.64891	22.0
247.98444	22.0
211.48227	22.0
230.52559	22.0
133.53873	22.0
197.58838	21.0
81.07135	21.0
273.7886	21.0
197.30215	21.0
215.28589	21.0
166.49832	21.0
272.17548	21.0
167.08388	21.0
214.55946	21.0
69.35593	21.0
198.96452	21.0
224.05046	21.0
330.60971	21.0
278.2872	21.0
204.50992	21.0
204.92746	21.0
305.52472	21.0
212.03232	21.0
300.80853	21.0
211.76291	21.0
144.55273	21.0
135.08218	21.0
211.18616	21.0
211.03676	21.0
204.29991	21.0
151.46339	21.0
155.55823	21.0
230.25209	21.0
213.31619	21.0
231.52731	21.0
196.43652	21.0
303.05121	21.0
213.63097	21.0
160.0705	21.0
139.17596	21.0
303.97931	21.0
303.27118	21.0
228.63673	21.0
237.43085	21.0
242.74152	21.0
235.84009	21.0
201.5643	21.0
243.29108	21.0
238.87105	21.0
243.89633	21.0
243.94527	21.0
244.54213	21.0
244.96344	21.0
219.70509	21.0
200.157	21.0
184.32204	21.0
203.42603	21.0
237.36597	21.0
186.2856	21.0
236.94673	21.0
197.32692	21.0
236.18008	21.0
194.2917	21.0
202.41049	21.0
220.87659	21.0
234.67003	21.0
234.64603	21.0
201.42668	21.0
221.06291	21.0
172.07758	21.0
169.92239	21.0
227.04625	20.0
301.82675	20.0
240.20479	20.0
240.96121	20.0
195.63718	20.0
241.04636	20.0
201.45309	20.0
205.07188	20.0
187.21568	20.0
302.23349	20.0
241.77213	20.0
302.12283	20.0
220.8562	20.0
238.3008	20.0
188.27974	20.0
227.24992	20.0
200.47301	20.0
241.95792	20.0
201.49757	20.0
197.65445	20.0
218.19667	20.0
201.83968	20.0
221.49992	20.0
270.31268	20.0
233.22462	20.0
217.89011	20.0
204.33911	20.0
159.45532	20.0
163.5609	20.0
235.40416	20.0
204.28172	20.0
156.7256	20.0
232.34608	20.0
199.56171	20.0
199.65994	20.0
183.60347	20.0
174.19205	20.0
256.71271	20.0
217.06694	20.0
184.463	20.0
148.04926	20.0
255.04597	20.0
196.18269	20.0
236.13344	20.0
255.51849	20.0
216.60406	20.0
223.49818	20.0
268.49478	20.0
224.69441	20.0
109.33976	19.0
163.93683	19.0
203.18727	19.0
206.70605	19.0
216.38792	19.0
284.42551	19.0
222.06577	19.0
239.5602	19.0
284.60721	19.0
173.67416	19.0
125.42967	19.0
238.0197	19.0
219.46857	19.0
195.24016	19.0
220.07684	19.0
202.14308	19.0
302.89951	19.0
184.89151	19.0
255.66879	19.0
130.0403	19.0
194.74513	19.0
204.59676	19.0
290.50058	19.0
219.82849	19.0
215.94159	18.0
248.37012	18.0
147.55756	18.0
166.08159	18.0
201.05994	18.0
303.09555	18.0
164.70004	18.0
89.60947	17.0
222.90421	17.0
125.8292	17.0
319.78488	17.0
222.45558	17.0
163.73376	17.0
176.48071	17.0
127.74451	16.0
61.05478	16.0
117.64469	15.0

MSID: 8891
ID: 107
RETENTIONTIME: 15.18205
PRECURSORMZ: 461.1086
AREA: 65989320.0
PRECURSORTYPE: [M-H]-
SMILES: COC1=CC(=CC=C1O)C1=CC(=O)C2=C(O1)C=C(O[C@@H]1O[C@H](CO)[C@@H](O)[C@H](O)[C@H]1O)C=C2O
NAME: chrysoeriol 7-O-glucoside
FORMULA: C22H22O11
INCHIKEY: GAMYVSCDDLXAQW-MIUGBVLSSA-N
CAS: nan
Molecular Weight: 462.41
Number of References: 83
Class: Flavones
Superclass: Flavonoids
Pathway: Shikimates and Phenylpropanoids
ppm: 0.21000000003823516
CMID: CM243
IONMODE: Negative
COLLISIONENERGY: 40±20eV
INSTRUMENTTYPE: AB SCIEX
INSTRUMENT: Q-TOF
Comment:  
Num Peaks: 1575
283.02713	368591.0
461.11475	265805.0
297.0401	100245.0
255.03069	59925.0
284.03296	56714.0
298.04855	44115.0
285.04059	42438.0
299.0553	40902.0
446.08612	38729.0
269.04584	24533.0
163.00427	24350.0
227.03474	16501.0
183.04552	10572.0
164.98317	7280.0
211.03989	6616.0
135.00841	5574.0
117.0349	4926.0
311.05475	4043.0
178.99805	3668.0
185.02493	3620.0
295.02328	3574.0
282.05264	3221.0
268.03644	2855.0
281.04541	2760.0
313.03546	2729.0
280.0383	2717.0
239.03336	2684.0
159.04526	2592.0
136.98749	2565.0
341.06522	1712.0
429.08035	1674.0
177.98933	1407.0
187.04045	1270.0
267.02893	1065.0
143.0498	1056.0
167.04993	900.0
177.01865	869.0
326.04462	866.0
195.0448	829.0
65.00227	794.0
192.0069	765.0
164.00978	725.0
228.04366	724.0
199.0394	706.0
149.99562	698.0
310.04694	695.0
169.02896	682.0
200.04645	605.0
212.04688	601.0
256.03723	560.0
252.04156	533.0
136.01613	504.0
151.00356	503.0
155.04955	497.0
165.98845	489.0
210.03105	487.0
182.03865	483.0
171.04399	471.0
341.04712	471.0
327.05151	462.0
341.02542	453.0
225.05449	416.0
149.02454	410.0
253.05156	397.0
224.04636	395.0
355.04434	389.0
240.04123	351.0
279.03137	345.0
328.0582	310.0
251.03358	306.0
226.02513	305.0
223.03903	282.0
266.02335	280.0
186.03065	270.0
215.03194	251.0
459.58936	244.0
91.01951	238.0
176.98346	233.0
175.0036	231.0
145.02899	228.0
371.07156	224.0
161.02365	216.0
282.08884	214.0
241.04973	209.0
166.99805	209.0
229.04887	205.0
270.05228	197.0
201.05466	197.0
213.01909	196.0
339.0517	196.0
205.01747	193.0
459.58304	193.0
137.02303	192.0
282.04114	181.0
356.04886	175.0
309.04248	175.0
216.0412	167.0
282.10034	166.0
257.04422	162.0
121.99998	160.0
184.05116	159.0
132.05833	158.0
282.01813	155.0
237.01941	154.0
197.02467	150.0
209.02179	149.0
139.00523	147.0
325.03397	141.0
94.00523	138.0
293.04184	138.0
119.05001	137.0
119.01368	135.0
141.03539	134.0
254.06046	133.0
265.01169	131.0
213.05768	129.0
107.01566	128.0
156.05716	115.0
214.02934	115.0
313.0112	114.0
459.55786	110.0
158.03664	110.0
194.03952	109.0
181.06488	109.0
211.02708	105.0
268.05887	104.0
399.07309	102.0
154.04276	99.0
306.05429	99.0
198.03075	97.0
459.61664	97.0
63.02478	97.0
190.99594	96.0
321.07547	95.0
148.01489	94.0
196.05269	93.0
95.0153	93.0
162.03177	92.0
296.03503	92.0
129.03403	89.0
231.06892	88.0
253.01418	87.0
67.01994	86.0
237.05409	85.0
180.05692	85.0
225.02365	85.0
160.98637	84.0
238.02457	83.0
416.07037	83.0
206.02264	82.0
108.02194	81.0
189.01976	81.0
296.05695	81.0
197.05766	80.0
172.05212	80.0
93.03359	79.0
179.03342	77.0
343.0484	77.0
108.99306	76.0
181.0293	75.0
312.06076	75.0
181.01349	74.0
207.04437	74.0
92.9977	74.0
189.99037	72.0
295.06534	72.0
209.06001	72.0
96.99186	70.0
221.04283	70.0
430.08911	70.0
338.04266	70.0
131.04858	69.0
337.03336	69.0
286.04504	69.0
180.00568	68.0
173.02199	68.0
313.07184	67.0
157.02878	67.0
109.99932	66.0
120.99505	65.0
243.03181	65.0
155.03247	65.0
68.99928	64.0
411.06778	64.0
177.0004	64.0
242.05728	64.0
304.28372	63.0
353.07089	62.0
254.19315	62.0
217.04993	60.0
168.0564	60.0
123.0069	59.0
254.02299	59.0
268.00278	55.0
179.02556	55.0
235.04103	54.0
326.01987	53.0
385.09299	52.0
323.05255	52.0
169.06207	52.0
459.65652	52.0
208.0545	52.0
193.01234	51.0
205.00906	51.0
165.01335	51.0
89.00159	51.0
459.53687	51.0
111.01022	51.0
296.06873	50.0
204.00217	49.0
197.36571	49.0
210.0722	49.0
350.03946	48.0
226.06047	48.0
312.99213	48.0
195.03523	48.0
137.99567	48.0
428.06873	48.0
188.58783	48.0
254.0464	47.0
265.04675	47.0
300.24362	47.0
193.03276	47.0
239.01215	47.0
238.06535	46.0
209.04585	46.0
308.03278	45.0
263.03381	45.0
304.04633	45.0
212.85046	45.0
140.01152	45.0
223.02295	45.0
187.0217	45.0
194.95044	45.0
134.98793	45.0
191.03926	44.0
386.06213	44.0
365.06339	44.0
383.07593	44.0
109.9983	44.0
147.00751	44.0
255.00723	44.0
300.3064	44.0
185.05957	44.0
305.7905	44.0
303.76974	43.0
190.02817	43.0
170.03625	43.0
255.06978	43.0
429.04993	43.0
191.52548	43.0
195.72784	43.0
176.01033	43.0
189.98633	43.0
189.67599	43.0
302.74655	42.0
214.06659	42.0
176.01942	42.0
120.99075	42.0
204.54521	42.0
183.02563	42.0
190.20775	41.0
143.04044	41.0
299.61273	41.0
203.03542	41.0
196.99031	41.0
307.34222	41.0
326.00748	41.0
207.49835	41.0
326.07468	41.0
205.69809	41.0
328.03159	41.0
195.26779	40.0
357.05847	40.0
124.01685	40.0
204.98802	40.0
164.96304	40.0
175.03987	40.0
192.36258	40.0
301.53799	40.0
247.02188	39.0
199.4043	39.0
294.99469	39.0
303.94046	39.0
331.74893	39.0
297.71729	39.0
188.76808	39.0
200.92	39.0
285.70563	38.0
300.64081	38.0
198.15204	38.0
197.50331	38.0
303.19315	38.0
304.35376	38.0
240.03365	37.0
79.01698	37.0
209.01329	37.0
190.57529	37.0
315.32318	37.0
131.01271	37.0
300.88367	37.0
321.04388	37.0
253.02818	37.0
191.8875	37.0
211.9984	37.0
300.07736	37.0
205.78658	37.0
191.38591	36.0
219.97691	36.0
192.92801	36.0
130.0416	36.0
265.98343	36.0
303.10449	36.0
369.05399	36.0
187.63824	36.0
429.12701	36.0
219.02516	36.0
202.88475	36.0
446.02408	36.0
307.31476	36.0
190.1902	36.0
301.95306	36.0
188.05029	36.0
307.20319	36.0
213.03481	36.0
198.86398	36.0
300.45917	36.0
199.3324	36.0
282.77347	36.0
309.01837	36.0
188.4843	36.0
306.93549	35.0
287.61896	35.0
317.66116	35.0
302.94424	35.0
316.40747	35.0
372.04559	35.0
191.5797	35.0
207.78056	35.0
203.16521	35.0
133.03017	35.0
192.05846	35.0
195.76895	35.0
314.87469	35.0
282.12338	35.0
193.78178	35.0
302.28668	35.0
193.64549	35.0
305.42929	35.0
191.17328	35.0
191.60681	35.0
190.55771	35.0
208.43889	35.0
190.06732	35.0
303.41315	35.0
200.88806	35.0
199.72525	35.0
337.07291	35.0
204.72452	35.0
268.1647	34.0
460.33704	34.0
205.0918	34.0
209.47366	34.0
325.72995	34.0
213.92334	34.0
369.58658	34.0
212.02406	34.0
306.24277	34.0
188.41843	34.0
219.04401	34.0
315.39102	34.0
305.93265	34.0
197.56386	34.0
218.1796	34.0
298.44427	34.0
201.87335	34.0
267.06415	34.0
200.08385	34.0
146.03551	34.0
188.18997	34.0
339.33847	34.0
283.63538	34.0
207.99236	34.0
211.15372	34.0
306.54102	34.0
326.09235	34.0
299.76868	34.0
193.07222	33.0
224.33229	33.0
224.01997	33.0
193.15523	33.0
204.67549	33.0
311.10138	33.0
305.16238	33.0
322.99802	33.0
196.27213	33.0
305.09222	33.0
198.26372	33.0
202.99356	33.0
323.45224	33.0
198.67621	33.0
305.59018	33.0
346.83505	33.0
198.7618	33.0
344.36829	33.0
190.16183	33.0
285.33167	33.0
281.99509	33.0
185.31944	33.0
191.81697	33.0
355.71262	33.0
142.04315	33.0
190.25368	33.0
304.11633	33.0
205.45097	33.0
317.08194	33.0
293.0368	32.0
215.70883	32.0
197.30655	32.0
299.84329	32.0
195.34444	32.0
197.15527	32.0
202.14058	32.0
257.35516	32.0
302.99026	32.0
381.46188	32.0
283.80032	32.0
300.90405	32.0
325.18759	32.0
318.64105	32.0
201.23799	32.0
201.14493	32.0
300.40314	32.0
162.47833	32.0
460.80569	32.0
305.20685	32.0
200.30971	32.0
199.44579	32.0
191.21661	32.0
324.6633	32.0
193.6414	32.0
314.00473	32.0
296.8089	32.0
286.07983	32.0
206.25885	32.0
226.31378	32.0
323.68475	32.0
205.97768	32.0
213.51534	32.0
191.54581	32.0
282.7323	32.0
193.85541	32.0
187.69057	32.0
329.40225	32.0
220.77502	32.0
153.0235	32.0
300.68665	32.0
300.3624	31.0
196.81992	31.0
187.29231	31.0
199.11401	31.0
199.68234	31.0
460.71109	31.0
197.59966	31.0
197.19791	31.0
189.69757	31.0
199.52463	31.0
300.14011	31.0
303.72879	31.0
325.06219	31.0
209.71751	31.0
194.05998	31.0
184.8172	31.0
255.74588	31.0
193.40164	31.0
415.06424	31.0
188.10266	31.0
193.20831	31.0
324.74979	31.0
195.15697	31.0
222.16678	31.0
202.33972	31.0
120.0211	31.0
313.40112	31.0
330.08688	31.0
193.18925	31.0
195.79361	31.0
205.32887	31.0
188.22758	31.0
215.40259	31.0
193.09262	31.0
186.01997	31.0
281.07825	31.0
223.46774	31.0
200.62721	31.0
192.21185	31.0
198.81288	30.0
219.14981	30.0
202.81361	30.0
204.261	30.0
164.7229	30.0
207.17262	30.0
266.05847	30.0
186.45831	30.0
165.62529	30.0
281.00107	30.0
132.01782	30.0
305.90182	30.0
200.20854	30.0
306.09882	30.0
202.66441	30.0
192.03539	30.0
302.78745	30.0
196.33113	30.0
329.73648	30.0
192.37888	30.0
371.0376	30.0
196.56857	30.0
192.33949	30.0
302.54724	30.0
195.82239	30.0
257.5343	30.0
312.35489	30.0
254.01207	30.0
195.32938	30.0
302.7738	30.0
312.68903	30.0
194.70441	30.0
256.01532	30.0
189.03053	30.0
198.5175	30.0
335.51056	30.0
194.58554	30.0
304.99475	30.0
307.00928	29.0
195.97864	29.0
303.55475	29.0
297.01816	29.0
161.99811	29.0
301.93436	29.0
302.00583	29.0
196.10753	29.0
309.80212	29.0
318.40686	29.0
195.96083	29.0
302.24582	29.0
283.82504	29.0
204.63486	29.0
304.89215	29.0
297.6666	29.0
160.05336	29.0
308.86862	29.0
202.30351	29.0
444.59406	29.0
330.16873	29.0
195.06943	29.0
132.13824	29.0
302.05005	29.0
358.06952	29.0
207.70859	29.0
200.85753	29.0
113.02505	29.0
316.49457	29.0
157.22763	29.0
299.91623	29.0
328.51776	29.0
139.05949	29.0
197.41936	29.0
317.25287	29.0
191.10423	29.0
217.56239	29.0
305.49091	29.0
302.61368	29.0
186.84229	29.0
460.47571	29.0
302.60004	29.0
199.84706	29.0
199.90382	29.0
305.633	29.0
459.63342	29.0
200.6716	29.0
302.49445	29.0
206.00298	29.0
162.4696	29.0
351.04971	29.0
310.09351	29.0
216.15924	29.0
387.07489	29.0
303.65543	29.0
186.36473	29.0
302.8096	28.0
215.81239	28.0
190.45769	28.0
193.05045	28.0
208.84909	28.0
191.94313	28.0
303.32275	28.0
322.69009	28.0
220.2675	28.0
192.88176	28.0
205.74443	28.0
304.84769	28.0
206.56274	28.0
192.72403	28.0
236.85661	28.0
206.20824	28.0
205.65875	28.0
319.7818	28.0
204.05811	28.0
186.76601	28.0
190.23341	28.0
195.92929	28.0
305.19144	28.0
209.60834	28.0
189.78526	28.0
299.49579	28.0
196.59879	28.0
196.63312	28.0
196.6908	28.0
196.79518	28.0
199.8166	28.0
189.55733	28.0
199.64914	28.0
329.17657	28.0
282.78992	28.0
299.85687	28.0
307.04874	28.0
212.20091	28.0
198.47473	28.0
459.51797	28.0
212.66335	28.0
318.69873	28.0
304.67673	28.0
194.98874	28.0
191.65967	28.0
240.54521	28.0
330.54074	28.0
185.83971	28.0
305.03409	28.0
202.82338	28.0
222.02814	28.0
304.38449	28.0
182.44318	28.0
298.53226	28.0
305.12814	28.0
349.05627	28.0
301.71829	28.0
253.20268	27.0
189.35381	27.0
171.77991	27.0
303.6264	27.0
190.38066	27.0
184.00069	27.0
190.12132	27.0
316.71063	27.0
156.9257	27.0
191.27348	27.0
209.94591	27.0
283.81021	27.0
303.879	27.0
190.6199	27.0
190.6848	27.0
243.02419	27.0
344.11392	27.0
190.8674	27.0
210.09065	27.0
192.95929	27.0
204.30998	27.0
300.05701	27.0
401.08472	27.0
305.33517	27.0
197.26804	27.0
166.98792	27.0
301.11642	27.0
328.4361	27.0
207.56325	27.0
197.89297	27.0
196.42032	27.0
255.77094	27.0
298.58301	27.0
143.03342	27.0
163.99097	27.0
186.3166	27.0
194.51042	27.0
222.58296	27.0
192.80696	27.0
313.09262	27.0
333.58148	27.0
158.24229	27.0
198.09828	27.0
269.0137	27.0
325.60269	27.0
321.14041	27.0
307.99838	27.0
300.54065	27.0
186.04669	27.0
301.06375	27.0
316.11316	26.0
216.00233	26.0
157.27061	26.0
258.4151	26.0
245.59105	26.0
307.90387	26.0
252.0027	26.0
259.1965	26.0
226.28433	26.0
225.47632	26.0
358.01392	26.0
282.60883	26.0
228.4668	26.0
313.79999	26.0
223.31699	26.0
213.96487	26.0
215.93469	26.0
279.08701	26.0
254.20563	26.0
169.01878	26.0
310.20041	26.0
315.27103	26.0
253.61736	26.0
219.32817	26.0
314.02902	26.0
152.00522	26.0
236.39417	26.0
315.55972	26.0
234.46037	26.0
214.36185	26.0
214.29733	26.0
315.81723	26.0
256.28333	26.0
232.64056	26.0
307.47958	26.0
311.16357	26.0
313.21567	26.0
399.06525	26.0
250.21039	26.0
206.10278	26.0
303.03629	26.0
332.19501	26.0
332.33423	26.0
325.23526	26.0
201.63409	26.0
298.64224	26.0
298.37155	26.0
325.01984	26.0
202.65048	26.0
302.02283	26.0
297.68179	26.0
297.53818	26.0
304.72971	26.0
302.40756	26.0
333.44379	26.0
295.8851	26.0
333.91068	26.0
185.14351	26.0
192.18605	26.0
334.64474	26.0
306.19135	26.0
302.86926	26.0
325.54791	26.0
200.79509	26.0
301.98538	26.0
301.5567	26.0
329.87521	26.0
196.01703	26.0
329.67603	26.0
301.2048	26.0
301.181	26.0
196.77596	26.0
300.93973	26.0
300.70703	26.0
197.96875	26.0
327.38986	26.0
200.36237	26.0
194.9231	26.0
194.72217	26.0
348.94104	26.0
330.90936	26.0
199.16376	26.0
199.24669	26.0
331.32635	26.0
194.13365	26.0
301.91223	26.0
291.95154	26.0
195.68127	26.0
288.98907	26.0
283.74094	26.0
460.66696	26.0
319.23566	26.0
319.09219	26.0
306.85486	26.0
284.61917	26.0
189.26756	26.0
210.31924	26.0
304.41696	26.0
318.60608	26.0
283.76895	26.0
340.2338	26.0
285.56659	26.0
342.76733	26.0
181.99902	26.0
424.56671	26.0
211.46974	26.0
282.68289	26.0
211.95561	26.0
356.02298	26.0
304.18634	26.0
316.79953	26.0
212.81476	26.0
306.70221	26.0
306.75024	26.0
320.91055	26.0
189.8082	26.0
306.42273	26.0
338.5506	26.0
306.31476	26.0
303.46945	26.0
189.73804	26.0
286.34988	26.0
286.22726	26.0
321.3475	26.0
206.81898	26.0
306.58389	26.0
320.00073	26.0
208.28622	26.0
306.60788	26.0
190.96617	26.0
257.14157	25.0
303.16245	25.0
150.03041	25.0
80.02909	25.0
156.0229	25.0
303.80048	25.0
302.45697	25.0
256.96573	25.0
308.59332	25.0
303.5155	25.0
302.11813	25.0
156.39375	25.0
304.49216	25.0
302.92038	25.0
282.52487	25.0
298.68625	25.0
301.51248	25.0
308.35941	25.0
404.70538	25.0
291.16397	25.0
289.23053	25.0
142.44025	25.0
307.40747	25.0
306.45358	25.0
286.8356	25.0
286.61673	25.0
286.15106	25.0
136.39671	25.0
285.65598	25.0
284.89511	25.0
307.27014	25.0
284.72821	25.0
132.49983	25.0
136.00128	25.0
134.56728	25.0
133.25728	25.0
282.13654	25.0
402.09732	25.0
294.05859	25.0
129.13417	25.0
299.51102	25.0
308.19608	25.0
300.59326	25.0
300.26398	25.0
300.17914	25.0
148.18413	25.0
307.95544	25.0
299.63138	25.0
307.74753	25.0
305.77509	25.0
127.14549	25.0
145.07027	25.0
307.07275	25.0
309.53503	25.0
297.73587	25.0
445.97858	25.0
305.96692	25.0
296.24231	25.0
126.44748	25.0
297.81696	25.0
188.92957	25.0
185.27411	25.0
324.63684	25.0
205.22363	25.0
185.39943	25.0
323.02615	25.0
204.22041	25.0
185.54347	25.0
203.91685	25.0
203.77284	25.0
203.11357	25.0
202.77457	25.0
321.71802	25.0
202.19209	25.0
202.17957	25.0
201.7245	25.0
201.11993	25.0
200.84782	25.0
200.73958	25.0
200.33603	25.0
186.14421	25.0
206.34465	25.0
207.01761	25.0
199.36974	25.0
183.34506	25.0
211.43983	25.0
211.39	25.0
210.77963	25.0
317.9108	25.0
210.54938	25.0
210.06085	25.0
209.82248	25.0
209.53178	25.0
183.9449	25.0
207.20645	25.0
319.33365	25.0
319.58746	25.0
208.6595	25.0
319.95169	25.0
320.80179	25.0
208.03615	25.0
207.46309	25.0
207.42783	25.0
186.6255	25.0
326.26569	25.0
317.42557	25.0
338.01025	25.0
192.62209	25.0
192.23221	25.0
334.07889	25.0
191.84816	25.0
335.31326	25.0
191.44011	25.0
191.36018	25.0
191.30464	25.0
190.46985	25.0
192.85184	25.0
190.43471	25.0
343.09918	25.0
188.63356	25.0
189.71512	25.0
189.23793	25.0
340.05319	25.0
188.78557	25.0
188.83804	25.0
192.83008	25.0
192.93617	25.0
199.01039	25.0
187.50011	25.0
198.55063	25.0
198.36714	25.0
198.28716	25.0
328.75208	25.0
187.09938	25.0
187.16771	25.0
187.22665	25.0
187.3781	25.0
195.58266	25.0
193.43568	25.0
187.55643	25.0
330.3894	25.0
187.58862	25.0
194.66342	25.0
194.52681	25.0
331.46182	25.0
187.81401	25.0
187.84219	25.0
317.54074	25.0
316.7908	25.0
315.08151	25.0
163.22189	25.0
314.04639	25.0
244.58995	25.0
163.59117	25.0
157.42538	25.0
214.97594	25.0
157.69336	25.0
230.66272	25.0
221.8414	25.0
233.00664	25.0
215.58659	25.0
240.01089	25.0
358.94098	25.0
226.74712	25.0
361.14847	25.0
174.03336	25.0
312.11783	25.0
315.89209	25.0
316.69669	25.0
165.05487	25.0
247.25281	25.0
231.46655	25.0
311.28967	25.0
213.10486	25.0
314.90079	25.0
225.89854	25.0
164.15154	25.0
161.37801	25.0
218.24614	25.0
213.70712	25.0
51.55066	25.0
195.88269	24.0
311.91718	24.0
187.42905	24.0
195.44025	24.0
301.33737	24.0
301.25409	24.0
196.49307	24.0
211.80452	24.0
329.25122	24.0
198.41818	24.0
225.3484	24.0
300.00439	24.0
300.16046	24.0
198.84189	24.0
198.62653	24.0
262.91312	24.0
198.39886	24.0
257.47458	24.0
348.51312	24.0
82.00613	24.0
186.99492	24.0
312.89166	24.0
312.40509	24.0
305.29752	24.0
300.66797	24.0
187.93884	24.0
256.17044	24.0
189.76097	24.0
336.05606	24.0
188.12416	24.0
190.88499	24.0
190.59827	24.0
303.23749	24.0
190.35229	24.0
190.08621	24.0
188.5179	24.0
245.04501	24.0
150.50818	24.0
188.68063	24.0
189.62744	24.0
189.47375	24.0
339.94305	24.0
189.32146	24.0
156.79938	24.0
246.7757	24.0
188.89726	24.0
394.11185	24.0
239.19688	24.0
155.46928	24.0
334.28656	24.0
194.00269	24.0
159.52727	24.0
193.77089	24.0
178.02853	24.0
235.6705	24.0
310.76813	24.0
310.5144	24.0
192.66965	24.0
192.64111	24.0
152.85637	24.0
192.54462	24.0
333.62619	24.0
192.31233	24.0
158.48877	24.0
192.11682	24.0
302.69034	24.0
158.19795	24.0
186.39413	24.0
199.59518	24.0
299.79074	24.0
141.01794	24.0
306.5033	24.0
184.44063	24.0
216.51788	24.0
287.70865	24.0
216.59715	24.0
321.46164	24.0
288.53644	24.0
206.46143	24.0
290.64285	24.0
204.84505	24.0
271.06384	24.0
321.7637	24.0
321.86383	24.0
199.66989	24.0
322.60742	24.0
294.89041	24.0
248.51245	24.0
126.84422	24.0
207.37987	24.0
216.20244	24.0
286.47748	24.0
184.23454	24.0
211.57941	24.0
188.94707	24.0
176.78549	24.0
211.24052	24.0
210.75404	24.0
213.49387	24.0
210.13182	24.0
213.58832	24.0
133.99989	24.0
208.99771	24.0
208.87032	24.0
214.65157	24.0
208.62555	24.0
285.75198	24.0
208.36819	24.0
208.13362	24.0
215.75342	24.0
306.12625	24.0
205.52536	24.0
204.74695	24.0
201.76622	24.0
202.94054	24.0
307.61868	24.0
221.67662	24.0
126.79349	24.0
202.10439	24.0
201.8024	24.0
201.41307	24.0
297.49765	24.0
313.8989	24.0
166.32927	24.0
166.03766	24.0
200.09494	24.0
100.83189	24.0
359.78751	24.0
220.58444	24.0
144.66833	24.0
203.39418	24.0
296.69757	24.0
296.28445	24.0
350.53799	24.0
296.60651	24.0
249.92081	24.0
314.29807	24.0
203.50313	24.0
347.89182	23.0
326.47797	23.0
392.05576	23.0
318.97852	23.0
304.51096	23.0
326.63547	23.0
355.02405	23.0
306.15878	23.0
325.94559	23.0
326.65848	23.0
326.42844	23.0
309.51434	23.0
324.40045	23.0
314.73224	23.0
330.43747	23.0
355.00006	23.0
307.12424	23.0
313.96655	23.0
459.39203	23.0
313.30927	23.0
324.10245	23.0
304.70578	23.0
354.67355	23.0
322.44034	23.0
376.44635	23.0
315.49362	23.0
308.92197	23.0
305.39334	23.0
322.0448	23.0
329.50891	23.0
394.75754	23.0
329.48047	23.0
305.99774	23.0
218.81651	23.0
304.00363	23.0
281.24078	23.0
157.06927	23.0
125.63173	23.0
264.95587	23.0
267.51083	23.0
267.97873	23.0
269.62439	23.0
273.15576	23.0
200.41089	23.0
210.36469	23.0
197.52119	23.0
199.58411	23.0
282.29776	23.0
282.65656	23.0
210.39877	23.0
199.29922	23.0
198.98276	23.0
187.88918	23.0
284.80423	23.0
201.25049	23.0
231.2729	23.0
201.42696	23.0
259.90643	23.0
206.75279	23.0
181.72433	23.0
179.45035	23.0
205.72055	23.0
208.32721	23.0
184.6974	23.0
233.08588	23.0
252.36192	23.0
208.58595	23.0
142.95731	23.0
204.33798	23.0
186.70979	23.0
127.21285	23.0
202.90427	23.0
202.62399	23.0
186.91725	23.0
202.25615	23.0
197.66298	23.0
238.96219	23.0
299.45172	23.0
300.99918	23.0
194.11319	23.0
213.47813	23.0
157.98247	23.0
189.04803	23.0
193.53104	23.0
190.51715	23.0
173.38672	23.0
214.08952	23.0
215.48164	23.0
192.565	23.0
189.10324	23.0
301.87479	23.0
169.25949	23.0
301.65875	23.0
162.98552	23.0
301.79483	23.0
157.90739	23.0
215.35085	23.0
96.3112	23.0
298.7692	23.0
196.53975	23.0
188.24103	23.0
190.77271	23.0
292.16238	23.0
190.7984	23.0
119.39431	23.0
195.69771	23.0
195.5265	23.0
188.71829	23.0
212.86905	23.0
98.87772	23.0
59.01237	23.0
190.9364	23.0
226.27107	23.0
314.82257	22.0
208.7458	22.0
212.46632	22.0
357.81384	22.0
208.89297	22.0
209.09117	22.0
176.58244	22.0
318.88058	22.0
214.71184	22.0
315.66934	22.0
212.10962	22.0
213.43378	22.0
213.29503	22.0
210.51244	22.0
183.9024	22.0
211.65205	22.0
210.67586	22.0
200.59254	22.0
206.62187	22.0
333.20779	22.0
194.76454	22.0
341.88678	22.0
194.35202	22.0
194.23328	22.0
188.97533	22.0
188.99283	22.0
333.14523	22.0
340.99106	22.0
206.35872	22.0
192.46175	22.0
192.2648	22.0
189.07361	22.0
191.78578	22.0
191.73695	22.0
189.39557	22.0
337.87524	22.0
195.17749	22.0
196.88037	22.0
197.12227	22.0
198.71625	22.0
205.61664	22.0
185.46077	22.0
204.88989	22.0
304.44772	22.0
185.63284	22.0
203.25175	22.0
203.235	22.0
324.46924	22.0
325.36066	22.0
325.50021	22.0
314.45258	22.0
199.99521	22.0
187.0726	22.0
198.8916	22.0
346.08954	22.0
314.5481	22.0
218.31125	22.0
258.26086	22.0
156.27621	22.0
311.33633	22.0
296.53061	22.0
231.96144	22.0
396.81677	22.0
444.28439	22.0
310.63174	22.0
459.47809	22.0
310.29703	22.0
287.84821	22.0
287.78342	22.0
286.57364	22.0
286.09805	22.0
309.61945	22.0
147.04431	22.0
145.00423	22.0
309.26633	22.0
142.58754	22.0
285.78177	22.0
137.98877	22.0
284.85876	22.0
306.78455	22.0
308.72751	22.0
256.79306	22.0
308.51764	22.0
126.40454	22.0
308.11185	22.0
263.01318	22.0
284.4837	22.0
264.6579	22.0
296.75998	22.0
236.04047	22.0
302.21005	22.0
78.01216	22.0
304.77588	22.0
369.88409	22.0
301.68597	22.0
221.00934	22.0
157.73148	22.0
301.36456	22.0
313.5433	22.0
219.48337	22.0
301.30676	22.0
312.80679	22.0
300.11127	22.0
158.4185	22.0
314.21994	22.0
90.1741	22.0
222.27481	22.0
284.55307	21.0
284.63568	21.0
339.2663	21.0
303.72028	21.0
199.07947	21.0
302.37521	21.0
306.96808	21.0
189.51689	21.0
445.06909	21.0
327.10818	21.0
327.20383	21.0
303.84314	21.0
347.03387	21.0
91.63529	21.0
198.06383	21.0
103.60702	21.0
91.02979	21.0
296.97934	21.0
300.21307	21.0
332.561	21.0
332.92719	21.0
301.03656	21.0
306.08511	21.0
295.39343	21.0
196.15279	21.0
188.00464	21.0
196.46837	21.0
287.00647	21.0
72.99332	21.0
192.09103	21.0
301.74719	21.0
304.9212	21.0
305.6929	21.0
188.17252	21.0
348.23346	21.0
158.76627	21.0
431.09091	21.0
228.70369	21.0
236.8084	21.0
208.241	21.0
201.00467	21.0
179.32706	21.0
311.69412	21.0
157.17361	21.0
157.48068	21.0
318.54318	21.0
312.45703	21.0
312.51761	21.0
212.14528	21.0
184.54439	21.0
212.35928	21.0
227.06131	21.0
222.89134	21.0
213.55397	21.0
313.25378	21.0
358.41797	21.0
222.30838	21.0
221.44194	21.0
165.48668	21.0
362.31253	21.0
183.16212	21.0
155.89206	21.0
324.01959	21.0
201.52287	21.0
308.82217	21.0
202.53479	21.0
218.65575	21.0
201.60629	21.0
309.0769	21.0
322.84314	21.0
240.42828	21.0
262.63849	21.0
125.98651	21.0
309.9935	21.0
240.13683	21.0
324.27347	21.0
372.89038	20.0
460.75732	20.0
158.26447	20.0
339.99359	20.0
158.98351	20.0
365.99951	20.0
188.55556	20.0
344.72818	20.0
132.98837	20.0
148.98747	20.0
185.90781	20.0
83.01395	20.0
141.78766	20.0
176.22086	20.0
157.54091	20.0
353.01569	20.0
156.62408	20.0
343.50925	20.0
124.99044	20.0
184.57233	20.0
180.55264	20.0
189.92558	20.0
204.60825	20.0
224.02878	20.0
217.13072	20.0
230.81741	20.0
230.05482	20.0
229.73114	20.0
226.6675	20.0
219.07298	20.0
218.50229	20.0
215.66425	20.0
207.31783	20.0
210.99721	20.0
210.20564	20.0
209.30362	20.0
209.24129	20.0
320.24252	20.0
208.09123	20.0
231.02576	20.0
311.7771	20.0
231.34589	20.0
232.35387	20.0
309.5712	20.0
309.20432	20.0
252.94563	20.0
256.59537	20.0
308.67761	20.0
308.34564	20.0
286.79083	20.0
298.81827	20.0
299.54492	20.0
299.82294	20.0
305.53027	20.0
305.24963	20.0
301.42578	20.0
207.92882	20.0
51.02467	20.0
203.33273	20.0
198.92474	20.0
193.93587	20.0
199.42505	20.0
326.71689	20.0
198.78389	20.0
197.92604	20.0
197.69052	20.0
328.99716	20.0
194.3848	20.0
202.4693	20.0
331.87558	20.0
192.52287	20.0
203.61072	20.0
191.97839	20.0
335.96811	20.0
203.97418	20.0
205.54784	20.0
191.14755	20.0
417.08371	19.0
255.99181	19.0
132.87209	19.0
138.99368	19.0
252.42728	19.0
281.57263	19.0
307.83173	19.0
276.49515	19.0
437.08524	19.0
206.85983	19.0
281.74026	19.0
292.50061	19.0
294.41806	19.0
96.61224	19.0
191.69627	19.0
300.4863	19.0
336.93628	19.0
195.28558	19.0
338.28937	19.0
222.07045	19.0
321.78125	19.0
312.20435	19.0
199.96613	19.0
190.70779	19.0
222.00479	19.0
123.25247	18.0
68.32739	18.0
206.23073	18.0
214.01216	18.0
315.21539	18.0
296.35693	18.0
295.4675	18.0
193.82541	18.0
207.26003	18.0
196.4066	18.0
222.45734	18.0
226.98901	18.0
196.23784	18.0
199.19554	18.0
156.99196	18.0
250.15152	18.0
303.64346	17.0
303.30057	17.0
205.27275	17.0
213.87465	17.0
125.02657	17.0
239.62267	17.0
314.3345	17.0
403.26459	17.0
409.01538	17.0
215.19998	16.0
89.02284	16.0
264.26932	16.0
57.50851	16.0
218.63258	15.0
411.08762	13.0

MSID: 8892
ID: 190
RETENTIONTIME: 21.96872
PRECURSORMZ: 299.0551
AREA: 61038088.0
PRECURSORTYPE: [M-H]-
SMILES: COC1=C(O)C2=C(OC(=CC2=O)C2=CC=C(O)C=C2)C=C1O
NAME: hispidulin
FORMULA: C16H12O6
INCHIKEY: IHFBPDAQLQOCBX-UHFFFAOYSA-N
CAS: 1447-88-7
Molecular Weight: 300.268
Number of References: 1238
Class: Flavones
Superclass: Flavonoids
Pathway: Shikimates and Phenylpropanoids
ppm: -0.46500000001969966
CMID: CM243
IONMODE: Negative
COLLISIONENERGY: 40±20eV
INSTRUMENTTYPE: AB SCIEX
INSTRUMENT: Q-TOF
Comment:  
Num Peaks: 766
284.03616	287448.0
65.00304	70217.0
136.98859	55087.0
299.05688	53493.0
283.02536	26554.0
227.03465	25360.0
183.04544	24122.0
212.0482	22296.0
200.04776	18757.0
211.03979	17811.0
228.04356	15924.0
186.03192	14135.0
199.03932	9787.0
185.02486	9658.0
255.02902	9450.0
117.03485	9257.0
184.05241	8406.0
164.01222	8236.0
256.03714	8081.0
158.03658	7567.0
156.05832	6164.0
155.05069	5185.0
149.99556	5095.0
239.03476	4260.0
165.98964	4123.0
214.0264	3980.0
182.03726	3712.0
141.03416	3443.0
130.04153	3386.0
108.99301	2926.0
110.00031	2886.0
139.00401	2839.0
159.0452	2736.0
143.05092	2665.0
108.02088	2530.0
163.00421	2493.0
187.04037	2455.0
171.0452	2356.0
213.02043	2251.0
240.04265	2176.0
190.99858	1967.0
172.05205	1764.0
166.99924	1543.0
216.04254	1520.0
116.02636	1360.0
82.00521	1358.0
136.01723	1339.0
118.04132	1284.0
267.02884	1224.0
119.0147	1200.0
164.98309	1192.0
122.00101	1188.0
210.03096	1125.0
266.02005	1032.0
169.0289	1019.0
167.04987	978.0
94.00518	972.0
238.02597	864.0
68.99762	838.0
145.03011	800.0
131.05077	763.0
177.99187	753.0
154.04147	750.0
135.00835	749.0
132.02339	745.0
95.01336	715.0
132.05827	659.0
142.04192	649.0
144.05879	623.0
215.03328	606.0
111.00914	597.0
119.05103	592.0
195.04608	555.0
237.02083	497.0
197.02321	487.0
137.99561	485.0
129.03398	480.0
198.03343	446.0
209.02312	396.0
170.03746	392.0
66.0112	377.0
188.04753	369.0
64.03083	363.0
123.00793	359.0
168.05632	345.0
157.0287	322.0
160.05206	290.0
226.02504	265.0
194.03807	261.0
196.05122	258.0
141.02835	242.0
96.99375	236.0
265.01474	235.0
166.04263	232.0
282.01471	215.0
124.98929	210.0
91.01853	204.0
165.03467	181.0
106.00498	174.0
187.03099	170.0
127.05491	170.0
151.00229	164.0
241.01161	164.0
225.01915	156.0
51.02395	151.0
146.03662	149.0
67.0183	149.0
222.03096	135.0
229.01321	133.0
119.03072	132.0
92.99861	131.0
92.02657	131.0
132.04253	130.0
281.04529	127.0
153.03433	127.0
181.02791	122.0
193.02995	119.0
227.01843	119.0
149.98596	117.0
201.01848	113.0
243.03018	111.0
161.99556	104.0
167.01442	102.0
70.00504	100.0
223.03601	95.0
115.05585	94.0
140.0636	90.0
104.02704	87.0
88.03139	86.0
161.02731	86.0
174.03198	85.0
139.05482	84.0
221.0238	83.0
107.0136	83.0
191.01617	83.0
254.02289	81.0
63.02319	78.0
253.04834	78.0
120.02212	74.0
167.02708	69.0
178.99928	68.0
120.99393	68.0
242.02518	67.0
80.02556	67.0
64.7924	66.0
147.011	66.0
93.0345	66.0
144.02353	65.0
173.02063	65.0
89.04221	62.0
133.03011	62.0
196.01283	57.0
62.01738	56.0
172.01736	55.0
282.08707	54.0
226.28423	54.0
118.03068	52.0
68.99355	52.0
179.03465	51.0
192.85176	50.0
163.99718	50.0
269.01038	49.0
216.02815	49.0
283.06653	49.0
176.01155	49.0
285.09338	48.0
204.00348	47.0
239.01054	47.0
283.09454	47.0
138.04623	46.0
136.53851	46.0
134.00209	46.0
131.04068	46.0
171.01958	46.0
190.97557	45.0
214.00061	44.0
283.10938	44.0
203.00323	44.0
200.00897	44.0
284.90659	44.0
226.01326	44.0
256.0058	44.0
121.98587	44.0
166.01613	44.0
160.99376	43.0
238.99843	42.0
140.00914	42.0
187.0685	42.0
158.01688	42.0
148.01842	42.0
165.97197	41.0
136.00124	41.0
134.99925	41.0
298.08054	40.0
212.75323	40.0
160.03967	40.0
106.04229	39.0
145.9964	39.0
191.8101	39.0
238.00935	39.0
212.01685	39.0
127.47028	38.0
236.99821	37.0
283.5495	37.0
240.01535	37.0
282.10022	37.0
209.44524	37.0
298.04504	37.0
89.00156	36.0
216.06413	36.0
218.15926	36.0
201.72302	36.0
191.54031	36.0
254.9821	36.0
267.00323	36.0
213.04901	36.0
187.12341	36.0
188.24229	35.0
198.1754	35.0
287.48434	35.0
166.02875	35.0
125.99415	35.0
182.01083	35.0
254.19928	34.0
165.00197	34.0
159.95421	34.0
285.03552	34.0
158.80939	34.0
90.00954	34.0
283.78204	34.0
59.01385	34.0
147.04425	33.0
141.05394	33.0
206.94989	33.0
192.68181	33.0
204.87999	33.0
285.08347	33.0
191.46577	33.0
191.83859	33.0
83.01392	33.0
156.38635	33.0
190.27791	33.0
126.05132	33.0
114.04758	33.0
184.01521	33.0
188.8299	33.0
158.00334	33.0
109.9849	33.0
157.37004	33.0
284.89169	33.0
285.55157	32.0
97.53942	32.0
192.77425	32.0
195.77846	32.0
240.0032	32.0
253.01251	32.0
189.77843	32.0
192.22127	32.0
284.9231	32.0
189.98085	32.0
116.00421	31.0
242.19736	31.0
182.44707	31.0
193.26268	31.0
284.81403	31.0
193.17693	31.0
137.98181	31.0
71.01482	31.0
192.47389	31.0
189.49254	31.0
189.9498	31.0
212.55188	31.0
159.76971	31.0
285.16946	31.0
201.00459	30.0
190.78751	30.0
207.9612	30.0
192.54047	30.0
193.98761	30.0
189.38741	30.0
192.3204	30.0
191.73688	30.0
158.66751	30.0
199.43187	30.0
98.1487	30.0
147.35197	30.0
226.98596	30.0
155.02753	30.0
114.47151	30.0
92.7787	30.0
80.99826	30.0
285.74854	30.0
191.19757	29.0
190.72935	29.0
116.64108	29.0
193.61407	29.0
254.99304	29.0
131.65796	29.0
187.71597	29.0
136.55339	29.0
187.0002	29.0
150.85672	29.0
166.98279	29.0
134.98105	28.0
285.04544	28.0
188.01663	28.0
103.0535	28.0
187.7455	28.0
196.39142	28.0
285.9704	28.0
210.34613	28.0
196.71544	28.0
170.02469	28.0
145.87454	28.0
109.02982	28.0
186.37668	28.0
157.22633	28.0
190.19417	28.0
208.66365	28.0
281.01572	27.0
188.66037	27.0
285.29019	27.0
192.53094	27.0
136.52592	27.0
194.02716	27.0
164.96297	27.0
209.33896	27.0
193.93442	27.0
196.98885	27.0
186.69232	27.0
286.14929	27.0
203.39828	27.0
224.41287	27.0
198.28294	27.0
284.86362	27.0
150.99266	27.0
199.4955	27.0
192.28374	27.0
198.39189	27.0
190.53329	27.0
203.55614	27.0
228.01843	27.0
156.87903	27.0
207.5307	26.0
220.66582	26.0
188.38474	26.0
204.10559	26.0
77.00343	26.0
285.58469	26.0
270.00391	26.0
211.79874	26.0
188.61734	26.0
286.10953	26.0
285.82635	26.0
285.23727	26.0
204.05243	26.0
190.41707	26.0
195.15004	26.0
215.52612	26.0
199.36412	26.0
284.96609	26.0
199.52731	26.0
289.42197	26.0
231.14922	26.0
288.11896	26.0
200.2334	26.0
198.51743	26.0
219.04102	26.0
154.72163	26.0
287.86139	26.0
240.67119	26.0
192.34077	26.0
224.68141	26.0
287.38638	26.0
144.70244	26.0
246.12529	26.0
248.67139	26.0
225.72922	26.0
219.14682	26.0
79.02042	26.0
196.14584	26.0
204.91083	26.0
230.01907	26.0
195.39909	26.0
222.99654	26.0
192.59753	25.0
192.50105	25.0
195.00096	25.0
285.64426	25.0
201.38101	25.0
199.01445	25.0
200.43993	25.0
200.48845	25.0
60.58364	25.0
197.8006	25.0
197.54865	25.0
196.82533	25.0
286.74429	25.0
201.05736	25.0
196.20483	25.0
193.33211	25.0
286.33319	25.0
286.20062	25.0
195.69215	25.0
205.26704	25.0
194.88884	25.0
202.21291	25.0
193.86215	25.0
222.30975	25.0
193.50235	25.0
192.19412	25.0
158.36421	25.0
205.97337	25.0
145.01242	25.0
188.35114	25.0
255.0775	25.0
171.07721	25.0
191.9539	25.0
187.8448	25.0
187.80722	25.0
171.23096	25.0
134.80247	25.0
187.63414	25.0
212.97899	25.0
187.40752	25.0
187.22523	25.0
141.1691	25.0
227.55287	25.0
145.77403	25.0
211.68758	25.0
186.55721	25.0
186.47162	25.0
185.73686	25.0
184.4113	25.0
148.57532	25.0
228.14117	25.0
183.56517	25.0
152.62515	25.0
182.07028	25.0
157.28528	25.0
217.85129	25.0
230.62544	25.0
218.05225	25.0
230.36081	25.0
188.50304	25.0
134.03725	25.0
190.93227	25.0
284.78592	25.0
102.20133	25.0
283.3945	25.0
160.78261	25.0
207.40517	25.0
115.49955	25.0
190.0956	25.0
284.76279	25.0
118.48114	25.0
209.82239	25.0
283.08466	25.0
267.89044	25.0
206.82875	25.0
266.98721	25.0
93.66274	25.0
189.40897	25.0
127.41611	25.0
168.91432	25.0
210.12747	25.0
210.71414	25.0
127.75237	25.0
257.69608	25.0
190.83621	25.0
234.8503	24.0
237.05852	24.0
297.37762	24.0
200.30823	24.0
202.39397	24.0
208.42749	24.0
200.6091	24.0
208.74995	24.0
200.75476	24.0
285.358	24.0
203.31311	24.0
209.29503	24.0
285.71213	24.0
273.47134	24.0
203.61761	24.0
286.50885	24.0
286.25864	24.0
202.17947	24.0
212.25075	24.0
287.01132	24.0
190.23874	24.0
143.02867	24.0
121.97938	24.0
128.02812	24.0
130.35887	24.0
131.02386	24.0
193.75308	24.0
149.02448	24.0
156.31288	24.0
157.53838	24.0
158.43323	24.0
158.62556	24.0
165.37955	24.0
198.8349	24.0
176.63182	24.0
178.25848	24.0
185.63943	24.0
191.14342	24.0
190.88356	24.0
186.9868	24.0
188.58641	24.0
188.75185	24.0
127.00082	24.0
190.3522	24.0
91.2981	24.0
93.99949	24.0
75.04475	24.0
75.91595	24.0
78.00694	24.0
86.8912	24.0
88.02772	24.0
67.00868	24.0
65.77273	24.0
198.40706	24.0
69.78645	24.0
65.57829	24.0
198.6154	24.0
51.84706	24.0
217.01233	23.0
167.10683	23.0
186.06531	23.0
174.09787	23.0
214.24277	23.0
171.81706	23.0
65.53944	23.0
220.99324	23.0
52.99922	23.0
221.42873	23.0
168.02205	23.0
189.52086	23.0
119.09911	23.0
159.07112	23.0
223.73856	23.0
283.13739	23.0
121.72859	23.0
117.80205	23.0
111.56285	23.0
127.10238	23.0
261.12024	23.0
282.33713	23.0
128.13231	23.0
135.47641	23.0
159.91582	23.0
190.03079	23.0
88.97569	23.0
150.36159	23.0
155.53639	23.0
237.98669	23.0
229.28598	23.0
274.73108	23.0
224.01695	23.0
50.1034	23.0
204.42329	23.0
201.89552	23.0
203.86084	23.0
206.60489	23.0
201.03514	23.0
202.25328	23.0
193.66449	23.0
196.28302	23.0
192.05159	23.0
197.10707	23.0
194.06535	23.0
192.16968	23.0
202.06114	23.0
191.34926	23.0
202.92232	23.0
190.47517	23.0
201.66878	23.0
199.68918	23.0
226.27687	22.0
78.73255	22.0
80.99385	22.0
282.66962	22.0
206.77524	22.0
158.4924	22.0
196.68384	22.0
156.02774	22.0
219.73434	22.0
99.00626	22.0
169.00598	22.0
201.26569	22.0
160.57034	22.0
206.11957	22.0
201.76196	22.0
194.20317	22.0
158.78471	22.0
205.35684	22.0
166.91446	22.0
159.6076	22.0
226.41977	22.0
98.58674	22.0
166.42014	22.0
128.06912	22.0
76.23626	22.0
131.18645	22.0
202.73962	22.0
211.56364	22.0
188.68727	22.0
198.6568	22.0
188.19661	22.0
211.0085	22.0
187.92937	22.0
154.89709	22.0
288.74265	22.0
138.54488	22.0
243.45172	22.0
126.58291	22.0
187.32173	22.0
210.40721	22.0
210.38875	22.0
198.05823	22.0
189.0291	22.0
213.76717	22.0
213.80153	22.0
213.93327	22.0
130.62064	22.0
203.15675	22.0
200.59245	22.0
190.71582	22.0
209.19588	22.0
215.88857	22.0
211.36002	22.0
203.18607	21.0
129.65656	21.0
158.30753	21.0
116.37577	21.0
126.71075	21.0
195.55244	21.0
156.52966	21.0
156.48065	21.0
142.23456	21.0
193.80762	21.0
147.59576	21.0
193.70538	21.0
152.0619	21.0
194.79315	21.0
199.47614	21.0
168.03983	21.0
198.56985	21.0
65.80529	21.0
66.8877	21.0
67.99104	21.0
190.56169	21.0
190.49951	21.0
287.0694	21.0
211.45256	21.0
285.52014	21.0
287.80322	21.0
191.56741	21.0
206.40085	21.0
220.60036	21.0
206.02116	21.0
208.97215	21.0
205.61935	21.0
94.52716	21.0
189.7056	21.0
162.97044	21.0
227.30771	21.0
187.94817	21.0
54.00992	20.0
53.02418	20.0
194.42567	20.0
100.94594	20.0
198.20985	20.0
124.50366	20.0
195.95251	20.0
122.16981	20.0
197.96178	20.0
197.69182	20.0
196.54515	20.0
93.98524	20.0
284.64383	20.0
96.17283	20.0
285.62607	20.0
190.07399	20.0
151.05405	20.0
158.08458	20.0
220.03056	20.0
217.24753	20.0
170.48341	20.0
206.36568	20.0
225.11757	20.0
183.92091	20.0
215.4873	20.0
208.04736	20.0
192.57172	20.0
192.74706	20.0
204.6768	20.0
158.45541	20.0
213.40222	20.0
218.34155	20.0
192.82457	20.0
203.65675	20.0
211.27602	20.0
133.26401	20.0
189.44536	20.0
250.69226	20.0
142.65765	20.0
203.99509	20.0
254.51477	20.0
157.47693	20.0
211.50525	20.0
193.22456	20.0
187.68781	19.0
210.23111	19.0
189.18532	19.0
183.45108	19.0
285.21741	19.0
199.79298	19.0
187.30431	19.0
187.45444	19.0
65.49268	19.0
65.67269	19.0
128.58719	19.0
84.44673	19.0
141.20633	19.0
157.93933	19.0
164.35603	19.0
158.05997	19.0
110.55666	19.0
138.43655	19.0
156.83856	19.0
62.9921	18.0
233.31607	18.0
65.25989	18.0
65.42295	18.0
286.6564	18.0
60.32476	18.0
188.99141	18.0
66.16644	18.0
213.30495	18.0
291.96478	18.0
106.82323	18.0
283.51981	18.0
126.87836	18.0
207.34171	18.0
76.11318	18.0
167.42345	18.0
222.01782	18.0
181.73218	18.0
90.15082	18.0
217.31248	18.0
202.54585	18.0
62.31464	18.0
57.75381	17.0
187.49869	17.0
114.02457	17.0
174.02423	17.0
66.42159	17.0
108.66304	17.0
186.84891	17.0
96.97639	17.0
81.79163	17.0
211.83722	15.0
84.83774	15.0

MSID: 8893
ID: 272
RETENTIONTIME: 27.36022
PRECURSORMZ: 345.17
AREA: 60443344.0
PRECURSORTYPE: [M-H]-
SMILES: [H][C@@]12[C@@H]3OC(=O)[C@@]1(CCCC2(C)C)C1=C(C=C(C(C)C)C(O)=C1O)[C@H]3O
NAME: epirosmanol
FORMULA: C20H26O5
INCHIKEY: LCAZOMIGFDQMNC-PYQAKABTSA-N
CAS: 93380-12-2
Molecular Weight: 346.423
Number of References: 58
Class: Abietane diterpenoids
Superclass: Diterpenoids
Pathway: Terpenoids
ppm: -0.1999999999497959
CMID: CM243
IONMODE: Negative
COLLISIONENERGY: 40±20eV
INSTRUMENTTYPE: AB SCIEX
INSTRUMENT: Q-TOF
Comment:  
Num Peaks: 993
283.17209	363127.0
345.17377	231972.0
268.14703	51449.0
227.10704	39826.0
267.13934	29113.0
253.1232	16789.0
240.11555	10989.0
212.08392	9875.0
301.18097	6210.0
239.10751	6176.0
214.09953	5161.0
299.16705	4389.0
225.09267	4269.0
255.14014	4195.0
265.15994	3590.0
213.09196	3463.0
201.09213	2805.0
282.16284	2037.0
252.11461	1868.0
228.1161	1632.0
211.07544	1401.0
226.09872	1334.0
238.10008	1286.0
281.15536	1246.0
199.07669	1243.0
251.10805	1228.0
250.13602	1213.0
187.0766	1080.0
215.1066	1044.0
200.08522	1032.0
327.15775	990.0
273.18326	913.0
249.12877	904.0
184.08835	832.0
209.0954	791.0
197.06039	682.0
198.06795	607.0
243.10202	607.0
202.09879	582.0
265.12485	555.0
184.05247	525.0
235.11157	506.0
309.15091	487.0
237.09177	459.0
241.12268	451.0
237.16565	440.0
188.08519	428.0
186.06804	383.0
230.09491	358.0
221.09523	352.0
258.12549	347.0
210.06793	346.0
266.12875	322.0
255.17612	319.0
229.08887	315.0
284.14188	313.0
185.05956	308.0
271.17184	308.0
217.08742	305.0
222.104	289.0
256.11243	268.0
199.11261	265.0
266.1687	260.0
224.11964	259.0
224.08446	221.0
210.10341	220.0
183.04417	214.0
228.07913	204.0
344.03397	199.0
164.08377	191.0
279.10168	185.0
223.11214	184.0
242.13191	184.0
237.15962	182.0
216.08003	173.0
254.13068	172.0
251.14374	170.0
239.18021	167.0
242.09534	166.0
215.07213	159.0
228.09244	157.0
317.17261	157.0
282.2352	156.0
194.07361	156.0
222.14049	155.0
183.0826	149.0
264.15466	148.0
207.08382	148.0
172.05211	148.0
195.08034	146.0
185.09419	144.0
286.15601	143.0
241.08771	142.0
223.07704	141.0
237.12946	136.0
196.12671	135.0
156.05959	130.0
196.05266	129.0
197.13463	125.0
209.06142	118.0
245.08179	118.0
282.25824	117.0
243.1402	115.0
344.01215	112.0
204.07768	108.0
223.15164	107.0
300.16895	107.0
226.08401	106.0
257.15411	104.0
212.07394	104.0
298.15671	104.0
282.21384	104.0
327.14005	101.0
213.07481	101.0
269.11969	100.0
285.14639	99.0
202.064	99.0
231.09868	99.0
171.04398	96.0
195.11864	95.0
197.09613	93.0
293.12061	93.0
263.14182	93.0
217.12349	89.0
171.08112	89.0
284.1716	88.0
201.05464	88.0
236.1232	87.0
183.11572	85.0
189.05341	84.0
209.07274	84.0
257.11957	82.0
158.03786	82.0
181.09912	82.0
189.09111	80.0
165.09009	80.0
211.14799	74.0
157.06313	73.0
226.36238	72.0
285.11331	71.0
169.06461	71.0
175.04115	70.0
259.16809	70.0
244.10925	69.0
239.13174	68.0
177.0929	68.0
172.08679	67.0
226.54512	67.0
163.07553	66.0
315.15799	66.0
187.06052	66.0
207.11623	65.0
256.14377	65.0
300.14008	65.0
218.09569	65.0
193.06676	65.0
280.14807	64.0
171.11697	64.0
229.12149	63.0
188.04623	63.0
241.10748	63.0
297.14978	62.0
234.1066	61.0
222.06897	61.0
250.09885	60.0
157.1024	59.0
209.13362	59.0
159.04277	59.0
181.06618	58.0
156.09508	58.0
294.12741	57.0
214.07947	55.0
271.12994	55.0
247.14655	55.0
236.08559	55.0
282.12665	55.0
211.11101	54.0
235.1506	54.0
170.07327	53.0
203.10796	53.0
155.08488	53.0
203.07028	53.0
299.13995	53.0
198.10516	50.0
173.09412	50.0
251.13132	49.0
239.14841	49.0
269.11166	49.0
229.51595	49.0
226.3727	49.0
182.07431	49.0
283.87286	49.0
208.08556	48.0
268.13263	48.0
159.11935	48.0
297.11096	48.0
225.13087	47.0
282.19901	47.0
185.08752	47.0
250.11588	47.0
166.07802	47.0
213.1277	47.0
193.06267	46.0
189.95526	46.0
230.13353	46.0
343.98309	45.0
173.05804	45.0
174.03204	45.0
236.15781	45.0
217.04703	45.0
200.06998	44.0
284.10062	44.0
258.16327	43.0
172.0688	43.0
239.32713	43.0
190.8011	42.0
187.96165	42.0
222.66331	42.0
212.04115	42.0
330.1438	42.0
190.19287	42.0
213.05481	41.0
202.34807	41.0
188.80977	41.0
225.06035	41.0
281.12253	41.0
344.07938	40.0
143.05096	40.0
230.05479	40.0
193.10486	40.0
277.08652	40.0
257.1431	39.0
175.07874	39.0
190.35498	39.0
212.11531	38.0
235.07553	38.0
169.03023	38.0
239.65448	38.0
209.1223	38.0
343.96313	38.0
230.11867	37.0
195.10634	37.0
230.03549	37.0
228.9229	37.0
225.86761	37.0
191.01488	37.0
192.23898	37.0
284.9017	37.0
191.1841	37.0
193.63048	37.0
309.12854	36.0
232.00916	36.0
187.11411	36.0
187.20921	36.0
241.90187	36.0
167.05118	36.0
219.61684	36.0
184.54968	36.0
190.25636	36.0
227.87952	36.0
241.16071	36.0
180.05952	36.0
202.05843	36.0
230.4783	36.0
243.67188	35.0
187.41026	35.0
191.93768	35.0
227.53226	35.0
281.18164	35.0
283.95209	35.0
243.06844	35.0
192.8559	35.0
285.01743	35.0
233.09631	35.0
195.04478	35.0
230.77277	35.0
186.87708	35.0
284.55304	35.0
189.93906	35.0
191.13942	35.0
187.69189	35.0
286.12122	35.0
188.12413	35.0
157.34061	35.0
257.08029	35.0
199.51492	34.0
228.59705	34.0
191.10828	34.0
241.29303	34.0
228.46234	34.0
189.46295	34.0
229.24156	34.0
189.12746	34.0
238.02454	34.0
344.80817	34.0
160.46617	34.0
232.0733	34.0
276.79968	34.0
288.16727	34.0
330.12778	34.0
285.84796	33.0
184.10695	33.0
194.78365	33.0
273.1153	33.0
272.17905	33.0
211.53238	33.0
242.90968	33.0
231.25948	33.0
220.08875	33.0
228.67998	33.0
226.06192	33.0
191.62576	33.0
229.83652	33.0
198.66238	33.0
191.58917	33.0
240.07762	33.0
238.13484	33.0
299.12134	33.0
201.12546	33.0
190.99864	33.0
197.25702	33.0
160.0546	33.0
189.87564	32.0
190.21313	32.0
239.42714	32.0
191.24638	32.0
127.10462	32.0
241.14397	32.0
83.04874	32.0
231.17311	32.0
169.10153	32.0
156.39497	32.0
231.05252	32.0
202.60585	32.0
232.73912	32.0
192.99736	32.0
223.77086	32.0
158.25952	32.0
203.92941	32.0
238.06836	32.0
191.38997	32.0
193.42342	32.0
186.10545	32.0
285.59802	32.0
191.36151	31.0
205.34288	31.0
266.25977	31.0
203.56738	31.0
263.87146	31.0
162.58943	31.0
238.31471	31.0
188.53403	31.0
219.08167	31.0
191.43468	31.0
296.55081	31.0
179.08321	31.0
236.49202	31.0
231.82423	31.0
192.15753	31.0
190.72942	31.0
157.46593	31.0
254.15877	31.0
216.06421	31.0
285.646	31.0
267.16495	31.0
193.60187	31.0
146.04022	31.0
234.38687	31.0
249.08858	31.0
211.05267	31.0
239.03635	30.0
228.20634	30.0
162.0679	30.0
269.08597	30.0
219.67635	30.0
192.21454	30.0
227.63863	30.0
187.27756	30.0
190.81868	30.0
245.50203	30.0
287.56747	30.0
159.08229	30.0
205.6756	30.0
230.32224	30.0
196.52875	30.0
197.77174	30.0
208.07709	30.0
282.69275	30.0
279.07715	30.0
214.54396	30.0
327.12231	30.0
192.28651	30.0
256.08578	30.0
256.05289	30.0
199.02419	30.0
156.15747	30.0
204.40796	30.0
231.85852	29.0
234.80235	29.0
149.06158	29.0
301.21497	29.0
226.59523	29.0
147.76599	29.0
217.3602	29.0
204.20641	29.0
194.54865	29.0
254.71017	29.0
200.3485	29.0
187.84084	29.0
241.37973	29.0
240.86121	29.0
188.57167	29.0
245.11858	29.0
198.77283	29.0
269.15826	29.0
186.52249	29.0
174.06435	29.0
259.54343	29.0
192.59352	29.0
191.77356	29.0
189.75826	29.0
189.9917	29.0
186.30991	28.0
245.05113	28.0
192.5052	28.0
187.74019	28.0
181.8656	28.0
156.7258	28.0
208.89294	28.0
247.11269	28.0
185.05289	28.0
247.33748	28.0
190.88632	28.0
209.76714	28.0
248.12201	28.0
234.56383	28.0
285.20923	28.0
282.63513	28.0
284.68686	28.0
284.0676	28.0
200.84503	28.0
200.94496	28.0
190.4847	28.0
202.08069	28.0
202.67973	28.0
226.66747	28.0
207.04295	28.0
256.57339	28.0
224.8606	27.0
189.61395	27.0
186.21768	27.0
233.76361	27.0
216.73695	27.0
271.09769	27.0
233.01111	27.0
265.10092	27.0
231.44864	27.0
156.76871	27.0
230.20633	27.0
231.4993	27.0
232.50911	27.0
187.22395	27.0
188.37001	27.0
232.14938	27.0
220.47536	27.0
215.02762	27.0
143.08846	27.0
282.09375	27.0
202.73969	27.0
201.43251	27.0
239.06209	27.0
167.08536	27.0
237.51416	27.0
205.59695	27.0
198.32988	27.0
282.29114	27.0
189.23926	27.0
192.80151	27.0
192.758	27.0
247.23738	27.0
312.13858	27.0
225.96181	26.0
229.72815	26.0
188.72096	26.0
227.56624	26.0
284.20956	26.0
230.72218	26.0
284.45065	26.0
189.38208	26.0
260.17487	26.0
260.05011	26.0
224.3396	26.0
227.92239	26.0
225.55424	26.0
327.10284	26.0
275.06564	26.0
284.94965	26.0
275.35318	26.0
188.40361	26.0
228.99402	26.0
173.02327	26.0
226.40953	26.0
225.30722	26.0
176.16885	26.0
265.54916	26.0
282.04605	26.0
276.1077	26.0
285.36307	26.0
229.92708	26.0
285.28036	26.0
188.14429	26.0
202.44977	26.0
230.88733	26.0
189.4252	26.0
191.49701	26.0
232.81532	26.0
206.03949	26.0
191.81288	26.0
197.43173	26.0
287.76178	26.0
192.18468	26.0
289.05731	26.0
237.59113	26.0
234.48584	26.0
248.73633	26.0
248.2979	26.0
196.57542	26.0
208.80945	26.0
243.08217	26.0
208.00929	26.0
252.94873	26.0
239.47411	26.0
253.15747	26.0
202.15866	26.0
189.91747	26.0
190.0997	26.0
255.74742	26.0
215.55495	26.0
255.38579	26.0
199.78889	26.0
190.97157	26.0
241.5867	26.0
199.237	26.0
204.50317	26.0
190.94315	26.0
229.04144	25.0
289.552	25.0
240.64392	25.0
239.21808	25.0
284.35651	25.0
236.66373	25.0
237.77682	25.0
238.21645	25.0
282.92661	25.0
284.52332	25.0
229.10222	25.0
228.23149	25.0
249.88672	25.0
236.29477	25.0
266.59863	25.0
321.21057	25.0
261.02222	25.0
231.33693	25.0
261.28174	25.0
316.88318	25.0
264.12604	25.0
286.55704	25.0
231.75714	25.0
287.16739	25.0
314.08972	25.0
241.68411	25.0
252.30124	25.0
252.08041	25.0
251.74469	25.0
233.34607	25.0
229.54858	25.0
233.42685	25.0
288.74274	25.0
285.18939	25.0
246.44504	25.0
251.0708	25.0
215.14825	25.0
193.26955	25.0
154.22511	25.0
186.03598	25.0
207.56746	25.0
193.32401	25.0
156.4709	25.0
156.28477	25.0
199.04491	25.0
193.14432	25.0
193.13071	25.0
214.40054	25.0
214.6702	25.0
192.32182	25.0
60.99137	25.0
159.94063	25.0
196.46698	25.0
215.35658	25.0
215.62253	25.0
187.03508	25.0
192.66284	25.0
206.17587	25.0
192.42641	25.0
185.97722	25.0
193.37711	25.0
185.75026	25.0
207.67892	25.0
178.63136	25.0
195.42928	25.0
179.6734	25.0
157.94185	25.0
158.68483	25.0
194.13364	25.0
180.83696	25.0
210.27094	25.0
210.50531	25.0
182.87065	25.0
196.16512	25.0
196.20764	25.0
157.60112	25.0
183.93425	25.0
184.96898	25.0
193.71362	25.0
211.79311	25.0
157.12204	25.0
212.26794	25.0
158.62439	25.0
153.16283	25.0
147.59581	25.0
191.31546	25.0
188.6147	25.0
126.39132	25.0
177.22716	25.0
176.49524	25.0
188.66447	25.0
197.81444	25.0
190.77675	25.0
176.08047	25.0
226.25484	25.0
190.69154	25.0
190.61717	25.0
169.61766	25.0
188.76402	25.0
201.36302	25.0
175.11372	25.0
170.3812	25.0
227.46579	25.0
189.28641	25.0
227.6002	25.0
205.23204	25.0
191.0582	25.0
165.35442	25.0
163.13181	25.0
192.11002	25.0
218.05666	25.0
219.26869	25.0
145.33221	25.0
192.09509	25.0
196.74709	25.0
162.70934	25.0
130.04269	25.0
195.584	25.0
164.4716	25.0
187.82877	25.0
221.88222	25.0
188.2128	25.0
222.54935	25.0
223.29941	25.0
223.47798	25.0
197.12088	24.0
195.64975	24.0
282.48206	24.0
198.63478	24.0
196.4258	24.0
177.32755	24.0
191.53766	24.0
194.66066	24.0
187.58994	24.0
258.74576	24.0
188.84341	24.0
256.7287	24.0
190.15372	24.0
190.42523	24.0
190.54417	24.0
254.98843	24.0
254.32741	24.0
190.87144	24.0
263.06873	24.0
188.45604	24.0
227.76866	24.0
191.85358	24.0
182.4048	24.0
187.43842	24.0
266.66098	24.0
250.23515	24.0
268.11499	24.0
192.49025	24.0
268.85309	24.0
247.84752	24.0
186.66963	24.0
246.14688	24.0
193.55418	24.0
183.43257	24.0
244.07561	24.0
198.9192	24.0
258.64496	24.0
216.12035	24.0
152.17427	24.0
126.56642	24.0
234.36589	24.0
209.96432	24.0
231.36969	24.0
110.47433	24.0
225.57924	24.0
220.37505	24.0
226.3506	24.0
158.30264	24.0
235.47359	24.0
144.24931	24.0
222.26311	24.0
93.07137	24.0
230.91858	24.0
226.78543	24.0
284.61417	24.0
231.13737	24.0
155.21419	24.0
284.44073	24.0
203.7169	24.0
344.68997	24.0
217.28369	24.0
238.36308	24.0
236.92291	24.0
258.55521	24.0
200.23485	24.0
344.88272	24.0
221.802	23.0
230.23456	23.0
137.0941	23.0
250.98236	23.0
142.04314	23.0
313.76526	23.0
267.95947	23.0
187.10338	23.0
249.42253	23.0
230.15135	23.0
153.85805	23.0
323.64069	23.0
190.64287	23.0
189.21231	23.0
228.52155	23.0
228.64294	23.0
190.39415	23.0
226.92407	23.0
190.51173	23.0
188.67523	23.0
226.00893	23.0
188.47217	23.0
254.77737	23.0
119.42426	23.0
225.49248	23.0
126.53227	23.0
188.55957	23.0
253.08736	23.0
229.80682	23.0
124.17503	23.0
283.7244	23.0
186.95206	23.0
241.72675	23.0
211.46687	23.0
233.84148	23.0
286.0914	23.0
157.64908	23.0
243.993	23.0
208.57603	23.0
157.78682	23.0
156.88399	23.0
194.40253	23.0
157.86432	23.0
194.85199	23.0
194.93402	23.0
241.79375	23.0
179.10548	23.0
209.22711	23.0
179.07664	23.0
284.25247	23.0
213.37796	23.0
282.84918	23.0
282.95462	23.0
213.88322	23.0
213.57112	23.0
232.19713	23.0
202.51805	23.0
245.75679	23.0
212.69618	23.0
177.70723	22.0
284.01645	22.0
161.05968	22.0
259.12238	22.0
169.55135	22.0
344.11206	22.0
282.36356	22.0
159.26144	22.0
69.25411	22.0
183.02032	22.0
158.18315	22.0
285.48383	22.0
153.34467	22.0
157.70932	22.0
274.13419	22.0
187.68384	22.0
286.71286	22.0
156.84842	22.0
187.33653	22.0
187.19046	22.0
156.65225	22.0
306.82394	22.0
186.76999	22.0
155.03976	22.0
186.91858	22.0
282.7652	22.0
228.15752	22.0
193.57326	22.0
193.72725	22.0
250.69078	22.0
223.93349	22.0
192.12767	22.0
192.9688	22.0
230.64188	22.0
246.668	22.0
246.0885	22.0
245.41304	22.0
230.97365	22.0
193.88948	22.0
224.39827	22.0
231.90773	22.0
199.66988	22.0
189.13959	22.0
234.05865	22.0
203.77422	22.0
205.00203	22.0
235.06052	22.0
209.87494	22.0
235.40596	22.0
229.57381	22.0
208.45018	22.0
190.84033	22.0
227.33141	22.0
191.20847	22.0
190.0619	22.0
253.42087	22.0
229.28456	22.0
228.35133	22.0
198.48161	21.0
227.15427	21.0
231.64833	21.0
240.18689	21.0
197.62991	21.0
171.90442	21.0
196.89821	21.0
298.11444	21.0
242.07706	21.0
154.03787	21.0
120.30125	21.0
292.69824	21.0
229.35426	21.0
156.02289	21.0
231.14929	21.0
286.89032	21.0
212.44775	21.0
238.5748	21.0
233.95979	21.0
255.93538	21.0
285.52686	21.0
210.99292	21.0
204.77914	21.0
256.94058	21.0
188.89725	21.0
189.85405	21.0
242.69299	21.0
231.39799	21.0
262.12613	21.0
252.8802	21.0
251.70895	21.0
191.98245	21.0
191.52275	21.0
249.18288	21.0
269.05222	21.0
252.25769	21.0
188.29341	21.0
73.29482	21.0
243.72385	21.0
270.16492	21.0
186.14687	21.0
270.08926	21.0
151.60341	21.0
244.89938	21.0
228.74513	21.0
183.52808	21.0
244.76913	21.0
231.01978	21.0
168.03734	21.0
159.52849	21.0
274.11798	21.0
232.1091	20.0
208.65665	20.0
235.9908	20.0
231.07188	20.0
209.29085	20.0
224.27946	20.0
229.3335	20.0
212.82187	20.0
151.13234	20.0
223.55264	20.0
230.25536	20.0
232.99615	20.0
154.09135	20.0
234.00772	20.0
221.28165	20.0
157.03366	20.0
220.06985	20.0
188.96724	20.0
60.82247	20.0
201.47697	20.0
241.6689	20.0
197.37669	20.0
198.29817	20.0
243.18448	20.0
243.86147	20.0
198.37953	20.0
172.80049	20.0
199.05595	20.0
184.27309	20.0
184.58827	20.0
185.13283	20.0
200.32077	20.0
185.72223	20.0
242.66707	20.0
284.67035	20.0
192.71449	20.0
248.39667	20.0
190.44685	20.0
284.4903	20.0
253.86691	20.0
191.48346	20.0
203.80357	20.0
191.65829	20.0
187.38211	20.0
201.83716	20.0
192.02316	20.0
265.94986	19.0
266.23419	19.0
217.55226	19.0
245.62479	19.0
261.90738	19.0
230.41141	19.0
188.79092	19.0
247.45454	19.0
159.83537	19.0
154.96661	19.0
200.40948	19.0
234.07664	19.0
211.96272	19.0
237.8916	19.0
283.76233	19.0
200.54675	19.0
203.05354	19.0
210.21982	19.0
206.46001	19.0
288.30527	19.0
208.23674	19.0
155.66959	19.0
168.46667	19.0
206.88516	18.0
64.14845	18.0
97.06516	18.0
330.73657	18.0
187.47864	18.0
195.16379	18.0
191.9024	18.0
286.33658	18.0
138.05663	18.0
193.28452	18.0
146.38243	18.0
171.31303	18.0
250.45207	17.0
126.83318	17.0
226.83853	17.0
161.38545	17.0
212.53055	17.0
213.69994	17.0
157.50894	17.0
214.37044	16.0

MSID: 8894
ID: 511
RETENTIONTIME: 32.13707
PRECURSORMZ: 343.1543
AREA: 58501204.0
PRECURSORTYPE: [M-H]-
SMILES: CC(C)C1=C(O)C2=C(C(C=O)=C1)[C@]1(CCCC(C)(C)[C@@H]1C=O)C(=O)O2
NAME: rosmadial
FORMULA: C20H24O5
INCHIKEY: JBWRHBJFAVSAMJ-VBKZILBWSA-N
CAS: nan
Molecular Weight: 344.408
Number of References: 26
Class: Secoabietane diterpenoids
Superclass: Diterpenoids
Pathway: Terpenoids
ppm: -0.24999999999408828
CMID: CM243
IONMODE: Negative
COLLISIONENERGY: 40±20eV
INSTRUMENTTYPE: AB SCIEX
INSTRUMENT: Q-TOF
Comment:  
Num Peaks: 2040
343.15796	329078.0
315.16394	300406.0
287.16483	200940.0
201.0554	36713.0
299.16614	33121.0
216.07793	29890.0
269.15421	29513.0
271.13391	27011.0
215.07002	23909.0
244.07483	19883.0
229.08519	17343.0
259.16885	16122.0
325.14413	14590.0
243.0692	14207.0
187.03984	13997.0
297.15054	9525.0
219.06648	9147.0
230.09418	9069.0
231.08157	8535.0
254.12987	8051.0
203.07104	7957.0
231.07413	7245.0
272.14105	6618.0
191.07112	5877.0
218.05885	5391.0
231.10092	5170.0
213.09129	4516.0
179.07085	4350.0
188.08191	4261.0
257.11404	4079.0
188.05908	3782.0
217.0853	3576.0
190.06265	3531.0
257.08264	3458.0
202.06335	2962.0
258.0885	2701.0
188.04968	2669.0
281.11673	2543.0
204.07843	2495.0
200.0472	2450.0
282.12576	2389.0
256.11008	2359.0
178.06323	2308.0
285.14716	2239.0
175.03931	2005.0
253.12241	1911.0
283.1333	1894.0
199.07607	1806.0
255.13777	1758.0
173.06007	1700.0
229.06592	1635.0
284.14264	1499.0
214.0616	1490.0
281.15286	1483.0
241.08696	1457.0
164.0845	1382.0
242.05801	1362.0
240.07838	1245.0
228.04292	1183.0
214.09886	1182.0
271.1694	1174.0
150.06831	1079.0
268.07404	1045.0
267.1033	1035.0
299.1492	1029.0
160.05286	982.0
165.09209	877.0
228.07841	873.0
159.04474	872.0
253.05074	842.0
227.03401	835.0
163.07626	827.0
241.12193	781.0
186.0314	776.0
161.06041	746.0
171.04471	736.0
266.1311	732.0
185.06165	723.0
242.09306	702.0
258.1593	700.0
173.0253	688.0
171.08058	668.0
172.05156	666.0
226.0995	662.0
199.04013	656.0
230.07635	635.0
175.07559	632.0
205.08553	630.0
213.08415	628.0
239.10677	589.0
202.10094	584.0
174.03149	579.0
198.06732	576.0
185.09628	575.0
227.06796	572.0
202.08145	571.0
162.06865	563.0
148.05255	562.0
143.05052	555.0
211.0762	535.0
299.13055	535.0
255.10181	526.0
158.03859	522.0
151.07529	520.0
245.08102	507.0
176.04744	499.0
157.06508	488.0
232.07257	487.0
200.08321	484.0
184.05322	479.0
253.15979	479.0
176.08513	474.0
163.04001	473.0
265.12244	460.0
228.11539	456.0
226.0244	455.0
145.02852	450.0
342.02512	435.0
251.10725	427.0
204.04347	425.0
286.15677	422.0
298.15747	416.0
227.10632	403.0
239.07043	402.0
225.05524	401.0
225.09343	396.0
213.05699	394.0
175.06134	390.0
200.06242	387.0
313.14532	385.0
135.04439	384.0
310.12009	382.0
197.05977	367.0
203.03476	361.0
212.08469	360.0
285.11572	359.0
228.06511	359.0
177.05455	346.0
173.03818	346.0
215.03412	342.0
189.05415	342.0
342.01242	339.0
198.03149	337.0
309.11035	336.0
230.06001	331.0
160.01569	328.0
238.09782	326.0
270.12704	324.0
161.02313	320.0
186.0688	308.0
267.06808	300.0
148.0168	299.0
149.05992	298.0
174.06638	298.0
164.04688	298.0
173.0472	291.0
267.13852	287.0
241.04893	285.0
155.04904	284.0
259.09476	280.0
242.07935	280.0
240.04349	276.0
253.08034	275.0
268.1478	275.0
259.13419	273.0
199.05396	273.0
218.09502	269.0
296.10318	269.0
177.09235	266.0
217.05356	262.0
83.04848	259.0
227.05173	256.0
300.13406	252.0
147.08066	252.0
192.08092	249.0
203.10593	246.0
123.08145	245.0
272.1055	242.0
144.0584	234.0
189.0932	229.0
156.05788	227.0
169.06534	226.0
201.09012	225.0
200.01118	222.0
149.02405	217.0
183.04492	216.0
227.14322	215.0
217.06798	212.0
270.16086	211.0
281.08224	210.0
187.076	209.0
295.09634	208.0
281.10196	208.0
256.14612	207.0
226.06563	205.0
147.04741	200.0
145.06508	199.0
314.12173	199.0
214.05014	198.0
255.06427	192.0
237.09253	189.0
159.07933	189.0
146.03621	186.0
133.06361	185.0
252.11693	183.0
214.02866	183.0
253.07098	181.0
176.01106	181.0
218.08344	180.0
172.08752	179.0
314.10785	179.0
200.03612	179.0
175.11317	177.0
197.09689	175.0
238.13409	173.0
225.12723	172.0
237.12721	172.0
258.07907	170.0
256.07559	168.0
251.14294	166.0
170.07274	165.0
131.05153	162.0
269.12366	160.0
240.1133	158.0
258.11996	157.0
279.13681	157.0
241.15842	157.0
300.09674	153.0
283.11517	152.0
185.02168	151.0
132.02077	150.0
226.13484	149.0
314.14951	149.0
286.21307	146.0
283.09705	139.0
228.15237	136.0
211.03778	133.0
183.0807	132.0
216.04193	131.0
210.06868	130.0
245.15462	127.0
130.04117	127.0
67.01811	127.0
266.09277	126.0
328.12808	124.0
255.17532	124.0
307.13013	120.0
238.06459	118.0
280.14883	118.0
252.07806	118.0
164.06946	118.0
190.0289	117.0
270.08844	116.0
189.02049	116.0
211.11177	113.0
224.0471	113.0
163.06377	112.0
129.07367	112.0
115.05447	111.0
243.17149	108.0
224.08376	108.0
327.12308	107.0
223.11143	106.0
245.11934	106.0
186.10219	103.0
212.04619	103.0
258.14359	101.0
216.05202	100.0
291.10287	99.0
268.11252	99.0
216.10095	98.0
160.03551	97.0
223.07341	97.0
121.06469	96.0
137.09711	95.0
239.04318	94.0
135.0808	93.0
190.09911	93.0
134.07201	92.0
107.08827	92.0
254.09554	89.0
264.11407	89.0
216.11391	89.0
213.01697	89.0
162.03125	88.0
296.13855	88.0
282.1636	87.0
212.11749	85.0
133.02859	84.0
161.04425	82.0
163.05251	82.0
323.12546	81.0
273.15164	81.0
210.10275	81.0
79.05415	80.0
251.06847	79.0
135.11722	79.0
134.03459	78.0
286.23297	77.0
119.08702	77.0
242.03821	76.0
270.11578	76.0
187.11217	76.0
81.03329	75.0
233.07915	75.0
178.09982	75.0
103.0562	74.0
217.11992	74.0
249.09244	74.0
224.56923	74.0
164.06319	73.0
260.06824	72.0
236.12096	72.0
222.06828	72.0
196.05205	71.0
209.05792	71.0
210.19786	70.0
235.10783	70.0
83.0467	69.0
209.09616	69.0
225.16544	69.0
254.05806	69.0
266.11514	69.0
193.08519	67.0
251.09174	67.0
184.0891	66.0
229.12373	65.0
241.14473	65.0
170.03827	65.0
143.04584	65.0
199.10922	64.0
154.04225	63.0
180.05634	63.0
202.02856	63.0
203.02917	62.0
105.0711	62.0
195.08658	62.0
239.1416	61.0
219.09402	61.0
227.27754	60.0
188.11818	60.0
215.10017	60.0
163.11253	60.0
148.03825	60.0
68.99905	60.0
230.50732	59.0
257.15015	59.0
176.06953	59.0
311.12802	58.0
280.1095	58.0
252.14493	57.0
159.07191	57.0
159.11761	57.0
292.10956	57.0
174.10385	56.0
172.01431	55.0
293.11801	55.0
172.07854	55.0
227.5862	55.0
177.01677	54.0
174.05345	53.0
160.00702	52.0
147.11629	52.0
239.05226	52.0
268.05319	51.0
251.12898	51.0
316.16785	51.0
281.07077	51.0
226.30421	51.0
190.04105	51.0
136.01683	50.0
182.03542	50.0
265.08255	50.0
172.04643	50.0
237.51793	50.0
217.11415	50.0
315.96939	50.0
243.13486	49.0
225.04054	49.0
231.90849	48.0
212.07043	48.0
107.04977	48.0
241.51288	48.0
189.01242	48.0
207.24103	48.0
225.61383	47.0
256.05051	47.0
173.09616	47.0
242.12962	47.0
206.91269	46.0
221.09889	46.0
213.16278	46.0
228.40834	46.0
168.05458	46.0
211.21849	46.0
232.36954	46.0
342.79343	46.0
231.52539	45.0
232.01888	45.0
169.02715	45.0
233.11652	45.0
225.63295	45.0
325.10706	45.0
198.08249	45.0
121.02913	45.0
227.46655	45.0
111.08106	44.0
216.38753	44.0
232.42178	44.0
233.59073	44.0
227.01337	44.0
225.28447	44.0
244.1391	44.0
159.02869	44.0
204.25055	44.0
232.53526	44.0
222.11497	44.0
282.15042	44.0
210.38957	44.0
227.41191	44.0
225.8463	44.0
301.13925	44.0
65.03918	44.0
178.04102	44.0
204.66222	43.0
212.38	43.0
228.56673	43.0
228.73849	43.0
191.10497	43.0
215.52838	43.0
132.06015	43.0
189.24541	43.0
257.05594	43.0
230.36758	43.0
181.06824	43.0
226.26591	43.0
159.95251	43.0
230.34084	42.0
231.79219	42.0
231.65654	42.0
226.57094	42.0
281.1824	42.0
206.94791	42.0
211.84232	42.0
255.03612	42.0
263.14575	42.0
199.14929	42.0
225.56824	42.0
250.69931	42.0
196.09593	42.0
175.09114	42.0
93.07014	42.0
288.42908	42.0
214.01433	41.0
211.14734	41.0
166.0611	41.0
270.24777	41.0
214.37405	41.0
213.39732	41.0
108.01956	41.0
161.0977	41.0
231.17685	41.0
151.06084	41.0
233.67305	41.0
177.07932	41.0
255.85468	41.0
230.3007	41.0
160.08754	41.0
242.28661	41.0
243.70322	41.0
277.09381	40.0
225.55501	40.0
230.58464	40.0
205.38574	40.0
226.37788	40.0
207.11557	40.0
210.95386	40.0
226.21143	40.0
225.43736	40.0
230.73485	40.0
245.86349	40.0
239.02501	40.0
220.47176	40.0
229.35355	40.0
264.31622	40.0
223.15387	40.0
231.34067	40.0
247.04417	40.0
143.08566	40.0
217.72205	40.0
221.07997	40.0
227.17569	39.0
228.69702	39.0
227.43701	39.0
215.35735	39.0
219.10997	39.0
204.10362	39.0
191.03188	39.0
226.73753	39.0
226.61221	39.0
141.07214	39.0
226.42209	39.0
238.08272	39.0
230.81073	39.0
326.16382	39.0
314.08353	39.0
282.06656	39.0
194.86916	39.0
224.32716	39.0
236.08032	39.0
200.38528	39.0
230.4538	39.0
314.17032	38.0
192.79002	38.0
193.03078	38.0
294.6423	38.0
194.53575	38.0
289.83279	38.0
263.09808	38.0
238.23988	38.0
224.40637	38.0
234.13884	38.0
288.18298	38.0
227.93942	38.0
248.41286	38.0
237.06538	38.0
214.87044	38.0
145.05682	38.0
229.61909	38.0
274.34253	38.0
174.1788	38.0
209.13297	38.0
206.52127	38.0
287.99017	38.0
231.7594	37.0
342.68103	37.0
227.37943	37.0
194.14122	37.0
236.05927	37.0
219.72066	37.0
237.11063	37.0
225.01851	37.0
242.25764	37.0
218.12971	37.0
246.46425	37.0
247.11037	37.0
273.11279	37.0
211.92928	37.0
286.09052	37.0
217.44615	37.0
223.35286	37.0
193.50453	37.0
187.52095	37.0
71.01379	37.0
225.9817	36.0
206.93381	36.0
209.39787	36.0
220.38744	36.0
209.00978	36.0
232.82953	36.0
208.83144	36.0
208.69702	36.0
222.20839	36.0
314.90497	36.0
222.66699	36.0
245.57031	36.0
231.62225	36.0
190.89384	36.0
234.25572	36.0
225.40942	36.0
225.48294	36.0
226.54146	36.0
176.65996	36.0
229.95755	36.0
316.42737	36.0
229.7972	36.0
192.06192	36.0
227.48723	36.0
229.5627	36.0
229.43808	36.0
250.09651	36.0
228.62595	36.0
203.50247	36.0
265.10648	36.0
228.25148	36.0
234.29021	36.0
211.54454	36.0
298.12872	36.0
109.06531	36.0
189.27234	36.0
210.05449	36.0
289.55609	36.0
213.53754	36.0
224.79822	35.0
249.39856	35.0
230.0318	35.0
53.04043	35.0
205.50505	35.0
224.60739	35.0
179.04726	35.0
188.72173	35.0
210.7818	35.0
190.29224	35.0
226.80389	35.0
259.42117	35.0
191.33789	35.0
211.5132	35.0
213.89973	35.0
227.60689	35.0
229.49001	35.0
240.30301	35.0
227.81229	35.0
227.89507	35.0
224.31102	35.0
237.29915	35.0
231.88315	35.0
222.63193	35.0
289.10303	35.0
167.04813	35.0
235.09581	35.0
219.85858	35.0
233.33038	35.0
232.84598	35.0
208.88522	35.0
95.01405	35.0
207.64864	35.0
228.32843	35.0
221.59425	35.0
207.94084	35.0
240.22862	35.0
225.75653	34.0
212.68694	34.0
209.42764	34.0
210.49754	34.0
182.07375	34.0
247.54774	34.0
227.65564	34.0
129.32077	34.0
218.60292	34.0
209.79626	34.0
314.81635	34.0
314.06445	34.0
187.75436	34.0
217.27145	34.0
245.3049	34.0
247.06111	34.0
190.60982	34.0
225.30064	34.0
129.03362	34.0
205.12759	34.0
216.55466	34.0
222.3909	34.0
80.02533	34.0
225.94933	34.0
220.66519	34.0
222.86285	34.0
247.66023	34.0
236.21576	34.0
231.86972	34.0
235.39471	34.0
235.81409	34.0
242.14334	34.0
200.10121	34.0
170.14299	34.0
201.03458	34.0
256.17276	34.0
229.32834	34.0
198.10315	34.0
237.18301	34.0
158.05583	33.0
223.59001	33.0
224.68077	33.0
190.58278	33.0
154.94176	33.0
231.5686	33.0
242.47261	33.0
223.93425	33.0
252.92769	33.0
325.09647	33.0
217.89404	33.0
225.33298	33.0
218.03427	33.0
249.12953	33.0
185.72699	33.0
219.50732	33.0
233.68503	33.0
222.79852	33.0
219.83244	33.0
246.08926	33.0
220.05319	33.0
232.13672	33.0
232.24416	33.0
160.07515	33.0
327.10715	33.0
238.00264	33.0
215.43495	33.0
172.02716	33.0
189.12283	33.0
212.80835	33.0
191.67261	33.0
227.71179	33.0
191.40833	33.0
229.38469	33.0
211.89221	33.0
213.13562	33.0
189.49875	33.0
243.33798	33.0
230.14172	33.0
211.32382	33.0
244.82812	33.0
279.1041	33.0
145.09575	33.0
230.27841	33.0
245.13774	33.0
260.06033	33.0
190.44896	33.0
249.70175	33.0
193.30569	32.0
210.70076	32.0
245.92184	32.0
221.11638	32.0
233.39769	32.0
215.38321	32.0
342.83148	32.0
239.90089	32.0
245.82204	32.0
169.101	32.0
155.08806	32.0
236.50182	32.0
300.08487	32.0
301.3262	32.0
214.41995	32.0
194.24493	32.0
265.38239	32.0
342.28052	32.0
239.79625	32.0
239.54611	32.0
342.88046	32.0
240.59912	32.0
215.41196	32.0
313.01538	32.0
297.08978	32.0
195.04691	32.0
236.01865	32.0
189.14977	32.0
199.41611	32.0
221.98073	32.0
231.51199	32.0
286.4053	32.0
212.19879	32.0
315.99026	32.0
316.0303	32.0
223.63248	32.0
223.9577	32.0
226.78767	32.0
230.19075	32.0
206.86057	32.0
226.67413	32.0
268.2681	32.0
200.40054	32.0
226.45746	32.0
205.06027	32.0
229.97536	32.0
245.58258	32.0
192.20715	32.0
176.02534	32.0
225.68591	32.0
227.82411	32.0
229.27791	32.0
208.19934	32.0
230.5549	32.0
208.18805	32.0
222.64215	32.0
208.10469	32.0
227.58029	32.0
199.73845	32.0
200.58911	32.0
223.21823	32.0
223.37189	32.0
231.38237	32.0
214.30238	31.0
226.16724	31.0
230.34677	31.0
226.82306	31.0
258.64417	31.0
229.99022	31.0
280.06525	31.0
239.67041	31.0
229.75859	31.0
229.52264	31.0
212.65125	31.0
228.65112	31.0
230.40326	31.0
237.07745	31.0
215.17773	31.0
173.19923	31.0
222.10039	31.0
232.93115	31.0
232.26506	31.0
175.0108	31.0
233.57875	31.0
232.03229	31.0
242.30185	31.0
160.41232	31.0
235.32109	31.0
231.98605	31.0
186.4283	31.0
242.01384	31.0
295.07446	31.0
216.60942	31.0
224.75711	31.0
225.0141	31.0
236.68558	31.0
232.35162	31.0
245.25581	31.0
137.05927	31.0
225.14926	31.0
225.22275	31.0
299.10345	31.0
228.4261	31.0
240.15274	31.0
313.19733	31.0
208.08774	31.0
203.67714	31.0
252.61786	31.0
190.55168	31.0
317.9342	31.0
316.08429	31.0
201.77948	31.0
324.12784	31.0
211.43488	31.0
326.55655	31.0
203.83369	31.0
208.48346	31.0
190.67337	31.0
208.40994	31.0
222.97104	30.0
221.35234	30.0
221.79985	30.0
179.28844	30.0
225.87279	30.0
225.79185	30.0
249.48053	30.0
225.53882	30.0
316.13651	30.0
208.62912	30.0
136.0511	30.0
223.91814	30.0
245.28802	30.0
245.63322	30.0
208.32654	30.0
93.03235	30.0
154.02039	30.0
206.96762	30.0
135.00797	30.0
224.22011	30.0
224.02512	30.0
248.00093	30.0
228.29143	30.0
191.52893	30.0
234.7446	30.0
257.88089	30.0
239.97675	30.0
239.25064	30.0
238.66481	30.0
240.71457	30.0
241.19188	30.0
236.99905	30.0
342.65384	30.0
235.85168	30.0
235.54198	30.0
149.26443	30.0
234.86165	30.0
329.70874	30.0
228.32103	30.0
234.06691	30.0
233.05821	30.0
232.30833	30.0
242.8555	30.0
230.12093	30.0
229.87291	30.0
229.58348	30.0
229.2542	30.0
174.8761	30.0
191.78244	30.0
228.55043	30.0
244.03659	30.0
210.17657	30.0
194.07164	30.0
247.58011	30.0
212.58556	30.0
248.11661	30.0
212.56128	30.0
247.26279	30.0
214.74701	30.0
253.0009	30.0
212.32863	30.0
106.04098	30.0
212.59555	30.0
190.02216	30.0
196.08633	29.0
231.41068	29.0
219.74678	29.0
242.49243	29.0
205.0112	29.0
236.47321	29.0
232.1024	29.0
207.27628	29.0
252.0423	29.0
289.22458	29.0
315.93283	29.0
193.65031	29.0
256.22763	29.0
228.90292	29.0
248.98735	29.0
220.23917	29.0
253.29225	29.0
213.52037	29.0
222.92426	29.0
254.53905	29.0
222.74445	29.0
190.46384	29.0
191.76753	29.0
178.71721	29.0
212.66409	29.0
261.29993	29.0
310.16837	29.0
250.62643	29.0
224.86136	29.0
212.16599	29.0
192.09991	29.0
213.85535	29.0
301.91125	29.0
194.65459	29.0
254.78284	29.0
202.41151	29.0
158.49194	29.0
316.78281	29.0
162.71007	29.0
173.55899	29.0
250.07793	29.0
244.97678	29.0
260.78412	29.0
290.84729	29.0
217.58624	29.0
230.96547	29.0
237.61453	29.0
175.79807	29.0
242.94859	29.0
223.90495	28.0
224.48119	28.0
190.33411	28.0
180.72975	28.0
270.88565	28.0
200.11922	28.0
229.92191	28.0
312.38159	28.0
197.94469	28.0
226.93074	28.0
223.00175	28.0
205.05046	28.0
229.7482	28.0
179.10361	28.0
226.98532	28.0
234.15681	28.0
228.80959	28.0
328.6871	28.0
224.17024	28.0
224.76738	28.0
271.10007	28.0
286.13687	28.0
133.10429	28.0
224.94212	28.0
286.18988	28.0
243.42659	28.0
231.70274	28.0
192.24924	28.0
230.21898	28.0
270.32507	28.0
244.55699	28.0
316.31241	28.0
323.11841	28.0
182.80519	28.0
231.68039	28.0
173.77708	28.0
234.49561	28.0
200.66263	28.0
233.84973	28.0
205.30295	28.0
208.85126	28.0
274.16901	28.0
235.41725	28.0
162.61266	28.0
212.52988	28.0
227.84776	28.0
219.54214	28.0
236.10291	28.0
216.68149	28.0
188.57512	28.0
212.40997	28.0
236.55603	28.0
236.82872	28.0
209.4574	28.0
218.38724	28.0
153.84056	28.0
259.86929	28.0
189.7037	28.0
227.53598	28.0
175.84091	28.0
213.48602	28.0
127.05786	28.0
249.88284	28.0
307.28287	28.0
194.79398	28.0
258.03345	28.0
221.40042	28.0
221.28532	28.0
193.96797	28.0
213.61339	28.0
188.36136	28.0
221.78818	28.0
248.45609	28.0
206.64091	27.0
230.88809	27.0
187.60812	27.0
195.23842	27.0
173.08199	27.0
237.85764	27.0
205.41101	27.0
205.78029	27.0
229.70517	27.0
229.6458	27.0
230.60843	27.0
175.69809	27.0
247.41219	27.0
212.8855	27.0
230.53557	27.0
154.58481	27.0
321.06918	27.0
213.96562	27.0
239.31427	27.0
159.59973	27.0
206.09367	27.0
239.37032	27.0
171.92957	27.0
319.28012	27.0
193.78798	27.0
238.95082	27.0
158.69173	27.0
239.56883	27.0
225.23891	27.0
213.56186	27.0
249.42485	27.0
144.04781	27.0
193.93524	27.0
234.32768	27.0
255.93614	27.0
212.70694	27.0
234.7626	27.0
228.21301	27.0
164.10081	27.0
232.74287	27.0
232.79965	27.0
209.11032	27.0
182.8661	27.0
235.23097	27.0
208.89655	27.0
228.77403	27.0
142.04152	27.0
221.06104	27.0
234.92018	27.0
341.93997	27.0
314.86673	27.0
228.67628	27.0
208.34209	27.0
244.2906	27.0
175.54626	27.0
176.49339	27.0
128.85236	27.0
244.74998	27.0
246.54573	27.0
186.30397	27.0
221.97488	27.0
165.26199	27.0
245.44449	27.0
246.20911	27.0
231.73106	27.0
210.8472	27.0
199.99457	27.0
226.65202	27.0
185.48685	27.0
184.93378	27.0
183.0224	27.0
219.30569	27.0
222.26094	27.0
250.33197	26.0
320.45007	26.0
190.15042	26.0
159.4241	26.0
272.1879	26.0
270.21719	26.0
228.91774	26.0
271.89716	26.0
270.44583	26.0
203.63101	26.0
174.48653	26.0
309.15167	26.0
202.18866	26.0
301.71732	26.0
337.85974	26.0
148.08591	26.0
234.55109	26.0
263.98676	26.0
263.7561	26.0
235.01324	26.0
235.05078	26.0
160.59471	26.0
241.97575	26.0
241.54485	26.0
157.09944	26.0
236.27145	26.0
261.86218	26.0
261.49942	26.0
342.70822	26.0
241.23447	26.0
256.27151	26.0
237.80478	26.0
238.29884	26.0
308.10223	26.0
258.53391	26.0
240.43205	26.0
343.07269	26.0
265.25958	26.0
197.89233	26.0
233.43361	26.0
192.29134	26.0
201.6557	26.0
302.11206	26.0
200.82635	26.0
200.6765	26.0
269.60904	26.0
269.08029	26.0
268.64835	26.0
268.3515	26.0
324.89169	26.0
231.44196	26.0
231.59692	26.0
147.06996	26.0
250.76288	26.0
242.41313	26.0
199.94055	26.0
212.76692	26.0
268.03397	26.0
232.73093	26.0
198.45892	26.0
242.23479	26.0
267.03607	26.0
198.37202	26.0
251.0545	26.0
227.31003	26.0
315.90323	26.0
224.97003	26.0
210.26886	26.0
223.86832	26.0
190.82349	26.0
223.97675	26.0
245.4767	26.0
285.85699	26.0
252.69102	26.0
224.46652	26.0
285.0744	26.0
214.13039	26.0
283.72845	26.0
224.73949	26.0
190.92496	26.0
191.151	26.0
282.61285	26.0
211.4662	26.0
189.34645	26.0
206.43965	26.0
206.37354	26.0
137.97336	26.0
181.10251	26.0
215.71388	26.0
225.50206	26.0
206.01355	26.0
205.93484	26.0
249.60582	26.0
223.40262	26.0
316.82986	26.0
51.02451	26.0
223.18166	26.0
210.0843	26.0
216.9771	26.0
210.34981	26.0
209.88422	26.0
187.13629	26.0
290.75711	26.0
184.1994	26.0
209.40779	26.0
314.75552	26.0
190.67877	26.0
220.12292	26.0
297.87686	26.0
190.78561	26.0
245.89114	26.0
220.50375	26.0
245.75603	26.0
288.61203	26.0
221.55635	26.0
247.13039	26.0
288.03339	26.0
221.91653	26.0
208.50749	26.0
222.08725	26.0
188.92896	26.0
190.41924	26.0
245.03197	26.0
190.80591	26.0
278.74756	26.0
176.45827	26.0
244.41306	26.0
204.41573	26.0
226.9514	26.0
213.69928	26.0
249.74509	26.0
227.33513	26.0
226.33368	26.0
316.57196	26.0
215.57295	26.0
279.23663	26.0
204.75328	26.0
226.49577	26.0
227.20964	26.0
227.6187	26.0
226.1908	26.0
228.19231	25.0
197.35406	25.0
152.8365	25.0
254.4953	25.0
160.53763	25.0
143.02827	25.0
209.01828	25.0
193.58356	25.0
119.31048	25.0
228.23225	25.0
235.36166	25.0
175.44896	25.0
153.40361	25.0
251.80605	25.0
262.81384	25.0
196.9608	25.0
235.63968	25.0
196.83163	25.0
189.91417	25.0
183.44128	25.0
140.66071	25.0
162.24947	25.0
150.96336	25.0
157.52441	25.0
233.79283	25.0
118.04418	25.0
287.83398	25.0
147.45737	25.0
183.11514	25.0
197.83861	25.0
215.77718	25.0
167.01395	25.0
248.21379	25.0
212.0034	25.0
247.22122	25.0
228.38318	25.0
221.86694	25.0
242.16925	25.0
264.20001	25.0
210.81592	25.0
234.51959	25.0
221.72401	25.0
338.15503	25.0
235.97351	25.0
209.1712	25.0
160.74365	25.0
196.44302	25.0
209.2052	25.0
164.01051	25.0
209.86577	25.0
217.15889	25.0
273.14032	25.0
237.69757	25.0
187.43782	25.0
160.92622	25.0
187.80267	25.0
227.85811	25.0
175.75911	25.0
163.65453	25.0
195.20833	25.0
209.97218	25.0
163.40659	25.0
240.88629	25.0
295.79993	25.0
216.7478	25.0
238.31093	25.0
297.62338	25.0
149.78532	25.0
212.30722	25.0
238.627	25.0
149.87283	25.0
240.45636	25.0
150.72401	25.0
239.1628	25.0
290.34314	25.0
241.70772	25.0
188.26729	25.0
274.00848	25.0
265.6792	25.0
272.61621	25.0
154.19301	25.0
236.31662	25.0
236.38437	25.0
236.46567	25.0
161.86549	25.0
154.21854	25.0
187.01575	25.0
236.76845	25.0
262.03336	25.0
218.62898	25.0
127.71439	25.0
209.46873	25.0
157.04054	25.0
314.70688	25.0
209.66153	25.0
248.73399	25.0
195.85876	25.0
222.32373	25.0
198.28651	25.0
193.26349	25.0
316.241	25.0
174.65991	25.0
206.6212	25.0
172.84758	25.0
230.74675	25.0
159.77422	25.0
172.61592	25.0
230.84941	25.0
135.66759	25.0
230.93422	25.0
206.80142	25.0
231.0265	25.0
275.56525	25.0
144.17477	25.0
210.41231	25.0
190.85867	25.0
245.39693	25.0
226.63875	25.0
214.22067	25.0
157.03195	25.0
207.06203	25.0
177.21225	25.0
134.96359	25.0
215.61897	25.0
316.2706	25.0
159.73833	25.0
233.54134	25.0
173.24951	25.0
229.67548	25.0
213.77658	25.0
155.83653	25.0
226.24236	25.0
201.98402	25.0
153.36844	25.0
179.86847	25.0
201.9353	25.0
189.67809	25.0
143.4068	25.0
189.55267	25.0
254.75938	25.0
225.37267	25.0
206.21178	25.0
202.77391	25.0
225.26537	25.0
206.2596	25.0
173.50352	25.0
173.43259	25.0
192.26689	25.0
191.87468	25.0
173.31654	25.0
278.1348	25.0
231.46878	25.0
285.18851	25.0
182.11603	25.0
169.18378	25.0
192.97363	25.0
223.49631	25.0
211.72688	25.0
232.57558	25.0
198.85229	25.0
177.12102	25.0
215.75415	25.0
271.62595	25.0
198.75287	25.0
182.72179	25.0
286.77997	25.0
315.86148	25.0
146.08119	25.0
274.40579	25.0
146.55856	25.0
207.97897	25.0
266.33722	25.0
146.60243	25.0
249.0739	25.0
228.50455	25.0
178.84814	25.0
222.44348	25.0
233.474	25.0
145.08041	25.0
192.59157	25.0
171.70621	25.0
193.95706	25.0
156.46184	25.0
204.87802	25.0
192.38097	25.0
171.21765	25.0
224.1248	25.0
242.59155	25.0
189.52032	25.0
214.35255	25.0
170.4548	25.0
71.36246	25.0
192.42851	25.0
239.92972	25.0
255.24728	25.0
207.20438	25.0
190.38951	25.0
226.87912	25.0
326.89993	25.0
144.92004	25.0
252.32845	25.0
199.46451	25.0
199.4493	25.0
207.41586	25.0
248.70157	25.0
155.2747	24.0
153.96327	24.0
157.94012	24.0
157.74081	24.0
244.47278	24.0
155.48222	24.0
247.17349	24.0
250.52257	24.0
244.51564	24.0
255.29735	24.0
243.57634	24.0
247.29359	24.0
255.89854	24.0
249.23311	24.0
153.30417	24.0
240.76015	24.0
249.0507	24.0
245.66086	24.0
245.99249	24.0
254.17514	24.0
246.4335	24.0
241.4368	24.0
241.38354	24.0
246.73798	24.0
151.49445	24.0
246.80258	24.0
248.6506	24.0
280.45706	24.0
239.75227	24.0
120.35996	24.0
219.25929	24.0
218.71007	24.0
217.82176	24.0
217.30322	24.0
216.48981	24.0
216.47252	24.0
187.99731	24.0
212.14317	24.0
215.49532	24.0
213.93698	24.0
213.66348	24.0
213.29863	24.0
212.47278	24.0
303.87119	24.0
184.0798	24.0
219.99364	24.0
220.2973	24.0
220.42815	24.0
183.48637	24.0
220.83105	24.0
220.86015	24.0
289.06973	24.0
183.2225	24.0
222.55302	24.0
286.56442	24.0
258.05704	24.0
224.25969	24.0
224.61766	24.0
181.77788	24.0
180.95889	24.0
138.10338	24.0
306.71152	24.0
189.74147	24.0
225.71681	24.0
320.81305	24.0
316.22009	24.0
316.35245	24.0
316.67999	24.0
317.00421	24.0
203.24831	24.0
317.8696	24.0
201.24568	24.0
211.6642	24.0
192.34294	24.0
326.28232	24.0
192.58748	24.0
328.38892	24.0
328.97122	24.0
58.37973	24.0
205.66933	24.0
205.89691	24.0
205.96295	24.0
206.27928	24.0
206.47061	24.0
207.07893	24.0
207.53859	24.0
207.78836	24.0
207.92531	24.0
208.02559	24.0
208.65883	24.0
190.73558	24.0
314.69299	24.0
210.51744	24.0
210.64249	24.0
313.41052	24.0
210.74625	24.0
139.99948	24.0
132.87166	24.0
231.84885	24.0
232.64877	24.0
235.1664	24.0
166.25928	24.0
263.41269	24.0
234.63058	24.0
148.23848	24.0
234.10287	24.0
267.71182	24.0
230.47461	24.0
232.01141	24.0
225.90665	24.0
170.75156	24.0
231.30641	24.0
144.43358	24.0
231.04585	24.0
235.33612	24.0
235.48036	24.0
262.49167	24.0
262.42029	24.0
236.04422	24.0
165.92862	24.0
262.06824	24.0
165.47229	24.0
237.41231	24.0
237.45154	24.0
237.5602	24.0
260.89325	24.0
237.88783	24.0
237.93315	24.0
238.2157	24.0
238.61337	24.0
150.01553	24.0
230.7899	24.0
251.61806	24.0
173.9837	24.0
141.82336	24.0
228.95477	24.0
175.93701	24.0
174.91237	24.0
174.37659	24.0
175.21297	24.0
140.60149	24.0
275.48398	24.0
177.92867	24.0
229.84618	24.0
273.32809	24.0
227.75908	24.0
226.34842	24.0
229.89667	24.0
228.85699	24.0
256.3107	23.0
133.70601	23.0
275.08591	23.0
316.91702	23.0
256.64944	23.0
317.23962	23.0
282.68362	23.0
256.73575	23.0
277.47375	23.0
136.12422	23.0
259.27133	23.0
258.2962	23.0
151.3161	23.0
341.96353	23.0
70.33954	23.0
342.92761	23.0
261.12582	23.0
141.03377	23.0
273.5386	23.0
128.14635	23.0
298.03235	23.0
119.13191	23.0
117.06842	23.0
300.90646	23.0
268.18307	23.0
127.21245	23.0
253.50737	23.0
144.68201	23.0
291.56421	23.0
254.01904	23.0
103.62363	23.0
146.41278	23.0
289.94281	23.0
255.48671	23.0
97.96613	23.0
96.46857	23.0
141.912	23.0
152.16896	23.0
294.77847	23.0
251.28264	23.0
170.20558	23.0
172.45514	23.0
163.27016	23.0
176.71722	23.0
165.71046	23.0
236.81667	23.0
177.27353	23.0
226.47661	23.0
237.65378	23.0
201.56114	23.0
206.16257	23.0
178.57323	23.0
179.61115	23.0
181.20268	23.0
181.41629	23.0
224.97885	23.0
176.13191	23.0
224.8364	23.0
239.00078	23.0
162.66385	23.0
224.59418	23.0
224.54575	23.0
209.30719	23.0
162.38545	23.0
182.1517	23.0
162.10106	23.0
223.80971	23.0
199.69554	23.0
223.55341	23.0
205.53593	23.0
175.99287	23.0
223.0544	23.0
229.31351	23.0
231.48517	23.0
231.71915	23.0
194.11256	23.0
204.26733	23.0
191.50589	23.0
231.21111	23.0
204.38632	23.0
230.87619	23.0
203.30695	23.0
233.16287	23.0
230.01991	23.0
174.27057	23.0
233.92911	23.0
227.50644	23.0
202.62473	23.0
204.99017	23.0
228.51639	23.0
234.37865	23.0
234.44312	23.0
175.50993	23.0
227.99857	23.0
227.96307	23.0
227.91872	23.0
205.19772	23.0
234.9592	23.0
202.44217	23.0
161.53426	23.0
204.34853	23.0
189.83186	23.0
160.1656	23.0
244.64888	23.0
247.77429	23.0
193.71437	23.0
243.72614	23.0
188.69751	23.0
188.55898	23.0
219.39998	23.0
214.50887	23.0
189.14168	23.0
245.23128	23.0
195.44099	23.0
215.81889	23.0
197.00067	23.0
197.68851	23.0
221.54324	23.0
157.66333	23.0
198.43684	23.0
222.12958	23.0
250.90091	23.0
199.01251	23.0
242.19363	23.0
247.82516	23.0
158.32309	23.0
194.38963	23.0
209.94522	23.0
197.92126	23.0
189.43001	23.0
205.03784	22.0
211.64995	22.0
211.58157	22.0
308.20193	22.0
102.63115	22.0
228.7074	22.0
223.02808	22.0
214.6064	22.0
204.69164	22.0
229.00664	22.0
174.69485	22.0
229.16968	22.0
229.23491	22.0
122.78612	22.0
230.35718	22.0
269.99832	22.0
300.62454	22.0
213.20139	22.0
104.45367	22.0
212.97838	22.0
304.22293	22.0
216.74492	22.0
226.75818	22.0
216.91652	22.0
293.88303	22.0
181.81485	22.0
219.77	22.0
221.04503	22.0
208.29544	22.0
208.72107	22.0
283.16791	22.0
224.72629	22.0
231.22748	22.0
182.09091	22.0
209.60483	22.0
286.1203	22.0
221.67297	22.0
209.75087	22.0
314.48804	22.0
223.54169	22.0
98.28236	22.0
208.14	22.0
225.46382	22.0
186.38551	22.0
217.68883	22.0
313.61859	22.0
292.24347	22.0
223.46263	22.0
276.82327	22.0
177.78108	22.0
185.67361	22.0
140.37166	22.0
178.1312	22.0
178.51826	22.0
210.60127	22.0
226.28949	22.0
218.34383	22.0
218.45381	22.0
224.50906	22.0
138.56523	22.0
150.89238	22.0
197.54259	22.0
319.94891	22.0
202.29588	22.0
237.35799	22.0
237.95279	22.0
260.72403	22.0
260.44897	22.0
260.24042	22.0
246.26135	22.0
158.39211	22.0
245.79594	22.0
197.51506	22.0
154.07872	22.0
244.31969	22.0
341.06049	22.0
77.99375	22.0
253.33122	22.0
255.32552	22.0
238.49692	22.0
238.73138	22.0
258.85049	22.0
258.70557	22.0
197.66371	22.0
150.47887	22.0
317.08093	22.0
239.60825	22.0
242.78226	22.0
192.40814	22.0
152.66101	22.0
240.51862	22.0
327.0239	22.0
253.64772	22.0
193.06206	22.0
262.09677	22.0
234.71309	22.0
251.17244	22.0
232.61292	22.0
168.73572	22.0
317.41583	22.0
155.95514	22.0
317.65839	22.0
194.67099	22.0
233.36627	22.0
317.81723	22.0
191.85432	22.0
262.2807	22.0
248.56415	22.0
248.37582	22.0
148.6322	22.0
249.33206	22.0
263.67657	22.0
246.7149	22.0
262.57736	22.0
149.09221	22.0
187.64032	21.0
296.38632	21.0
301.10016	21.0
288.96649	21.0
157.22467	21.0
210.1496	21.0
122.07098	21.0
251.65845	21.0
97.2357	21.0
253.82243	21.0
212.25871	21.0
221.61903	21.0
215.66643	21.0
241.9133	21.0
241.21622	21.0
160.90013	21.0
255.40846	21.0
211.30817	21.0
219.45799	21.0
244.19418	21.0
196.40871	21.0
246.3259	21.0
196.18095	21.0
291.91547	21.0
342.75534	21.0
216.84009	21.0
111.33407	21.0
195.59024	21.0
247.00262	21.0
219.01721	21.0
256.50201	21.0
298.64804	21.0
194.46609	21.0
289.60944	21.0
211.27258	21.0
203.42564	21.0
192.67854	21.0
318.40933	21.0
260.35416	21.0
223.52705	21.0
191.91537	21.0
276.26144	21.0
275.92786	21.0
164.39323	21.0
226.85109	21.0
206.04166	21.0
235.8983	21.0
235.59157	21.0
191.30537	21.0
234.81662	21.0
140.28813	21.0
175.31668	21.0
264.72552	21.0
234.30669	21.0
234.09088	21.0
233.81378	21.0
146.77441	21.0
142.36383	21.0
142.41408	21.0
317.56238	21.0
233.26456	21.0
204.51794	21.0
149.35538	21.0
207.32985	21.0
200.32014	21.0
259.73196	21.0
199.59453	21.0
257.45804	21.0
182.26671	21.0
239.40669	21.0
162.49278	21.0
162.54022	21.0
284.44315	21.0
258.48352	21.0
77.54986	21.0
179.90919	21.0
181.62212	21.0
305.6012	21.0
259.79196	21.0
163.54932	21.0
180.02217	21.0
207.86177	21.0
207.89848	21.0
138.49608	21.0
163.44164	21.0
281.24646	21.0
193.68848	20.0
342.36746	20.0
208.97156	20.0
210.5416	20.0
201.40547	20.0
307.60397	20.0
211.94923	20.0
189.76306	20.0
207.461	20.0
314.53494	20.0
204.44653	20.0
212.2202	20.0
210.65813	20.0
51.02101	20.0
140.1826	20.0
232.56065	20.0
239.88118	20.0
140.52834	20.0
278.99612	20.0
274.56964	20.0
176.61961	20.0
227.77238	20.0
175.62022	20.0
228.54007	20.0
142.24001	20.0
269.83902	20.0
269.54474	20.0
160.48056	20.0
160.66048	20.0
242.00012	20.0
168.98514	20.0
251.52486	20.0
233.20773	20.0
266.1918	20.0
233.30495	20.0
266.04007	20.0
234.03546	20.0
151.95644	20.0
151.77299	20.0
236.93423	20.0
261.40756	20.0
164.215	20.0
260.67343	20.0
260.53275	20.0
238.46364	20.0
161.62637	20.0
159.54654	20.0
149.44635	20.0
181.31343	20.0
218.93605	20.0
252.26312	20.0
250.56598	20.0
188.89127	20.0
215.29124	20.0
215.93544	20.0
250.22662	20.0
252.96663	20.0
247.61092	20.0
158.01765	20.0
122.46188	20.0
253.89888	20.0
296.00711	20.0
126.609	20.0
292.90009	20.0
291.38864	20.0
254.6328	20.0
158.52524	20.0
135.45551	20.0
221.45433	20.0
288.37085	20.0
222.03033	20.0
135.32675	20.0
246.16762	20.0
284.50259	20.0
133.95752	20.0
285.5607	20.0
195.1796	19.0
192.44073	19.0
246.39046	19.0
243.68181	19.0
70.73267	19.0
257.03082	19.0
243.30896	19.0
154.49107	19.0
159.26218	19.0
189.65919	19.0
251.32921	19.0
172.20573	19.0
299.6694	19.0
211.56732	19.0
127.95908	19.0
219.62631	19.0
309.31354	19.0
223.75404	19.0
258.78592	19.0
140.86984	19.0
171.79475	19.0
103.01643	19.0
169.11882	19.0
189.60121	19.0
213.76083	19.0
168.53479	19.0
234.88866	19.0
235.57204	19.0
200.92073	19.0
187.71143	18.0
88.46996	18.0
207.96486	18.0
130.26573	18.0
98.45621	18.0
250.59543	18.0
232.45314	18.0
76.1386	17.0
216.45235	17.0
59.58152	17.0
169.40166	17.0
161.17601	17.0
200.46153	17.0
136.53584	16.0

MSID: 8895
ID: 478
RETENTIONTIME: 31.55625
PRECURSORMZ: 329.1762
AREA: 52006292.0
PRECURSORTYPE: [M-H]-
SMILES: [H][C@@]12C[C@@H]3OC(=O)[C@@]1(CCCC2(C)C)C1=C3C=C(C(C)C)C(O)=C1O
NAME: carnosol
FORMULA: C20H26O4
INCHIKEY: XUSYGBPHQBWGAD-PJSUUKDQSA-N
CAS: 5957-80-2
Molecular Weight: 330.424
Number of References: 182
Class: Abietane diterpenoids
Superclass: Diterpenoids
Pathway: Terpenoids
ppm: 0.9150000000204273
CMID: CM243
IONMODE: Negative
COLLISIONENERGY: 40±20eV
INSTRUMENTTYPE: AB SCIEX
INSTRUMENT: Q-TOF
Comment:  
Num Peaks: 750
285.18906	440756.0
201.0919	53517.0
329.17618	12409.0
269.15314	10382.0
214.09929	9524.0
270.16299	8348.0
255.13829	4986.0
229.12271	2811.0
203.10773	2669.0
215.10779	2423.0
186.06783	2081.0
257.15381	1591.0
213.09172	1538.0
227.10678	1474.0
241.12241	1425.0
200.0836	1396.0
216.11433	1277.0
253.12291	1235.0
187.07639	1193.0
199.07646	1067.0
283.16846	995.0
267.13904	811.0
242.13011	641.0
202.09856	507.0
188.08363	456.0
239.10573	446.0
284.24225	442.0
217.1218	435.0
254.12881	333.0
185.05934	292.0
243.13992	260.0
189.09224	248.0
204.11522	237.0
267.17426	237.0
158.03767	204.0
284.17786	164.0
228.11288	162.0
198.06772	162.0
301.18063	136.0
240.11681	113.0
172.05447	110.0
211.11218	105.0
159.04506	103.0
251.14035	102.0
268.14673	102.0
212.08369	97.0
225.08948	94.0
257.1915	91.0
237.12769	90.0
329.13708	87.0
174.06673	80.0
267.15665	79.0
150.06741	77.0
164.08359	76.0
226.09995	75.0
83.05133	71.0
184.05093	67.0
225.16882	67.0
170.07181	67.0
238.0983	65.0
270.13565	65.0
299.16333	65.0
200.43283	65.0
329.14597	64.0
151.07678	63.0
183.08238	61.0
173.05785	60.0
252.14853	57.0
200.06421	56.0
192.18854	55.0
286.20206	53.0
230.13327	53.0
177.0914	53.0
198.97836	52.0
203.07285	52.0
159.04135	51.0
191.11076	50.0
286.12585	50.0
243.13228	50.0
171.07964	50.0
285.94202	49.0
286.50864	49.0
190.10219	48.0
215.09056	48.0
286.24347	48.0
192.8652	47.0
85.0299	47.0
284.20758	47.0
211.07661	47.0
244.14571	47.0
327.15561	46.0
241.19084	46.0
283.14374	46.0
211.10793	45.0
267.11664	45.0
171.04378	44.0
160.05441	44.0
286.43405	44.0
270.12439	44.0
286.06955	43.0
286.17389	43.0
192.71971	43.0
287.16043	42.0
201.71869	42.0
224.12231	42.0
146.03532	41.0
284.86667	41.0
286.21698	40.0
224.08859	40.0
271.05869	40.0
286.02649	39.0
145.02762	39.0
188.29454	38.0
188.38593	38.0
191.4751	38.0
283.13055	38.0
218.96112	38.0
283.66306	38.0
158.36284	38.0
191.00249	38.0
286.32797	38.0
185.09665	38.0
198.53244	37.0
287.21518	37.0
198.41794	37.0
199.75684	37.0
197.43288	36.0
192.68437	36.0
193.10463	36.0
186.04379	36.0
192.5145	36.0
241.18019	36.0
201.63107	36.0
191.31389	36.0
196.99419	35.0
329.12109	35.0
211.27585	35.0
285.99832	35.0
188.62929	35.0
204.43854	35.0
158.22362	35.0
287.42267	35.0
193.43817	35.0
287.29651	35.0
191.13107	34.0
287.48578	34.0
189.63666	34.0
189.62047	34.0
286.39923	34.0
286.13745	34.0
256.14664	34.0
213.51364	34.0
209.67471	34.0
191.9361	34.0
237.09149	34.0
187.19427	34.0
193.8838	34.0
193.75974	34.0
126.95438	34.0
218.07954	33.0
123.41872	33.0
201.93153	33.0
200.85034	33.0
216.09419	33.0
192.93593	33.0
201.82857	33.0
215.27155	33.0
191.42226	33.0
211.65607	33.0
286.93478	33.0
187.97888	33.0
195.06097	32.0
197.97264	32.0
213.39203	32.0
192.55389	32.0
222.10812	32.0
199.62675	32.0
267.09424	32.0
193.06517	32.0
195.30724	32.0
196.16078	32.0
189.69194	32.0
186.65605	32.0
188.15347	32.0
286.57162	32.0
199.70839	31.0
193.45451	31.0
192.06366	31.0
187.16345	31.0
202.25868	31.0
188.64407	31.0
203.82152	31.0
192.7673	31.0
184.08681	31.0
190.69133	31.0
175.07465	31.0
193.38506	31.0
250.13263	31.0
193.64253	31.0
286.70758	31.0
286.91818	31.0
199.45937	31.0
221.99722	31.0
193.53217	30.0
197.12479	30.0
191.7191	30.0
209.02719	30.0
289.66333	30.0
284.4751	30.0
209.12914	30.0
192.57971	30.0
205.70204	30.0
193.42728	30.0
209.26936	30.0
202.07907	30.0
284.90634	30.0
285.96686	30.0
156.0582	30.0
194.25078	30.0
193.33604	30.0
203.44701	30.0
189.02222	30.0
267.86459	30.0
258.08429	30.0
189.24577	30.0
212.70737	30.0
196.66995	29.0
195.95099	29.0
289.60165	29.0
192.2795	29.0
192.33246	29.0
241.14825	29.0
286.10101	29.0
268.27023	29.0
260.25671	29.0
206.15173	29.0
197.06291	29.0
192.85025	29.0
210.66423	29.0
223.10896	29.0
158.9364	29.0
215.73013	29.0
195.18135	29.0
217.91182	29.0
194.17299	29.0
209.64352	29.0
209.5457	28.0
190.924	28.0
210.27496	28.0
201.35306	28.0
195.57556	28.0
206.84267	28.0
178.92708	28.0
200.52988	28.0
193.69023	28.0
286.98288	28.0
286.2352	28.0
286.47879	28.0
159.48749	28.0
193.05156	28.0
186.11459	28.0
197.4425	28.0
191.38704	28.0
199.21188	28.0
191.88184	28.0
208.17715	28.0
191.29628	28.0
198.21658	28.0
192.2184	28.0
289.52502	28.0
192.48325	28.0
286.63959	28.0
186.41931	28.0
189.98204	28.0
186.45541	28.0
207.6801	28.0
189.84033	27.0
286.96133	27.0
194.0079	27.0
191.7774	27.0
192.83121	27.0
208.35805	27.0
194.48286	27.0
193.62344	27.0
189.43982	27.0
128.42612	27.0
190.18996	27.0
189.56248	27.0
223.66661	27.0
289.02368	27.0
189.58946	27.0
190.20616	27.0
286.30811	27.0
217.02658	27.0
186.59853	27.0
194.3709	27.0
208.37502	26.0
200.90309	26.0
206.59206	26.0
208.90686	26.0
206.74129	26.0
308.69617	26.0
195.23744	26.0
289.99008	26.0
207.51501	26.0
225.12326	26.0
216.93713	26.0
189.53148	26.0
203.13425	26.0
211.67174	26.0
286.62134	26.0
212.13646	26.0
284.98898	26.0
190.97	26.0
188.85934	26.0
192.52672	26.0
284.57751	26.0
215.05466	26.0
191.15544	26.0
269.90552	26.0
190.78465	26.0
192.07722	26.0
208.84317	26.0
274.54587	26.0
202.37291	26.0
204.71446	26.0
251.10155	26.0
202.50388	26.0
192.87473	26.0
240.19116	26.0
237.89586	26.0
190.68051	26.0
193.96426	26.0
286.53348	26.0
229.74718	26.0
158.98209	26.0
286.37271	26.0
235.5665	26.0
190.63454	26.0
190.25613	26.0
189.235	26.0
193.18629	26.0
211.76292	25.0
212.54172	25.0
214.37448	25.0
209.94989	25.0
216.8333	25.0
210.68839	25.0
200.49106	25.0
205.0018	25.0
208.15596	25.0
205.06349	25.0
213.98753	25.0
213.02454	25.0
205.12801	25.0
214.43758	25.0
205.5195	25.0
217.07419	25.0
206.93987	25.0
206.53154	25.0
215.67693	25.0
200.26511	25.0
201.44617	25.0
245.1413	25.0
199.49118	25.0
188.42894	25.0
187.02682	25.0
187.30682	25.0
187.63667	25.0
187.69302	25.0
187.78157	25.0
271.13284	25.0
188.23407	25.0
188.2717	25.0
188.60239	25.0
186.62393	25.0
188.67368	25.0
188.73152	25.0
188.94548	25.0
189.47891	25.0
218.39346	25.0
265.70847	25.0
189.91321	25.0
189.9294	25.0
284.29675	25.0
284.71628	25.0
257.11456	25.0
288.65921	25.0
311.16318	25.0
301.15002	25.0
291.07672	25.0
127.65378	25.0
130.04031	25.0
289.39008	25.0
142.53125	25.0
144.05632	25.0
287.70499	25.0
186.29366	25.0
157.57635	25.0
286.81537	25.0
158.42816	25.0
159.15376	25.0
286.42078	25.0
286.01654	25.0
184.9155	25.0
284.88815	25.0
260.42105	25.0
189.66362	25.0
228.89893	25.0
233.05418	25.0
230.1808	25.0
193.85107	25.0
254.01331	25.0
194.21666	25.0
194.29582	25.0
194.67274	25.0
194.85587	25.0
225.45987	25.0
195.02405	25.0
195.04866	25.0
196.28972	25.0
196.49008	25.0
222.1738	25.0
220.95667	25.0
220.86787	25.0
197.90788	25.0
220.16986	25.0
232.21626	25.0
208.42308	25.0
245.80104	25.0
192.44249	25.0
192.14238	25.0
193.30064	25.0
191.55777	25.0
193.21759	25.0
193.02026	25.0
191.53473	25.0
192.2442	25.0
240.02121	25.0
253.09331	25.0
192.63815	25.0
209.21553	24.0
213.33052	24.0
236.44807	24.0
287.94089	24.0
219.94179	24.0
219.13506	24.0
295.90326	24.0
218.51215	24.0
217.28488	24.0
214.06776	24.0
268.62482	24.0
286.89664	24.0
212.69022	24.0
211.1563	24.0
215.83514	24.0
285.86584	24.0
269.27362	24.0
210.82629	24.0
284.82867	24.0
239.14359	24.0
215.58058	24.0
273.07452	24.0
258.69193	24.0
57.03488	24.0
186.53165	24.0
188.2072	24.0
183.39258	24.0
167.04973	24.0
138.76039	24.0
208.6649	24.0
190.71973	24.0
197.52371	24.0
187.53741	24.0
156.25766	24.0
203.63841	24.0
199.25473	24.0
187.66887	24.0
205.90013	24.0
199.89388	24.0
202.69623	24.0
187.82721	24.0
159.10434	24.0
191.68791	24.0
158.73892	24.0
158.29877	24.0
201.57545	24.0
191.87099	24.0
158.55145	24.0
187.22374	24.0
192.00937	24.0
205.98022	24.0
194.80119	24.0
189.79446	24.0
207.8862	24.0
189.85384	24.0
186.3645	24.0
193.82927	24.0
207.3627	24.0
190.07924	24.0
187.11389	24.0
190.21426	24.0
185.71535	24.0
192.96449	24.0
192.54303	23.0
192.42346	23.0
216.35338	23.0
185.35654	23.0
193.39868	23.0
193.35783	23.0
169.06313	23.0
192.12608	23.0
200.29144	23.0
195.92494	23.0
164.0723	23.0
200.1972	23.0
200.1501	23.0
197.02443	23.0
193.93562	23.0
200.13071	23.0
194.1416	23.0
217.71815	23.0
159.22789	23.0
284.94437	23.0
195.56735	23.0
193.14954	23.0
199.13449	23.0
189.33604	23.0
194.97072	23.0
192.67757	23.0
199.00185	23.0
194.8217	23.0
187.4516	23.0
218.66127	23.0
158.60201	23.0
188.88358	23.0
200.83369	23.0
138.15199	23.0
205.60094	23.0
136.1062	23.0
205.7807	23.0
255.77219	23.0
190.5372	23.0
188.55397	23.0
297.5108	23.0
209.81371	23.0
288.86722	23.0
209.76405	23.0
97.06023	23.0
70.32161	23.0
209.58255	23.0
190.00769	23.0
189.89296	23.0
268.11307	23.0
60.41449	23.0
208.96349	23.0
211.31143	23.0
188.54187	23.0
288.20517	23.0
156.51237	23.0
187.75876	23.0
193.51854	23.0
158.05983	23.0
202.18628	23.0
191.66893	23.0
202.45372	23.0
287.12558	23.0
157.2213	23.0
187.94801	23.0
254.28807	23.0
203.06168	23.0
203.46936	23.0
147.04295	23.0
204.30414	23.0
190.80629	23.0
287.90933	23.0
158.21254	23.0
192.3148	22.0
269.71893	22.0
191.05933	22.0
187.0603	22.0
191.35724	22.0
189.07338	22.0
192.3868	22.0
186.76845	22.0
187.42613	22.0
208.68329	22.0
202.3353	22.0
143.60417	22.0
201.68808	22.0
157.39816	22.0
287.11563	22.0
203.31992	22.0
287.45258	22.0
146.52922	22.0
204.78453	22.0
292.36795	22.0
200.79622	22.0
113.02386	22.0
206.85675	22.0
206.95255	22.0
60.96224	22.0
207.32462	22.0
207.73091	22.0
209.10081	22.0
158.38379	22.0
189.38052	22.0
158.67354	22.0
165.58728	22.0
199.31418	22.0
186.15466	22.0
198.26347	22.0
198.10493	22.0
196.4393	22.0
160.27005	22.0
162.07271	22.0
58.36563	21.0
60.46626	21.0
284.92783	21.0
185.61394	21.0
185.19392	21.0
185.05002	21.0
299.12607	21.0
129.56615	21.0
292.43494	21.0
158.77594	21.0
187.50256	21.0
159.47266	21.0
287.74152	21.0
156.92674	21.0
159.42813	21.0
159.31564	21.0
186.48349	21.0
158.0069	21.0
284.64359	21.0
191.99716	21.0
189.37244	21.0
202.76176	21.0
194.42006	21.0
224.46989	21.0
196.20879	21.0
196.79494	21.0
223.0139	21.0
222.34024	21.0
199.40405	21.0
215.95026	21.0
215.15807	21.0
202.65581	21.0
213.57947	21.0
192.92096	21.0
204.52396	21.0
211.82137	21.0
204.65701	21.0
204.9373	21.0
210.59032	21.0
210.36584	21.0
205.9985	21.0
206.23047	21.0
206.40068	21.0
208.12064	21.0
193.57031	21.0
198.61386	21.0
192.80809	21.0
246.65695	21.0
192.36777	21.0
191.27867	21.0
190.23183	21.0
191.22179	21.0
266.16199	21.0
192.89648	21.0
215.49144	20.0
201.30026	20.0
193.27885	20.0
188.32411	20.0
201.11551	20.0
191.45071	20.0
157.14517	20.0
202.9124	20.0
203.6454	20.0
203.68593	20.0
186.90498	20.0
288.0672	20.0
255.63281	20.0
216.78427	20.0
211.51932	20.0
190.46016	20.0
141.06894	20.0
205.41983	20.0
205.73996	20.0
190.32773	20.0
210.07336	20.0
300.83572	20.0
209.59248	20.0
306.11044	20.0
208.98047	20.0
216.64301	20.0
201.74232	20.0
200.23877	20.0
192.59467	20.0
193.60301	20.0
193.79654	20.0
185.90758	20.0
283.20801	20.0
223.99039	20.0
223.86729	20.0
184.82895	20.0
184.09877	20.0
183.78134	20.0
196.73862	20.0
181.22281	20.0
179.10527	20.0
192.78905	20.0
200.40926	20.0
197.6834	20.0
218.26613	20.0
196.84027	20.0
189.1434	20.0
220.59581	20.0
159.75349	20.0
228.6797	19.0
190.06303	19.0
188.82838	19.0
192.15866	19.0
205.02283	19.0
144.42563	19.0
158.69081	19.0
202.05263	19.0
173.65096	19.0
231.02249	19.0
231.77327	19.0
188.90645	19.0
64.98561	18.0
209.45073	18.0
209.08524	18.0
58.06601	18.0
188.1978	18.0
204.7565	18.0
197.35858	18.0
213.84001	18.0
203.39394	18.0
127.03935	18.0
210.09891	17.0
195.67145	17.0
213.25615	17.0
239.61783	17.0
277.08621	17.0
170.05649	17.0
58.82514	16.0
71.92293	15.0
328.10037	15.0

MSID: 8896
ID: 460
RETENTIONTIME: 31.35477
PRECURSORMZ: 373.2015
AREA: 51844192.0
PRECURSORTYPE: [M-H]-
SMILES: [H][C@@]12C[C@@H](OC(C)=O)C3=C(C(=O)C(O)=C(C(C)C)C3=O)[C@@]1(C)CCCC2(C)C
NAME: 7-acetylhorminone
FORMULA: C22H30O5
INCHIKEY: XDBVTCDGDQLEKG-QLEMLULZSA-N
CAS: nan
Molecular Weight: 374.477
Number of References: 33
Class: Abietane diterpenoids
Superclass: Diterpenoids
Pathway: Terpenoids
ppm: 5.6843418860808015e-11
CMID: CM243
IONMODE: Negative
COLLISIONENERGY: 40±20eV
INSTRUMENTTYPE: AB SCIEX
INSTRUMENT: Q-TOF
Comment:  
Num Peaks: 840
283.1713	347872.0
313.18011	107229.0
373.20328	99245.0
267.13861	81623.0
59.01371	81029.0
331.19174	42748.0
201.09157	24633.0
301.18015	17595.0
281.1546	10373.0
268.1463	6047.0
227.10788	3941.0
253.12094	3086.0
214.09894	1268.0
282.1637	1173.0
252.11391	1066.0
228.114	809.0
215.10744	683.0
240.11337	664.0
164.08331	636.0
265.12091	630.0
213.09137	594.0
241.12201	539.0
186.06752	521.0
200.08189	520.0
239.10686	442.0
225.09058	426.0
202.09824	423.0
187.07474	394.0
242.13277	393.0
251.10735	344.0
255.13943	342.0
265.15759	340.0
299.16623	322.0
343.19073	287.0
212.08191	248.0
203.106	239.0
79.05505	226.0
266.12961	225.0
285.18362	222.0
177.09111	211.0
226.0981	211.0
188.08333	210.0
165.09215	199.0
217.12289	198.0
282.23608	190.0
199.07475	177.0
184.08917	173.0
249.12653	172.0
237.09111	144.0
254.13153	141.0
238.09792	139.0
282.20154	135.0
265.13846	131.0
243.13953	127.0
191.10638	123.0
222.10338	119.0
239.17802	114.0
216.11543	109.0
311.16269	107.0
228.1066	104.0
209.09764	99.0
158.03618	97.0
229.12085	96.0
223.1086	92.0
58.82579	91.0
257.15182	90.0
264.15076	87.0
250.13531	86.0
210.06734	86.0
199.11067	85.0
223.14809	85.0
295.17047	83.0
190.09782	79.0
255.17542	78.0
251.14304	74.0
211.07912	72.0
266.25903	70.0
207.39619	69.0
329.17209	69.0
224.07944	68.0
312.14807	65.0
231.10399	64.0
151.07533	63.0
279.1369	62.0
185.09634	60.0
286.15686	59.0
172.05162	59.0
185.05904	58.0
172.0876	57.0
266.24783	54.0
371.98029	53.0
209.06224	52.0
371.96329	51.0
176.08519	51.0
281.1907	51.0
198.06601	50.0
371.99918	50.0
284.17081	48.0
237.16801	48.0
189.09058	48.0
193.89439	47.0
253.10379	47.0
60.01697	47.0
187.36549	46.0
245.20222	46.0
235.10791	45.0
284.04205	45.0
205.12346	45.0
229.08824	45.0
312.11694	45.0
212.62132	45.0
284.26987	43.0
189.44086	42.0
163.07382	42.0
283.95459	41.0
187.05733	41.0
200.12068	40.0
282.27719	40.0
192.55357	40.0
331.22382	40.0
285.14725	39.0
190.51932	39.0
213.97859	39.0
190.13293	39.0
237.46219	39.0
284.6167	38.0
221.09315	38.0
263.14267	38.0
211.146	38.0
186.3535	37.0
207.90562	37.0
215.09019	37.0
197.09558	37.0
189.3802	37.0
268.11423	37.0
248.11824	37.0
284.10147	37.0
202.36839	37.0
211.77399	36.0
189.33978	36.0
251.09648	36.0
221.13538	36.0
205.25111	35.0
284.46472	35.0
150.06357	35.0
191.147	35.0
212.12042	35.0
284.14108	35.0
207.97058	35.0
258.75607	35.0
283.75165	35.0
193.72807	35.0
196.69298	34.0
192.65414	34.0
208.06804	34.0
191.39621	34.0
251.81546	34.0
183.11786	34.0
185.23227	34.0
236.12254	34.0
258.08389	34.0
213.63493	34.0
197.0571	33.0
204.28421	33.0
198.58179	33.0
205.71153	33.0
206.21748	33.0
206.79445	33.0
215.22954	33.0
207.32005	33.0
214.12186	33.0
208.0412	33.0
210.65962	33.0
187.72223	33.0
208.2941	33.0
192.8744	33.0
223.06764	33.0
202.61783	32.0
197.27847	32.0
284.30453	32.0
252.0937	32.0
190.76404	32.0
228.8067	32.0
200.79034	32.0
226.96918	32.0
225.70807	32.0
184.90054	32.0
206.65083	32.0
188.44073	31.0
207.69246	31.0
195.2645	31.0
214.07315	31.0
188.28886	31.0
207.07901	31.0
204.16385	31.0
245.15469	31.0
330.07706	31.0
205.67783	31.0
283.94302	31.0
216.14854	31.0
285.34903	31.0
205.15431	31.0
187.40437	31.0
191.97513	31.0
195.5999	31.0
209.98929	30.0
283.78299	30.0
255.11909	30.0
266.91617	30.0
194.19859	30.0
281.09384	30.0
222.45232	30.0
196.1248	30.0
250.09814	30.0
197.34863	30.0
239.24619	30.0
198.1046	30.0
205.65677	30.0
233.48306	30.0
200.44498	30.0
191.45175	30.0
223.96657	30.0
209.18262	30.0
208.60657	30.0
157.7261	30.0
191.35014	30.0
187.843	30.0
190.58014	29.0
280.6622	29.0
156.68246	29.0
193.07301	29.0
193.92577	29.0
175.07695	29.0
171.07808	29.0
208.19377	29.0
202.06064	29.0
314.34576	29.0
315.21274	29.0
211.10046	29.0
211.80962	29.0
283.83249	29.0
196.08777	29.0
205.88855	29.0
212.91701	29.0
243.39	29.0
58.81603	29.0
284.68277	29.0
196.73006	29.0
200.14146	29.0
284.39041	29.0
209.3271	28.0
188.49719	28.0
282.88135	28.0
187.27034	28.0
191.49783	28.0
210.3087	28.0
219.22603	28.0
330.1073	28.0
264.32745	28.0
209.59639	27.0
282.91263	27.0
158.49324	27.0
284.0701	27.0
245.11177	27.0
372.08984	27.0
189.62286	27.0
158.3096	27.0
284.85794	27.0
190.11807	27.0
237.90001	27.0
198.2011	27.0
266.05133	27.0
203.13112	27.0
173.06271	27.0
247.7713	27.0
226.19972	27.0
189.26567	27.0
222.5648	27.0
303.18887	27.0
208.01436	27.0
225.51538	27.0
230.28593	27.0
191.07526	27.0
221.64973	27.0
261.2731	26.0
203.37823	26.0
268.05331	26.0
267.78082	26.0
268.66452	26.0
200.75566	26.0
202.74889	26.0
234.82571	26.0
247.36452	26.0
245.98337	26.0
218.0546	26.0
214.01871	26.0
213.90411	26.0
212.82843	26.0
212.35582	26.0
219.75122	26.0
211.39793	26.0
221.26938	26.0
210.88852	26.0
184.05463	26.0
222.18365	26.0
210.57719	26.0
209.62474	26.0
226.38091	26.0
228.46466	26.0
208.14008	26.0
269.14786	26.0
207.50198	26.0
236.89061	26.0
207.02687	26.0
206.53542	26.0
206.10359	26.0
244.52646	26.0
189.67815	26.0
249.24866	26.0
269.25552	26.0
367.36926	26.0
284.52087	26.0
190.33958	26.0
285.41687	26.0
193.53458	26.0
299.18488	26.0
298.55847	26.0
284.29791	26.0
298.15927	26.0
284.8067	26.0
198.47969	26.0
297.14728	26.0
276.19479	26.0
194.14265	26.0
291.45563	26.0
196.03429	26.0
289.23636	26.0
285.01828	26.0
372.74561	26.0
199.23782	26.0
287.2114	26.0
273.5387	26.0
288.63544	26.0
189.75774	26.0
285.28784	26.0
285.81738	25.0
188.11824	25.0
236.80168	25.0
181.09862	25.0
301.14276	25.0
285.56577	25.0
207.84067	25.0
208.7735	25.0
178.50002	25.0
208.91219	25.0
227.1433	25.0
208.65466	25.0
208.55989	25.0
190.96428	25.0
187.81616	25.0
224.09116	25.0
228.89856	25.0
193.33708	25.0
193.13017	25.0
183.17618	25.0
186.4404	25.0
212.24167	25.0
192.07962	25.0
186.74138	25.0
213.42172	25.0
218.59576	25.0
218.2137	25.0
191.69167	25.0
183.40157	25.0
186.38158	25.0
186.22385	25.0
191.66591	25.0
214.43005	25.0
214.85185	25.0
216.33286	25.0
192.09184	25.0
220.54164	25.0
192.13527	25.0
186.92743	25.0
221.18636	25.0
328.70676	25.0
186.94484	25.0
186.99571	25.0
192.48564	25.0
222.08441	25.0
313.72104	25.0
303.9191	25.0
193.09343	25.0
222.38368	25.0
191.54662	25.0
222.74161	25.0
193.24315	25.0
188.21361	25.0
169.0654	25.0
237.05341	25.0
205.18097	25.0
204.91454	25.0
284.3772	25.0
204.64688	25.0
246.09705	25.0
197.03098	25.0
158.78186	25.0
195.33702	25.0
189.20909	25.0
250.01918	25.0
203.70515	25.0
119.23672	25.0
283.90674	25.0
282.96536	25.0
190.00197	25.0
157.06146	25.0
198.25763	25.0
189.7955	25.0
201.82825	25.0
149.06236	25.0
198.70877	25.0
264.53287	25.0
274.29233	25.0
139.94971	25.0
200.65437	25.0
199.04988	25.0
271.77454	25.0
200.27725	25.0
199.38298	25.0
269.67026	25.0
189.0071	25.0
189.03671	25.0
215.4149	25.0
159.39821	25.0
240.89246	25.0
165.02547	25.0
241.62408	25.0
205.98692	25.0
167.05325	25.0
188.5994	25.0
242.95937	25.0
243.11967	25.0
195.38631	25.0
168.18161	25.0
206.9832	25.0
205.44336	25.0
243.60699	25.0
190.62611	25.0
206.96629	25.0
196.15497	25.0
217.56465	24.0
218.61603	24.0
60.39156	24.0
59.77596	24.0
219.27098	24.0
262.12857	24.0
162.28195	24.0
147.11516	24.0
233.70906	24.0
164.31546	24.0
287.79587	24.0
216.46107	24.0
185.11234	24.0
268.83627	24.0
261.46307	24.0
245.0719	24.0
261.1275	24.0
314.08713	24.0
181.01956	24.0
70.03519	24.0
224.96425	24.0
224.23192	24.0
222.7796	24.0
178.09335	24.0
185.63231	24.0
177.168	24.0
242.08553	24.0
323.07101	24.0
260.3353	24.0
162.0712	24.0
326.41333	24.0
276.55948	24.0
241.01102	24.0
156.95839	24.0
296.96329	24.0
244.77612	24.0
184.51991	24.0
184.77141	24.0
256.14462	24.0
183.83681	24.0
200.42972	24.0
204.88791	24.0
205.37178	24.0
212.07478	24.0
208.3351	24.0
188.84019	24.0
210.77191	24.0
194.56586	24.0
192.18007	24.0
210.52461	24.0
194.46889	24.0
210.34846	24.0
188.69757	24.0
189.69704	24.0
192.24524	24.0
192.31314	24.0
190.88309	24.0
187.25291	24.0
194.09898	24.0
206.89726	24.0
209.53117	24.0
187.75577	24.0
197.68857	24.0
208.73247	24.0
193.04445	24.0
197.79874	24.0
192.92609	24.0
202.97623	24.0
215.61186	24.0
186.1557	24.0
196.79736	24.0
203.22464	24.0
213.68361	24.0
186.51128	24.0
190.66803	24.0
201.34578	24.0
185.67635	24.0
189.46512	24.0
200.49628	23.0
156.37984	23.0
202.65686	23.0
237.36713	23.0
261.98907	23.0
193.77306	23.0
187.56125	23.0
268.40775	23.0
260.03992	23.0
208.30965	23.0
202.80606	23.0
187.88998	23.0
155.81825	23.0
267.83371	23.0
247.20436	23.0
206.6255	23.0
253.62129	23.0
245.47986	23.0
205.06737	23.0
286.27448	23.0
244.20499	23.0
204.49141	23.0
248.13983	23.0
205.47705	23.0
285.10593	23.0
201.6516	23.0
190.73024	23.0
284.11798	23.0
241.25584	23.0
118.36682	23.0
157.22104	23.0
245.74384	23.0
287.42883	23.0
259.29666	23.0
186.90199	23.0
178.67931	23.0
314.82687	23.0
210.32289	23.0
199.00015	23.0
210.90842	23.0
276.47479	23.0
198.64528	23.0
192.32401	23.0
213.77237	23.0
198.08669	23.0
214.39134	23.0
220.08087	23.0
335.94202	23.0
192.42587	23.0
217.504	23.0
217.44768	23.0
211.509	23.0
56.29542	23.0
192.02263	23.0
199.56416	23.0
191.72827	23.0
227.91585	23.0
191.77844	23.0
189.86162	23.0
357.30173	23.0
183.6178	23.0
220.22327	22.0
204.57124	22.0
198.12253	22.0
245.66708	22.0
191.3786	22.0
331.9353	22.0
194.84189	22.0
264.49942	22.0
213.12854	22.0
248.77888	22.0
201.52368	22.0
259.1658	22.0
258.89471	22.0
152.61993	22.0
189.33035	22.0
57.03553	22.0
201.75868	22.0
217.70479	22.0
218.88832	22.0
219.08105	22.0
158.20612	22.0
159.03122	22.0
158.32932	22.0
195.51636	22.0
285.49628	22.0
204.10928	22.0
189.52847	22.0
208.46939	22.0
284.33096	22.0
199.44522	22.0
297.65729	22.0
271.14047	22.0
237.13031	22.0
190.3031	22.0
207.19176	22.0
187.38025	22.0
187.97321	22.0
139.20464	22.0
209.90273	22.0
199.79941	22.0
232.51294	22.0
231.07867	22.0
227.70448	22.0
230.09427	22.0
177.07938	22.0
208.48778	22.0
238.31706	22.0
224.68085	22.0
273.86597	22.0
206.16545	22.0
188.91422	22.0
194.77492	22.0
243.68343	22.0
205.40686	22.0
198.90759	22.0
210.22066	22.0
223.00621	22.0
215.87364	22.0
194.37195	22.0
271.28561	22.0
206.37219	22.0
266.15997	21.0
140.55624	21.0
266.30377	21.0
197.13545	21.0
280.14401	21.0
196.86469	21.0
199.85063	21.0
277.99771	21.0
189.64983	21.0
274.92197	21.0
197.22896	21.0
206.06142	21.0
153.65727	21.0
188.32379	21.0
302.23474	21.0
229.17719	21.0
310.51178	21.0
187.51431	21.0
209.71266	21.0
181.86244	21.0
192.19908	21.0
210.47488	21.0
187.12965	21.0
61.0853	21.0
60.08678	21.0
212.10474	21.0
220.03003	21.0
219.84705	21.0
186.84175	21.0
218.41193	21.0
59.67606	21.0
358.08145	21.0
59.28861	21.0
193.29897	21.0
193.47327	21.0
159.10161	21.0
281.94003	21.0
257.68286	21.0
257.18323	21.0
256.20419	21.0
156.97679	21.0
157.68921	21.0
157.9968	21.0
204.31779	21.0
158.88058	21.0
247.45386	21.0
245.23444	21.0
136.02031	21.0
241.0992	21.0
162.8788	21.0
206.72545	21.0
288.29114	20.0
193.65448	20.0
196.89903	20.0
286.9509	20.0
191.26752	20.0
61.90622	20.0
312.18961	20.0
81.03332	20.0
302.82578	20.0
191.04819	20.0
196.45956	20.0
197.31561	20.0
201.88251	20.0
223.72043	20.0
202.90089	20.0
187.18324	20.0
265.23892	20.0
167.40402	20.0
148.49141	20.0
240.52629	20.0
225.83607	20.0
208.98013	20.0
189.41121	20.0
208.96031	20.0
210.61414	20.0
208.4086	20.0
233.41872	20.0
169.38133	20.0
247.90233	20.0
247.5771	20.0
243.73692	20.0
205.53741	20.0
188.77158	20.0
200.8403	20.0
206.91277	20.0
211.02791	20.0
220.30611	20.0
185.95132	20.0
219.47984	20.0
217.95628	20.0
220.81512	20.0
185.54694	20.0
221.06403	20.0
191.76488	19.0
135.08653	19.0
190.79381	19.0
185.93398	19.0
287.40561	19.0
188.87384	19.0
204.52922	19.0
301.11725	19.0
282.75949	19.0
194.98134	19.0
217.25711	19.0
230.5089	19.0
275.3443	19.0
203.51653	19.0
210.144	19.0
206.1781	19.0
293.97882	19.0
208.84	19.0
126.07959	19.0
217.3596	19.0
217.38271	19.0
339.1463	19.0
186.62631	19.0
192.01041	19.0
181.70796	19.0
168.78539	18.0
172.87854	18.0
191.87338	18.0
188.54559	18.0
54.54945	18.0
189.59859	18.0
289.99463	18.0
194.73938	18.0
197.40916	18.0
157.83681	18.0
195.56429	18.0
267.65903	18.0
206.35532	17.0
209.20528	17.0
125.33628	17.0
203.36707	17.0
207.49211	17.0
232.90135	17.0
161.9453	17.0
307.8291	16.0
64.86241	16.0
62.61866	16.0
203.91347	16.0
321.12369	16.0
137.51254	16.0
353.09012	16.0
318.76077	15.0
66.22125	15.0
76.38064	15.0
83.04941	14.0
355.27585	13.0
347.05295	13.0
351.25974	13.0
348.37683	13.0
344.87631	13.0
123.50121	13.0
370.1637	13.0
358.94553	13.0
361.5607	13.0
363.28888	13.0
365.34866	13.0
368.31207	13.0
136.19626	13.0
128.7735	13.0
130.03117	13.0
131.01009	13.0
132.14124	13.0
343.60446	13.0
116.79103	13.0
341.33917	13.0
339.55579	13.0
170.07536	13.0
100.72739	13.0
104.87548	13.0
107.05082	13.0
305.21283	13.0
108.01146	13.0
151.30412	13.0
110.34026	13.0
145.55502	13.0
111.43539	13.0
323.90408	13.0
324.94476	13.0
113.38522	13.0
114.4901	13.0
144.022	13.0
142.64561	13.0
140.74323	13.0
120.5868	13.0
121.73261	13.0
133.41295	13.0

MSID: 8897
ID: 90
RETENTIONTIME: 14.70097
PRECURSORMZ: 359.0765
AREA: 46312072.0
PRECURSORTYPE: [M-H]-
SMILES: OC(=O)C(CC1=CC=C(O)C(O)=C1)OC(=O)\C=C\C1=CC(O)=C(O)C=C1
NAME: rosmarinic acid
FORMULA: C18H16O8
INCHIKEY: DOUMFZQKYFQNTF-ZZXKWVIFSA-N
CAS: 179462-74-9
Molecular Weight: 360.32
Number of References: 8277
Class: Cinnamic acids and derivatives
Superclass: Phenylpropanoids (C6-C3)
Pathway: Shikimates and Phenylpropanoids
ppm: -0.19499999996241968
CMID: CM243
IONMODE: Negative
COLLISIONENERGY: 40±20eV
INSTRUMENTTYPE: AB SCIEX
INSTRUMENT: Q-TOF
Comment:  
Num Peaks: 378
161.02472	225858.0
133.03001	73846.0
135.04581	57488.0
197.04645	51414.0
179.03453	41421.0
72.99241	35241.0
123.04586	17917.0
132.02106	10142.0
134.03716	7045.0
359.07602	5428.0
151.03949	1433.0
109.02975	888.0
105.03418	887.0
107.05202	849.0
77.03948	739.0
122.03879	481.0
79.05519	455.0
117.03477	408.0
89.0403	361.0
153.05603	353.0
160.01726	351.0
115.02006	348.0
91.05398	282.0
104.02697	238.0
223.02415	233.0
150.03024	231.0
95.04861	218.0
93.03349	199.0
160.49826	153.0
108.01979	136.0
81.03522	123.0
106.04221	112.0
95.0152	89.0
65.00299	87.0
74.00237	85.0
160.48958	82.0
135.03215	72.0
56.99939	64.0
134.01561	61.0
51.02322	61.0
132.59665	56.0
53.0384	50.0
134.60236	49.0
123.02522	46.0
205.01303	45.0
105.02314	45.0
107.01453	45.0
121.02615	44.0
89.00056	44.0
196.39815	42.0
125.06147	41.0
178.448	40.0
179.01488	39.0
134.59212	39.0
72.75416	39.0
133.01421	38.0
117.02841	36.0
151.02264	35.0
132.0098	35.0
67.05434	35.0
193.05159	34.0
162.02785	34.0
108.01572	33.0
131.01704	33.0
100.98621	33.0
149.02437	33.0
315.08292	33.0
110.03823	32.0
196.38443	32.0
134.62166	32.0
79.01863	32.0
112.233	32.0
161.80356	31.0
107.03075	31.0
297.08197	31.0
160.47717	31.0
162.68793	30.0
109.01952	30.0
134.5569	29.0
161.66158	29.0
341.06845	29.0
113.28535	29.0
113.08948	29.0
137.02516	29.0
110.26126	29.0
104.02097	28.0
123.01979	28.0
134.07002	28.0
73.96362	28.0
149.06143	28.0
133.61685	28.0
112.88754	27.0
80.0255	27.0
121.60645	27.0
162.06151	27.0
110.776	27.0
119.40488	27.0
161.93687	27.0
75.00908	27.0
103.02162	27.0
178.43884	26.0
89.08836	26.0
89.8776	26.0
161.6317	26.0
74.53403	26.0
111.14942	26.0
213.05316	26.0
69.03336	26.0
91.01847	26.0
88.77991	26.0
108.20511	25.0
97.34892	25.0
134.73758	25.0
112.80119	25.0
118.0955	25.0
99.86943	25.0
108.80286	25.0
73.59519	25.0
105.01712	25.0
117.51624	25.0
136.66089	25.0
117.44405	25.0
159.99496	25.0
162.46318	25.0
135.75914	25.0
133.84789	25.0
112.07951	25.0
136.05254	25.0
74.80143	25.0
110.95954	25.0
161.56198	25.0
128.79594	25.0
105.04522	25.0
113.54294	24.0
87.00894	24.0
115.0043	24.0
140.66333	24.0
59.01758	24.0
73.25535	24.0
90.5827	24.0
137.36009	24.0
60.70256	24.0
89.92867	24.0
90.73841	24.0
162.33713	24.0
91.03996	24.0
133.92154	24.0
91.56303	24.0
92.05188	24.0
161.77989	24.0
161.61551	24.0
93.91304	24.0
89.66235	24.0
89.69944	24.0
126.59054	24.0
74.47655	24.0
158.5379	24.0
152.71822	24.0
162.76663	24.0
133.71875	24.0
74.40812	24.0
126.70405	23.0
117.39842	23.0
115.79855	23.0
75.02265	23.0
71.01477	23.0
131.31987	23.0
76.0559	23.0
88.48028	23.0
134.57622	23.0
90.42059	23.0
143.01335	23.0
89.97139	23.0
73.41133	23.0
163.03535	23.0
89.63174	23.0
67.49047	23.0
90.25864	23.0
96.92039	23.0
159.5976	23.0
65.03616	23.0
93.66173	23.0
90.00669	23.0
110.12146	23.0
110.85023	23.0
59.77152	23.0
112.51121	23.0
162.73164	23.0
225.1042	22.0
73.51877	22.0
95.98654	22.0
93.98328	22.0
123.95566	22.0
102.67503	22.0
196.29935	22.0
132.38586	22.0
89.52886	22.0
357.89496	22.0
117.86362	22.0
108.74158	22.0
108.96942	22.0
89.35661	22.0
72.74998	22.0
189.49646	22.0
116.38837	22.0
109.70566	22.0
186.99471	22.0
89.19838	22.0
161.7114	22.0
161.99669	21.0
135.78195	21.0
179.4344	21.0
163.51585	21.0
137.80807	21.0
165.81041	21.0
72.16065	21.0
118.88432	21.0
72.02762	21.0
111.04517	21.0
93.18846	21.0
94.60233	21.0
90.63583	21.0
95.13742	21.0
96.29188	21.0
97.64481	21.0
89.39456	21.0
88.63602	21.0
106.03313	21.0
81.81638	21.0
109.2497	21.0
109.6349	21.0
88.76791	21.0
118.97189	21.0
74.64822	21.0
113.0041	20.0
90.91199	20.0
71.25429	20.0
73.85586	20.0
95.84077	20.0
72.30214	20.0
99.19727	20.0
99.54381	20.0
99.63274	20.0
161.88329	20.0
161.821	20.0
79.04214	20.0
75.41333	20.0
74.71253	20.0
138.07835	20.0
136.80974	20.0
73.33332	20.0
91.09697	19.0
231.12822	19.0
74.10939	19.0
359.03522	19.0
90.80745	19.0
93.45618	19.0
233.29945	19.0
130.24588	19.0
72.25968	19.0
163.29678	19.0
117.94762	19.0
88.09566	19.0
119.06804	19.0
167.31691	19.0
75.79991	19.0
99.12705	19.0
104.68421	19.0
89.55296	18.0
89.74303	18.0
132.72861	18.0
88.91467	18.0
74.349	18.0
183.52922	18.0
88.82236	18.0
74.51205	18.0
152.39647	18.0
73.22853	18.0
93.28113	18.0
113.33121	18.0
135.29515	18.0
135.57436	18.0
74.27809	17.0
67.01184	17.0
147.15224	17.0
184.95415	17.0
144.22682	17.0
88.54108	17.0
142.6985	17.0
106.50458	17.0
92.72865	17.0
74.16926	17.0
63.49358	17.0
113.70473	17.0
60.31483	17.0
120.33765	17.0
71.72127	17.0
98.36996	16.0
75.22296	16.0
112.56522	16.0
89.24741	16.0
88.98486	16.0
90.95496	16.0
90.34053	16.0
90.09869	16.0
89.60671	16.0
95.36776	16.0
84.46647	15.0
92.8494	15.0
55.01995	15.0
82.22256	15.0
239.25873	15.0
194.00793	13.0
249.03424	13.0
252.922	13.0
255.03978	13.0
256.38965	13.0
258.99603	13.0
261.48572	13.0
263.94595	13.0
267.06384	13.0
271.09741	13.0
272.80923	13.0
274.57022	13.0
277.72559	13.0
282.02603	13.0
285.07501	13.0
293.45068	13.0
294.03476	13.0
296.54883	13.0
144.76125	13.0
301.16537	13.0
304.01184	13.0
305.63266	13.0
314.34457	13.0
185.45123	13.0
325.64297	13.0
332.28745	13.0
338.0639	13.0
175.69588	13.0
356.77686	13.0
177.24261	13.0
181.74393	13.0
171.20905	13.0
250.00568	13.0
247.11089	13.0
245.83025	13.0
172.31149	13.0
190.81984	13.0
140.97592	13.0
198.75053	13.0
200.03377	13.0
201.09055	13.0
202.59589	13.0
204.02431	13.0
169.9084	13.0
205.98447	13.0
207.233	13.0
209.05412	13.0
168.18573	13.0
153.54224	13.0
216.36781	13.0
219.02057	13.0
243.10025	13.0
241.52405	13.0
180.68011	13.0
236.61076	13.0
234.60858	13.0
187.43822	13.0
213.86581	13.0
155.9628	13.0
227.06844	13.0
154.82996	13.0
173.95694	13.0
221.46501	13.0
220.37918	13.0
339.79645	12.0
329.62411	12.0

MSID: 8898
ID: 427
RETENTIONTIME: 30.9234
PRECURSORMZ: 343.1551
AREA: 45485684.0
PRECURSORTYPE: [M-H]-
SMILES: [H][C@@]12[C@@H]3OC(=O)[C@@]1(CCCC2(C)C)C1=C(C=C(C(C)C)C(O)=C1O)C3=O
NAME: galdosol
FORMULA: C20H24O5
INCHIKEY: SWVDNEGGBBYXGS-UWVAXJGDSA-N
CAS: 52591-18-1
Molecular Weight: 344.408
Number of References: 12
Class: Abietane diterpenoids
Superclass: Diterpenoids
Pathway: Terpenoids
ppm: 0.550000000032469
CMID: CM243
IONMODE: Negative
COLLISIONENERGY: 40±20eV
INSTRUMENTTYPE: AB SCIEX
INSTRUMENT: Q-TOF
Comment:  
Num Peaks: 1328
343.16055	333187.0
299.16513	307287.0
243.10336	93506.0
216.07986	51845.0
256.11066	29538.0
283.13232	24627.0
242.09515	24425.0
228.07895	23888.0
227.07144	20910.0
284.14166	18185.0
213.05606	18016.0
230.09473	10797.0
214.06354	10421.0
297.14954	9541.0
200.04767	7679.0
215.07053	7310.0
271.17004	7161.0
241.08752	7136.0
269.11789	5347.0
257.11777	4494.0
229.0872	4230.0
255.1024	3678.0
201.05588	3467.0
281.1535	3120.0
258.12531	2572.0
231.10147	2457.0
199.0406	2431.0
281.11902	2036.0
185.02344	1882.0
298.15649	1543.0
281.13217	1475.0
187.04028	1469.0
212.12085	1437.0
217.08725	1277.0
212.04811	1237.0
203.07152	1125.0
265.12305	1025.0
240.07895	1022.0
282.16095	1022.0
267.10233	990.0
225.09102	955.0
185.0594	919.0
156.05824	917.0
201.0892	860.0
266.13174	855.0
253.15883	810.0
188.04744	805.0
226.09856	770.0
315.15948	750.0
173.02313	658.0
182.0385	645.0
172.05197	633.0
255.17592	564.0
200.08229	531.0
226.06174	524.0
187.07645	520.0
282.12643	517.0
197.09598	505.0
211.0397	467.0
185.03943	467.0
268.10995	464.0
239.07251	455.0
215.10643	444.0
171.04384	443.0
184.05367	433.0
255.13838	420.0
254.093	389.0
200.03935	378.0
186.0679	376.0
209.06125	331.0
251.11095	327.0
157.06422	326.0
211.07669	325.0
253.0856	318.0
199.11383	318.0
267.13593	309.0
224.08281	289.0
199.07652	287.0
342.02228	286.0
282.14288	286.0
342.03314	285.0
174.03191	275.0
239.10884	270.0
280.14621	263.0
210.06776	261.0
198.06917	254.0
238.0999	253.0
287.1655	245.0
254.13046	244.0
158.0365	243.0
186.03183	243.0
238.13768	237.0
342.00598	231.0
240.15179	229.0
159.04512	223.0
196.08952	220.0
239.14217	218.0
188.08369	218.0
237.09007	215.0
183.0798	205.0
198.03195	203.0
225.05283	198.0
183.04535	194.0
237.12776	185.0
195.04463	181.0
172.08665	177.0
223.07686	175.0
145.02768	174.0
244.10907	164.0
270.1293	159.0
202.10002	158.0
169.06573	156.0
187.06172	156.0
242.08144	151.0
170.07314	149.0
211.10942	146.0
167.04852	144.0
237.16396	144.0
151.07684	143.0
184.08954	142.0
135.07884	140.0
221.13145	134.0
212.08661	131.0
269.14679	130.0
238.06665	129.0
225.12776	126.0
225.07927	119.0
171.08226	118.0
252.15329	116.0
267.12314	116.0
228.11296	116.0
279.1391	115.0
168.05753	114.0
154.0414	112.0
253.12611	111.0
256.14673	111.0
341.99512	111.0
155.04941	109.0
210.10466	109.0
230.08284	109.0
298.19199	108.0
83.04958	108.0
160.05199	107.0
250.10175	107.0
264.11627	105.0
223.1105	105.0
218.09407	101.0
266.09021	100.0
202.06105	100.0
240.11234	100.0
204.07892	98.0
212.03955	97.0
241.11337	96.0
222.06587	96.0
296.14093	95.0
225.07339	94.0
164.08363	91.0
198.05814	90.0
240.12144	90.0
178.06235	87.0
295.13403	87.0
198.105	87.0
197.05885	87.0
258.10641	85.0
143.04735	83.0
229.11983	82.0
213.09036	82.0
212.07378	82.0
259.16788	82.0
214.1008	81.0
195.08018	80.0
249.08839	80.0
173.06049	79.0
265.1055	79.0
182.07285	79.0
270.1615	78.0
181.06735	77.0
259.09695	76.0
186.10797	73.0
160.01605	72.0
219.067	72.0
196.05113	72.0
172.03398	71.0
150.07227	70.0
239.09825	69.0
206.05902	68.0
228.0612	66.0
157.0274	66.0
165.85963	65.0
163.07664	65.0
342.05307	64.0
194.07208	64.0
298.1362	63.0
327.12384	62.0
252.11597	62.0
245.12146	61.0
175.076	61.0
181.10294	60.0
280.10687	59.0
229.25917	58.0
253.14014	58.0
189.0546	57.0
199.09863	57.0
187.11395	57.0
242.29022	57.0
252.10976	55.0
239.12399	55.0
229.11241	54.0
130.04147	54.0
175.04231	53.0
226.0426	52.0
300.13644	52.0
237.14737	52.0
200.39824	51.0
251.10008	51.0
251.1451	51.0
228.47104	50.0
252.07866	50.0
229.82445	50.0
161.06203	50.0
236.08539	50.0
185.09804	49.0
226.34158	49.0
285.14618	49.0
189.09096	49.0
157.09982	49.0
265.08795	49.0
251.0706	48.0
235.07835	48.0
143.086	48.0
224.04616	48.0
207.11888	47.0
235.04231	47.0
215.12798	47.0
269.09216	46.0
213.04034	46.0
272.14169	46.0
232.07312	46.0
341.97702	46.0
227.33418	46.0
230.25369	45.0
230.34286	45.0
238.94836	45.0
227.63696	45.0
197.90244	44.0
192.07864	44.0
190.10091	44.0
188.11862	44.0
225.11453	44.0
223.51587	44.0
231.90308	44.0
235.94849	43.0
162.06778	43.0
169.02628	43.0
135.04584	43.0
159.50487	43.0
198.09949	43.0
228.67238	42.0
200.0255	42.0
229.39116	42.0
246.09293	42.0
225.8954	42.0
230.70564	42.0
198.17116	41.0
209.09947	41.0
233.07521	41.0
129.03503	41.0
282.10669	41.0
223.56857	41.0
165.16168	41.0
224.11066	41.0
149.06146	41.0
232.10445	41.0
231.04491	40.0
197.02312	40.0
241.04039	40.0
229.90907	40.0
229.33925	40.0
226.76608	40.0
272.67505	40.0
227.83351	40.0
228.26385	40.0
173.09785	40.0
146.03537	40.0
180.05676	39.0
199.38753	39.0
197.05199	39.0
145.06424	39.0
210.09756	39.0
191.08917	39.0
204.04535	39.0
239.05434	39.0
221.09651	39.0
184.08023	38.0
300.69656	38.0
298.22583	38.0
228.56282	38.0
227.1098	38.0
230.2641	38.0
205.04814	38.0
207.06955	38.0
230.12889	38.0
229.4846	38.0
228.34523	38.0
144.06108	37.0
230.58815	37.0
263.10031	37.0
229.86157	37.0
218.85544	37.0
239.87263	37.0
229.31108	37.0
240.66045	37.0
232.12534	37.0
233.63768	37.0
236.12001	37.0
240.05316	37.0
300.10254	37.0
195.06378	37.0
246.85701	37.0
241.1225	37.0
223.16463	37.0
242.31308	37.0
226.35631	37.0
230.43501	36.0
342.65463	36.0
342.82141	36.0
235.56657	36.0
222.37244	36.0
208.0529	36.0
171.13863	36.0
225.92778	36.0
175.1097	36.0
225.29529	36.0
201.0406	36.0
232.68068	36.0
258.09854	36.0
236.17418	36.0
215.37653	36.0
227.79213	36.0
236.35179	36.0
257.17746	35.0
300.76959	35.0
179.07126	35.0
300.43851	35.0
256.81638	35.0
231.01811	35.0
231.16103	35.0
141.07481	35.0
226.55525	35.0
232.87042	35.0
227.41983	35.0
251.08302	35.0
239.23303	35.0
229.61072	35.0
243.95915	35.0
225.62318	35.0
300.1738	35.0
205.32448	34.0
203.73772	34.0
225.94249	34.0
224.36729	34.0
240.90813	34.0
226.82213	34.0
245.21191	34.0
227.76257	34.0
203.11339	34.0
213.02461	34.0
342.85043	34.0
192.68715	34.0
165.07234	34.0
184.03905	34.0
247.02783	34.0
229.21173	34.0
237.05388	34.0
302.1315	34.0
315.10211	34.0
229.6879	34.0
231.33525	34.0
198.44145	34.0
167.67055	34.0
188.1804	34.0
198.66362	34.0
225.78207	34.0
165.5218	34.0
225.0396	33.0
217.44377	33.0
232.61646	33.0
225.96751	33.0
202.32004	33.0
231.6228	33.0
218.05937	33.0
267.0463	33.0
161.40523	33.0
226.75281	33.0
232.39696	33.0
216.93433	33.0
230.81424	33.0
264.10672	33.0
196.13341	33.0
151.12259	33.0
227.58673	33.0
300.98532	33.0
237.87782	33.0
244.96509	33.0
230.30867	33.0
300.18567	33.0
227.28694	33.0
224.99113	33.0
231.13571	32.0
226.15599	32.0
230.94072	32.0
238.70924	32.0
222.14177	32.0
205.10002	32.0
220.481	32.0
341.94983	32.0
218.20399	32.0
137.06532	32.0
217.05118	32.0
230.57924	32.0
216.67911	32.0
208.51364	32.0
237.99867	32.0
203.28369	32.0
224.33356	32.0
194.12529	32.0
245.75661	32.0
246.50941	32.0
173.54263	32.0
157.0495	32.0
227.56458	32.0
192.80951	32.0
173.98927	32.0
229.02348	32.0
248.56163	32.0
227.89708	32.0
252.9127	32.0
188.02461	32.0
163.9532	31.0
199.48848	31.0
224.73122	31.0
134.04057	31.0
238.26463	31.0
263.14319	31.0
209.63225	31.0
170.06548	31.0
237.90048	31.0
226.79852	31.0
230.06502	31.0
198.70088	31.0
227.38586	31.0
166.34807	31.0
198.47319	31.0
169.05682	31.0
224.95882	31.0
225.67026	31.0
226.41231	31.0
226.32243	31.0
165.47772	31.0
203.15805	31.0
230.68036	31.0
271.7525	31.0
298.11758	31.0
226.13831	31.0
229.05461	31.0
216.83626	30.0
210.62308	30.0
225.45406	30.0
198.34215	30.0
225.69527	30.0
235.30362	30.0
236.28555	30.0
220.1743	30.0
342.54587	30.0
212.5932	30.0
192.30537	30.0
191.68661	30.0
203.04082	30.0
234.8577	30.0
199.33636	30.0
225.19975	30.0
240.33545	30.0
238.61092	30.0
204.85327	30.0
205.87912	30.0
201.23503	30.0
93.03068	30.0
159.09451	30.0
256.06052	30.0
244.68622	30.0
131.04959	30.0
150.24266	30.0
226.42703	30.0
228.60428	30.0
231.86133	30.0
199.57425	30.0
224.27635	30.0
132.05708	30.0
187.4624	30.0
284.10205	30.0
224.17664	29.0
205.63611	29.0
246.63243	29.0
230.50192	29.0
246.70317	29.0
204.52963	29.0
195.48526	29.0
236.80518	29.0
226.62897	29.0
223.35924	29.0
229.29329	29.0
259.61264	29.0
183.1169	29.0
225.52759	29.0
177.05496	29.0
234.20232	29.0
245.71976	29.0
232.43129	29.0
300.53357	29.0
267.80859	29.0
166.62857	29.0
208.13484	29.0
286.18393	29.0
207.43752	29.0
328.12888	29.0
233.60924	29.0
197.83218	29.0
201.32533	29.0
228.4518	28.0
224.32036	28.0
169.0912	28.0
342.91751	28.0
232.16412	28.0
250.13892	28.0
258.61957	28.0
224.01245	28.0
189.15425	28.0
253.51109	28.0
194.32182	28.0
228.437	28.0
265.00665	28.0
234.16635	28.0
196.56566	28.0
283.1142	28.0
197.36829	28.0
199.83304	28.0
298.80276	28.0
120.05532	28.0
299.96005	28.0
226.48746	28.0
242.73399	28.0
198.3187	28.0
229.76656	28.0
243.33397	28.0
300.05502	28.0
244.13814	28.0
148.05051	28.0
200.20421	28.0
238.44455	28.0
208.68336	28.0
142.65173	28.0
237.29216	28.0
247.85965	28.0
197.22247	28.0
226.22374	28.0
202.99756	28.0
236.0508	28.0
240.40225	28.0
203.65944	28.0
139.30199	28.0
240.80783	28.0
236.46773	28.0
227.72858	28.0
231.41718	27.0
244.58513	27.0
172.02113	27.0
231.79721	27.0
223.7487	27.0
257.44922	27.0
201.87456	27.0
240.04102	27.0
154.52065	27.0
231.36951	27.0
156.33974	27.0
202.04991	27.0
226.97554	27.0
235.50797	27.0
210.05356	27.0
190.06039	27.0
194.55669	27.0
250.53711	27.0
252.05533	27.0
230.46475	27.0
270.30316	27.0
227.50105	27.0
301.30481	27.0
252.85664	27.0
228.30084	27.0
190.12926	27.0
237.33441	27.0
238.05003	27.0
199.1622	27.0
161.1478	27.0
232.73744	27.0
229.4579	26.0
225.81886	26.0
227.95622	26.0
227.93256	26.0
228.04642	26.0
228.64722	26.0
225.83505	26.0
231.29057	26.0
225.22916	26.0
227.26479	26.0
342.08566	26.0
227.46561	26.0
226.71594	26.0
341.72894	26.0
228.54208	26.0
229.75023	26.0
257.75726	26.0
244.83177	26.0
223.98753	26.0
196.28979	26.0
246.18817	26.0
278.14688	26.0
280.1954	26.0
245.54633	26.0
198.53113	26.0
198.64844	26.0
245.48648	26.0
245.34535	26.0
245.00494	26.0
199.76659	26.0
244.9375	26.0
200.26933	26.0
244.45804	26.0
293.20587	26.0
243.85362	26.0
295.83261	26.0
242.99496	26.0
201.67426	26.0
296.71082	26.0
241.6337	26.0
241.52867	26.0
297.09723	26.0
241.29892	26.0
246.5663	26.0
271.83804	26.0
155.28239	26.0
247.58069	26.0
257.56549	26.0
257.29996	26.0
260.40692	26.0
260.45908	26.0
260.72623	26.0
263.27347	26.0
263.64859	26.0
171.52316	26.0
254.31003	26.0
265.24423	26.0
169.26953	26.0
254.26318	26.0
253.67171	26.0
188.85941	26.0
189.92137	26.0
190.31834	26.0
253.06224	26.0
252.59511	26.0
166.32028	26.0
271.07651	26.0
192.84351	26.0
250.68439	26.0
247.69318	26.0
297.8877	26.0
243.6671	26.0
203.10083	26.0
233.34439	26.0
300.5845	26.0
232.34172	26.0
232.51192	26.0
232.69861	26.0
214.04062	26.0
237.01921	26.0
232.8495	26.0
216.30304	26.0
145.89931	26.0
236.00264	26.0
219.61232	26.0
240.2975	26.0
303.01385	26.0
235.33667	26.0
217.38168	26.0
234.32823	26.0
222.74936	26.0
303.60565	26.0
211.28445	26.0
239.89539	26.0
203.36469	26.0
240.19733	26.0
299.83624	26.0
239.92725	26.0
299.9838	26.0
222.88383	26.0
315.19424	25.0
253.90884	25.0
234.40768	25.0
230.76515	25.0
229.53059	25.0
230.86632	25.0
231.46486	25.0
235.11139	25.0
229.34814	25.0
261.09637	25.0
233.42966	25.0
269.4007	25.0
233.39674	25.0
229.36447	25.0
231.58107	25.0
257.02829	25.0
231.69136	25.0
231.70479	25.0
232.25067	25.0
229.65672	25.0
250.08006	25.0
230.39339	25.0
230.19872	25.0
239.78923	25.0
239.56485	25.0
231.20271	25.0
239.38907	25.0
294.62619	25.0
238.74556	25.0
238.21928	25.0
244.54532	25.0
244.64793	25.0
342.15631	25.0
237.58339	25.0
229.7814	25.0
249.28316	25.0
245.43892	25.0
301.12634	25.0
301.70099	25.0
236.85942	25.0
302.34772	25.0
273.4097	25.0
246.9278	25.0
235.3562	25.0
247.47284	25.0
247.97992	25.0
249.05594	25.0
249.21513	25.0
300.25522	25.0
225.88068	25.0
165.58986	25.0
165.03334	25.0
214.60547	25.0
213.5266	25.0
213.41785	25.0
212.776	25.0
164.58327	25.0
211.71313	25.0
164.83966	25.0
211.21187	25.0
210.72542	25.0
215.51596	25.0
188.54597	25.0
210.27788	25.0
209.91025	25.0
206.87936	25.0
205.19962	25.0
205.16315	25.0
204.91074	25.0
166.6134	25.0
215.24721	25.0
215.66261	25.0
167.60208	25.0
219.26271	25.0
221.7012	25.0
155.16649	25.0
156.02888	25.0
156.37648	25.0
220.07695	25.0
219.50204	25.0
159.25389	25.0
160.70058	25.0
218.13602	25.0
215.79639	25.0
161.4886	25.0
217.27774	25.0
216.97472	25.0
161.62552	25.0
162.16129	25.0
216.78723	25.0
162.33218	25.0
216.73389	25.0
167.18271	25.0
203.01291	25.0
222.13301	25.0
195.40175	25.0
176.08034	25.0
196.45035	25.0
196.34879	25.0
182.73679	25.0
196.19788	25.0
195.83044	25.0
195.77289	25.0
195.72905	25.0
195.34152	25.0
174.70561	25.0
193.02715	25.0
192.45341	25.0
191.71103	25.0
187.97493	25.0
190.82259	25.0
190.5697	25.0
190.03204	25.0
189.52615	25.0
175.60117	25.0
198.91075	25.0
202.86783	25.0
201.14336	25.0
202.17938	25.0
201.99284	25.0
168.27341	25.0
169.64558	25.0
201.74936	25.0
169.88802	25.0
201.51297	25.0
171.12068	25.0
200.90038	25.0
199.24789	25.0
200.79074	25.0
200.70473	25.0
200.4731	25.0
199.9341	25.0
199.8981	25.0
199.66557	25.0
199.64619	25.0
199.41241	25.0
222.0542	25.0
188.7141	25.0
144.58224	25.0
226.18102	25.0
228.21208	25.0
142.0407	25.0
98.91756	25.0
149.35094	25.0
141.0341	25.0
228.00945	25.0
152.94948	25.0
223.30508	25.0
127.05374	25.0
228.75533	25.0
228.77754	25.0
83.04333	25.0
126.39452	25.0
224.66956	25.0
226.94603	25.0
222.38995	25.0
226.50366	25.0
222.42062	25.0
166.52115	24.0
228.16325	24.0
247.81958	24.0
184.12276	24.0
245.16132	24.0
226.90767	24.0
239.60123	24.0
328.09161	24.0
224.89713	24.0
204.47781	24.0
301.83539	24.0
203.94603	24.0
185.60466	24.0
248.10794	24.0
195.40723	24.0
229.58698	24.0
248.31776	24.0
165.96432	24.0
249.01421	24.0
207.07942	24.0
228.38667	24.0
208.85033	24.0
209.39696	24.0
224.82224	24.0
238.84241	24.0
255.51549	24.0
245.284	24.0
271.42972	24.0
198.49664	24.0
226.37399	24.0
327.29388	24.0
307.03989	24.0
198.27596	24.0
243.83221	24.0
243.68544	24.0
257.80914	24.0
127.1774	24.0
197.45497	24.0
225.74382	24.0
170.81467	24.0
242.77367	24.0
201.63948	24.0
178.4245	24.0
264.57483	24.0
179.06078	24.0
265.7724	24.0
171.83238	24.0
257.22928	24.0
168.77937	24.0
225.44672	24.0
179.70477	24.0
225.40555	24.0
255.45914	24.0
245.70747	24.0
259.13953	24.0
167.90903	24.0
202.44124	24.0
202.5611	24.0
202.63217	24.0
227.52617	24.0
227.68869	24.0
229.1554	24.0
231.72714	24.0
191.80188	24.0
219.11774	24.0
219.03221	24.0
160.78873	24.0
161.01482	24.0
251.4183	24.0
217.70811	24.0
153.00882	24.0
162.49692	24.0
191.84935	24.0
217.6041	24.0
224.61378	24.0
192.0963	24.0
192.41402	24.0
223.45584	24.0
219.17572	24.0
223.2173	24.0
219.36133	24.0
222.85313	24.0
190.92947	24.0
299.88882	24.0
219.96947	24.0
220.02756	24.0
156.68031	24.0
253.56566	24.0
232.97954	24.0
190.72385	24.0
222.32278	24.0
298.28671	24.0
221.33974	24.0
228.93753	24.0
221.77995	24.0
152.48477	24.0
245.23338	24.0
231.53339	24.0
214.3674	24.0
163.91183	24.0
164.38734	24.0
212.14366	24.0
231.24292	24.0
212.40334	24.0
237.45964	24.0
185.97708	24.0
149.22411	24.0
250.65804	24.0
224.24702	24.0
273.7547	24.0
249.75496	24.0
163.26678	24.0
213.69261	24.0
193.6794	24.0
224.03737	24.0
215.36072	24.0
250.78363	24.0
216.49753	24.0
223.70622	24.0
250.87668	24.0
214.39751	24.0
249.38522	23.0
245.86714	23.0
65.03854	23.0
198.30766	23.0
194.81494	23.0
194.02707	23.0
260.22681	23.0
342.71265	23.0
259.37445	23.0
339.43738	23.0
129.07175	23.0
193.93433	23.0
251.55185	23.0
245.90553	23.0
258.89838	23.0
247.18484	23.0
247.09863	23.0
228.72421	23.0
250.83635	23.0
247.07401	23.0
247.72708	23.0
251.46178	23.0
254.91318	23.0
197.15097	23.0
247.32034	23.0
191.06886	23.0
255.96024	23.0
185.79283	23.0
128.0591	23.0
252.47684	23.0
249.68532	23.0
201.92465	23.0
207.16257	23.0
225.33644	23.0
166.48955	23.0
206.09697	23.0
269.62256	23.0
219.74295	23.0
206.55272	23.0
206.82021	23.0
230.92137	23.0
206.92584	23.0
129.43581	23.0
165.63901	23.0
219.67763	23.0
145.01588	23.0
210.53355	23.0
233.70804	23.0
224.45677	23.0
234.01953	23.0
231.95229	23.0
153.4343	23.0
237.42946	23.0
231.31738	23.0
163.62735	23.0
214.70016	23.0
217.91335	23.0
231.48572	23.0
281.47052	23.0
231.66006	23.0
235.48541	23.0
142.0757	23.0
239.84837	23.0
267.51541	23.0
220.57843	23.0
230.03531	23.0
200.30814	23.0
260.97614	23.0
298.54553	23.0
153.63815	23.0
244.3723	23.0
244.34933	23.0
172.20743	23.0
200.72552	23.0
325.81802	23.0
243.71143	23.0
201.3712	23.0
243.54941	23.0
235.25105	23.0
225.39084	23.0
240.56627	23.0
264.28342	23.0
309.12485	23.0
305.28015	23.0
306.77911	23.0
241.74483	23.0
221.97978	23.0
202.1947	23.0
202.65587	23.0
202.83156	23.0
161.02724	22.0
253.72319	22.0
154.50238	22.0
187.65015	22.0
153.53984	22.0
254.00871	22.0
288.86899	22.0
159.11798	22.0
338.92337	22.0
162.99663	22.0
152.04733	22.0
262.85416	22.0
262.91132	22.0
171.57831	22.0
133.84677	22.0
135.18585	22.0
166.44913	22.0
166.06653	22.0
271.11359	22.0
300.55734	22.0
271.46039	22.0
255.26666	22.0
146.5838	22.0
277.72076	22.0
255.24788	22.0
278.37885	22.0
298.91788	22.0
57.91539	22.0
215.71727	22.0
234.93724	22.0
244.30647	22.0
200.65062	22.0
216.76273	22.0
235.21951	22.0
200.36496	22.0
235.18346	22.0
234.14539	22.0
223.88202	22.0
245.51257	22.0
233.08566	22.0
221.05865	22.0
222.21475	22.0
232.01643	22.0
223.29338	22.0
244.23914	22.0
213.94893	22.0
243.14153	22.0
237.68152	22.0
212.28917	22.0
242.36949	22.0
211.30724	22.0
210.24805	22.0
239.26938	22.0
201.71597	22.0
201.83421	22.0
239.46483	22.0
206.44437	22.0
239.73465	22.0
205.43535	22.0
203.33815	22.0
203.57002	22.0
223.59346	22.0
203.86772	22.0
194.39418	22.0
227.43312	22.0
230.74135	22.0
225.72911	22.0
225.16008	22.0
225.77325	22.0
193.29254	22.0
227.22198	22.0
225.49229	22.0
225.55406	22.0
228.97014	22.0
327.37009	21.0
212.36481	21.0
133.99184	21.0
133.48335	21.0
188.4653	21.0
226.65845	21.0
224.39223	21.0
165.36185	21.0
334.78418	21.0
227.16147	21.0
166.03372	21.0
227.20869	21.0
228.87975	21.0
269.36533	21.0
79.06741	21.0
228.91383	21.0
226.74101	21.0
307.86237	21.0
162.42078	21.0
224.43036	21.0
231.83002	21.0
300.65073	21.0
222.64998	21.0
144.01994	21.0
232.47906	21.0
301.62277	21.0
204.26782	21.0
154.97868	21.0
298.09222	21.0
230.83359	21.0
157.59978	21.0
292.29272	21.0
302.80762	21.0
160.9738	21.0
235.00479	21.0
230.64169	21.0
305.48892	21.0
161.09435	21.0
282.62668	21.0
154.74106	21.0
253.34428	21.0
175.90625	21.0
193.16322	21.0
250.41467	21.0
201.4796	21.0
249.49503	21.0
262.31143	21.0
261.93411	21.0
172.76045	21.0
261.00302	21.0
256.64066	21.0
174.00865	21.0
174.26581	21.0
196.80737	21.0
196.91455	21.0
245.60771	21.0
246.46175	21.0
258.00259	21.0
258.06552	21.0
197.96719	21.0
198.0099	21.0
175.50256	21.0
250.51385	21.0
175.55835	21.0
190.7793	21.0
202.36322	21.0
264.41556	21.0
251.32359	21.0
242.0266	21.0
170.03227	21.0
201.77579	21.0
169.96077	21.0
230.02194	20.0
231.39484	20.0
246.75702	20.0
224.75763	20.0
149.09973	20.0
178.74773	20.0
223.41779	20.0
252.70874	20.0
230.97942	20.0
246.36798	20.0
188.28386	20.0
167.82274	20.0
253.6452	20.0
91.05306	20.0
179.17349	20.0
331.79324	20.0
303.46576	20.0
229.97887	20.0
249.85402	20.0
248.73459	20.0
247.76254	20.0
305.09024	20.0
221.15912	20.0
229.84821	20.0
191.72865	20.0
143.79086	20.0
227.31647	20.0
191.21373	20.0
229.0383	20.0
229.44307	20.0
180.56433	20.0
224.83693	20.0
301.17395	20.0
225.36143	20.0
205.03131	20.0
247.26645	20.0
283.74396	20.0
235.98158	20.0
234.09892	20.0
260.14941	20.0
242.51434	20.0
237.85214	20.0
174.06937	20.0
201.53938	20.0
158.68716	20.0
161.23607	20.0
235.44936	20.0
216.85645	20.0
213.49368	20.0
163.41573	20.0
244.51469	20.0
233.73198	20.0
234.045	20.0
171.67838	20.0
156.01299	20.0
294.93219	20.0
238.17093	20.0
269.20462	20.0
158.06973	20.0
295.48239	20.0
170.09868	20.0
155.54486	20.0
220.37631	20.0
241.77376	19.0
315.56641	19.0
169.54356	19.0
210.40428	19.0
187.91318	19.0
132.18878	19.0
187.00948	19.0
170.23026	19.0
238.3508	19.0
211.14641	19.0
187.28813	19.0
211.96255	19.0
237.8008	19.0
184.34871	19.0
255.6924	19.0
173.26666	19.0
232.90779	19.0
296.06342	19.0
290.34216	19.0
196.49428	19.0
141.61967	19.0
224.69011	19.0
137.50937	19.0
256.61554	18.0
235.78606	18.0
232.30292	18.0
67.01747	18.0
70.87044	18.0
232.81963	18.0
174.9335	18.0
155.733	18.0
154.46466	18.0
258.35977	18.0
198.94115	18.0
146.80086	18.0
96.13245	17.0
247.91362	17.0
238.97107	17.0
71.62677	17.0
199.22301	17.0
301.4476	17.0
186.40466	16.0
59.63987	16.0
142.36182	16.0
329.73441	16.0
100.65487	16.0

MSID: 8899
ID: 73
RETENTIONTIME: 13.39243
PRECURSORMZ: 477.1043
AREA: 43216528.0
PRECURSORTYPE: [M-H]-
SMILES: COC1=C(O[C@@H]2O[C@H](CO)[C@@H](O)[C@H](O)[C@H]2O)C=C2OC(=CC(=O)C2=C1O)C1=CC=C(O)C(O)=C1
NAME: nepitrin
FORMULA: C22H22O12
INCHIKEY: DMXHXBGUNHLMQO-IWLDQSELSA-N
CAS: 569-90-4
Molecular Weight: 478.409
Number of References: 42
Class: Flavones
Superclass: Flavonoids
Pathway: Shikimates and Phenylpropanoids
ppm: 0.9950000000458203
CMID: CM243
IONMODE: Negative
COLLISIONENERGY: 40±20eV
INSTRUMENTTYPE: AB SCIEX
INSTRUMENT: Q-TOF
Comment:  
Num Peaks: 894
477.10623	202354.0
299.02127	147502.0
315.05005	132239.0
300.02628	103131.0
313.03525	48414.0
301.03467	20074.0
314.04272	15872.0
199.04066	13835.0
285.04044	12883.0
271.02499	11914.0
462.07806	8775.0
243.03014	6884.0
227.03462	6474.0
255.02896	5170.0
133.02895	4872.0
201.01843	3425.0
357.06012	2874.0
164.98306	1921.0
163.00293	1850.0
296.03317	1692.0
327.05133	1594.0
311.01831	1435.0
284.03281	1423.0
298.04837	1167.0
297.03992	1073.0
136.98741	934.0
178.99794	902.0
329.02893	898.0
175.03978	765.0
165.98961	717.0
216.04251	670.0
215.03468	617.0
282.01465	556.0
228.04205	528.0
281.00912	513.0
183.04408	494.0
268.03467	436.0
211.03835	429.0
203.03529	425.0
272.0303	417.0
171.04388	390.0
445.07501	387.0
244.03723	381.0
135.00946	378.0
283.02365	370.0
200.04634	360.0
174.03195	359.0
164.01094	349.0
198.03201	332.0
253.01402	325.0
213.01753	310.0
326.04089	310.0
226.02499	305.0
192.00406	296.0
159.04393	272.0
185.0235	271.0
239.03471	271.0
342.03506	248.0
267.0304	243.0
173.02446	234.0
187.04034	228.0
172.05458	224.0
134.03722	224.0
132.02225	223.0
328.05801	217.0
65.00302	216.0
241.04958	216.0
256.03708	215.0
240.03958	206.0
202.02769	193.0
459.09375	190.0
188.04614	185.0
177.01854	184.0
372.04535	184.0
269.04245	180.0
139.00284	176.0
357.0231	175.0
136.01605	166.0
343.04276	166.0
257.00638	165.0
295.02478	163.0
231.02859	163.0
230.0235	161.0
151.00467	160.0
212.04959	160.0
214.02492	158.0
145.03008	149.0
149.99434	147.0
344.05194	144.0
229.01169	141.0
475.51614	136.0
182.03722	134.0
225.0191	133.0
135.00491	129.0
242.02361	129.0
325.03024	129.0
190.99583	129.0
184.05238	127.0
241.0146	124.0
143.05206	123.0
197.02592	122.0
176.98206	122.0
137.99559	121.0
161.02605	121.0
177.98792	114.0
475.53964	111.0
155.04823	111.0
271.05725	110.0
109.99926	109.0
253.04674	108.0
254.01971	107.0
270.01511	107.0
237.01776	106.0
205.01173	102.0
240.0062	101.0
232.04036	98.0
135.04474	97.0
355.04413	95.0
329.06445	90.0
166.99794	88.0
312.02771	87.0
109.0298	85.0
296.01465	83.0
387.0708	83.0
371.04117	83.0
160.0161	82.0
251.03499	81.0
196.04982	81.0
158.04024	80.0
225.05435	79.0
257.04407	78.0
229.05022	76.0
181.0305	76.0
273.04233	75.0
341.02521	75.0
279.03122	75.0
137.02524	75.0
111.00912	74.0
298.00272	72.0
281.04523	72.0
157.02745	71.0
415.06796	70.0
213.05327	70.0
309.0423	67.0
227.01396	67.0
189.01964	66.0
108.99401	65.0
152.01115	63.0
417.08545	62.0
300.0127	62.0
217.05269	62.0
169.02887	61.0
399.07089	61.0
197.05891	61.0
186.02922	60.0
148.04936	60.0
297.01459	57.0
327.02121	57.0
108.01984	56.0
270.05212	56.0
184.01518	55.0
212.01395	54.0
203.04926	53.0
247.06483	52.0
153.01978	52.0
165.01578	52.0
193.01495	52.0
245.04488	51.0
170.03743	51.0
359.03909	51.0
200.00894	51.0
147.04305	50.0
312.00693	49.0
339.04968	49.0
176.04401	49.0
300.80875	49.0
210.0295	49.0
322.04813	48.0
310.9993	47.0
226.06328	47.0
269.00391	47.0
206.02533	47.0
213.00752	47.0
204.2021	47.0
223.04182	46.0
216.02811	46.0
299.00433	46.0
204.03981	45.0
122.00208	45.0
295.99106	45.0
195.04332	45.0
475.49265	44.0
240.02744	44.0
133.01653	43.0
96.9918	43.0
94.00422	42.0
167.89258	42.0
209.02591	42.0
301.05676	42.0
297.0011	42.0
242.99808	42.0
165.98077	41.0
314.01147	41.0
148.01601	41.0
91.01945	41.0
324.57666	40.0
242.06018	40.0
228.00508	39.0
119.01254	39.0
146.03661	39.0
147.00742	39.0
268.01865	39.0
315.94757	39.0
228.02283	38.0
306.83066	38.0
215.01602	38.0
475.5802	38.0
196.87338	38.0
476.49469	38.0
326.99112	38.0
315.81357	37.0
208.02896	37.0
254.01035	37.0
180.00819	37.0
153.0343	37.0
201.85652	37.0
432.06308	37.0
327.08319	37.0
238.0229	36.0
461.98126	36.0
313.68011	36.0
314.07568	36.0
224.04623	36.0
316.21222	36.0
225.57619	36.0
328.19281	36.0
336.06305	36.0
247.02635	36.0
222.40901	35.0
202.302	35.0
206.519	35.0
306.71402	35.0
203.88736	34.0
475.47345	34.0
341.18439	34.0
165.82816	34.0
218.25325	34.0
209.38568	34.0
212.1637	34.0
316.87952	34.0
315.72134	34.0
82.00608	34.0
107.00952	34.0
300.70175	34.0
307.73874	34.0
231.05241	33.0
224.54341	33.0
198.25119	33.0
445.03989	33.0
325.92065	33.0
166.97136	33.0
218.73961	33.0
216.44427	33.0
283.97504	33.0
315.60129	33.0
354.81351	32.0
177.00812	32.0
208.68201	32.0
223.72534	32.0
476.68494	32.0
314.36905	32.0
209.76135	32.0
353.0394	32.0
366.04053	32.0
312.72348	32.0
211.80867	32.0
156.02037	32.0
68.99516	32.0
318.27386	31.0
223.89381	31.0
221.04124	31.0
217.01228	31.0
129.03285	31.0
219.37154	31.0
202.59181	31.0
211.37563	31.0
214.06073	31.0
234.64619	31.0
435.98422	31.0
207.51515	31.0
124.98708	31.0
248.02934	31.0
328.64536	30.0
286.04489	30.0
334.77533	30.0
204.01463	30.0
356.96573	30.0
134.03156	30.0
325.3269	30.0
259.02136	30.0
210.2041	30.0
302.03116	30.0
120.99282	30.0
123.0079	30.0
67.0199	30.0
232.00157	30.0
315.78226	30.0
230.05469	30.0
202.01378	30.0
201.39211	30.0
203.22929	30.0
209.06271	30.0
317.76569	30.0
219.67769	30.0
324.02997	30.0
317.45505	30.0
218.91635	29.0
270.98309	29.0
313.74777	29.0
221.08492	29.0
199.32536	29.0
165.9631	29.0
284.99908	29.0
208.7188	29.0
316.08859	28.0
239.99254	28.0
311.05975	28.0
199.55495	28.0
245.03413	28.0
207.188	28.0
209.13493	28.0
200.72836	28.0
175.00349	28.0
335.02441	28.0
217.95244	28.0
314.75116	28.0
95.01525	28.0
201.11981	28.0
208.14479	28.0
209.67911	28.0
211.36139	28.0
224.47298	28.0
203.0032	28.0
342.01514	28.0
267.01437	28.0
188.01257	28.0
314.69208	27.0
319.33871	27.0
210.44836	27.0
314.44199	27.0
298.80286	27.0
212.35059	27.0
476.74268	27.0
313.54831	27.0
216.47597	27.0
280.63495	27.0
203.43457	27.0
312.33395	27.0
311.98099	27.0
302.17075	27.0
318.23892	27.0
353.56949	27.0
315.66391	26.0
317.73776	26.0
315.70743	26.0
203.29771	26.0
317.31198	26.0
281.99329	26.0
230.81728	26.0
315.86926	26.0
316.84116	26.0
384.0423	26.0
201.55751	26.0
383.51089	26.0
316.3045	26.0
226.99036	26.0
316.4996	26.0
208.01201	26.0
316.6181	26.0
225.69386	26.0
476.79187	26.0
227.13791	26.0
265.13748	26.0
233.4836	26.0
242.86072	26.0
309.36258	26.0
256.00262	26.0
206.66397	26.0
206.74704	26.0
252.03519	26.0
476.61868	26.0
313.3472	26.0
313.59686	26.0
313.89349	26.0
298.66913	26.0
234.03607	26.0
179.03331	26.0
200.84076	26.0
276.2345	26.0
314.22324	26.0
297.98074	26.0
314.58264	26.0
204.29446	26.0
259.28149	26.0
427.05603	26.0
313.93167	26.0
319.90771	26.0
216.61143	26.0
217.39474	26.0
325.36398	26.0
331.74161	26.0
337.33167	26.0
214.92987	26.0
355.18991	26.0
338.98477	26.0
213.2906	26.0
220.16563	26.0
326.853	26.0
346.45013	26.0
335.67181	26.0
217.78188	26.0
359.62384	26.0
210.29924	26.0
167.0511	26.0
319.86743	26.0
222.62666	26.0
354.45206	26.0
345.16449	26.0
210.99992	26.0
318.12015	26.0
331.1889	25.0
333.45609	25.0
141.03647	25.0
207.68024	25.0
313.6593	25.0
311.62131	25.0
244.01581	25.0
354.03552	25.0
313.49283	25.0
251.40129	25.0
215.34784	25.0
445.11014	25.0
171.03236	25.0
446.08585	25.0
312.83084	25.0
330.05823	25.0
248.78253	25.0
327.42688	25.0
224.18111	25.0
310.31754	25.0
464.81024	25.0
344.29358	25.0
197.35733	25.0
203.74057	25.0
342.98834	25.0
280.0365	25.0
193.79939	25.0
346.28247	25.0
212.7532	25.0
193.05305	25.0
298.0957	25.0
274.21512	25.0
202.9753	25.0
299.7312	25.0
299.81769	25.0
189.98891	25.0
300.51498	25.0
202.93065	25.0
154.0378	25.0
268.00583	25.0
267.81186	25.0
157.88023	25.0
213.63542	25.0
338.49454	25.0
308.0343	25.0
165.23347	25.0
206.05064	25.0
185.06346	25.0
211.59637	25.0
134.51041	25.0
242.98282	25.0
323.60706	25.0
210.09763	25.0
203.10507	25.0
219.72559	25.0
200.38721	25.0
178.35391	25.0
393.24698	25.0
201.23787	25.0
229.63008	25.0
229.16287	25.0
389.93326	25.0
228.84277	25.0
208.49249	25.0
175.299	25.0
316.33762	25.0
209.78262	25.0
221.50009	25.0
226.51257	25.0
226.42857	25.0
284.50995	25.0
367.06046	25.0
317.20209	25.0
202.08755	25.0
202.12793	25.0
369.06317	25.0
411.94754	25.0
212.10664	25.0
325.2439	25.0
200.78941	25.0
217.08154	25.0
315.39603	25.0
235.04088	25.0
356.17245	25.0
217.15512	25.0
218.52386	25.0
180.56175	25.0
173.6317	25.0
165.52312	25.0
232.54036	25.0
239.54521	25.0
201.03787	25.0
210.37024	25.0
314.10345	25.0
313.41309	24.0
367.04169	24.0
173.05925	24.0
316.42645	24.0
378.66479	24.0
343.14798	24.0
294.24316	24.0
372.02646	24.0
477.05063	24.0
340.22095	24.0
316.28012	24.0
162.0242	24.0
299.77359	24.0
310.11572	24.0
335.72385	24.0
178.98091	24.0
415.2775	24.0
331.23169	24.0
312.43951	24.0
344.76617	24.0
316.13037	24.0
312.60052	24.0
316.14258	24.0
326.00375	24.0
476.66144	24.0
326.10629	24.0
310.56772	24.0
320.51752	24.0
308.51917	24.0
59.01309	24.0
226.85168	24.0
201.05176	24.0
222.04114	24.0
205.64319	24.0
206.26436	24.0
219.85335	24.0
215.19554	24.0
212.55614	24.0
219.06126	24.0
212.87749	24.0
243.05914	24.0
198.14917	24.0
218.15199	24.0
217.86859	24.0
217.4886	24.0
250.02594	24.0
266.11743	24.0
252.33533	24.0
213.94183	24.0
207.99365	24.0
207.56593	24.0
134.71378	24.0
202.7856	24.0
211.31015	24.0
209.87625	24.0
204.35606	24.0
197.4798	24.0
208.7485	24.0
131.04962	24.0
230.49306	24.0
275.20032	24.0
197.6546	24.0
215.81514	23.0
198.89148	23.0
328.98099	23.0
132.60236	23.0
224.90013	23.0
382.14667	23.0
201.44073	23.0
251.01172	23.0
310.71616	23.0
327.22491	23.0
230.31915	23.0
93.077	23.0
207.7621	23.0
319.547	23.0
145.63452	23.0
199.85802	23.0
318.36472	23.0
176.20515	23.0
323.0946	23.0
223.34027	23.0
317.91409	23.0
208.2225	23.0
325.1044	23.0
317.8233	23.0
200.20149	23.0
202.20868	23.0
313.7287	23.0
317.47424	23.0
218.38347	23.0
230.89018	23.0
222.09805	23.0
208.88152	23.0
227.35049	23.0
257.02835	23.0
333.21115	23.0
209.51889	23.0
194.61548	23.0
204.9893	23.0
301.4324	23.0
211.33008	23.0
212.66037	23.0
212.49332	23.0
63.02552	23.0
196.22675	23.0
206.59923	23.0
203.59662	23.0
211.54936	23.0
212.08382	23.0
211.66902	23.0
190.02805	23.0
275.42618	23.0
198.16708	23.0
305.20325	23.0
298.60822	23.0
207.07806	23.0
204.86034	23.0
210.94873	23.0
307.42447	23.0
307.59448	23.0
197.09328	23.0
266.02319	23.0
336.46707	23.0
445.13495	23.0
214.28574	23.0
202.84557	23.0
309.1456	23.0
223.38272	22.0
210.49242	22.0
222.74211	22.0
210.56772	22.0
316.80804	22.0
225.94109	22.0
202.06389	22.0
210.92313	22.0
208.41614	22.0
349.18597	22.0
320.13193	22.0
334.50125	22.0
202.51933	22.0
214.2112	22.0
92.99293	22.0
327.99771	22.0
216.21239	22.0
337.97586	22.0
202.41762	22.0
209.33325	22.0
166.04387	22.0
339.793	22.0
218.9801	22.0
341.07224	22.0
165.88364	22.0
212.32776	22.0
79.02041	22.0
196.91597	22.0
201.89688	22.0
314.65213	22.0
392.69565	22.0
199.75696	22.0
207.86656	22.0
198.43738	22.0
310.00018	22.0
309.52621	22.0
263.03366	22.0
307.22189	22.0
301.84399	22.0
207.0372	22.0
117.44518	22.0
137.71274	22.0
205.09868	22.0
293.01315	22.0
203.83144	22.0
127.90957	22.0
209.98834	22.0
231.47087	22.0
62.11303	22.0
316.25226	22.0
387.0419	22.0
230.5451	21.0
214.00343	21.0
308.96826	21.0
207.14008	21.0
335.08536	21.0
235.3773	21.0
307.98102	21.0
224.68283	21.0
254.97267	21.0
198.64021	21.0
170.40028	21.0
311.54871	21.0
214.7892	21.0
229.53809	21.0
303.18445	21.0
301.75552	21.0
209.55859	21.0
317.0957	21.0
225.86455	21.0
461.74554	21.0
269.51331	21.0
300.65421	21.0
476.35574	21.0
201.53804	21.0
363.63321	21.0
204.10695	21.0
210.41997	21.0
439.81216	21.0
198.33669	21.0
419.3284	21.0
381.0582	21.0
208.97211	21.0
375.79852	21.0
388.6561	21.0
320.77005	21.0
200.29849	21.0
164.33842	21.0
239.00142	21.0
233.73953	21.0
312.97116	21.0
163.98586	21.0
195.18558	20.0
228.06422	20.0
286.69781	20.0
212.68465	20.0
356.29257	20.0
212.63466	20.0
210.54356	20.0
128.13007	20.0
212.39626	20.0
318.60764	20.0
193.44511	20.0
197.82536	20.0
299.68881	20.0
346.03833	20.0
211.95976	20.0
208.36525	20.0
319.10776	20.0
106.46219	20.0
353.021	20.0
237.48235	20.0
347.21063	20.0
339.90311	20.0
253.03271	20.0
335.2019	20.0
250.73097	20.0
217.27637	20.0
226.74403	20.0
249.8479	20.0
214.84517	20.0
332.36975	20.0
317.62256	20.0
196.32552	20.0
214.64284	20.0
236.82935	20.0
219.54852	20.0
246.19131	20.0
215.48582	20.0
209.46078	20.0
401.04327	20.0
336.20129	20.0
213.3235	20.0
219.24393	20.0
308.44864	20.0
137.0069	20.0
338.77567	20.0
225.51883	20.0
205.24176	19.0
444.06122	19.0
208.83057	19.0
208.05721	19.0
159.23047	19.0
149.01369	19.0
385.45602	19.0
155.03116	19.0
218.0739	19.0
316.36548	19.0
198.1147	19.0
139.80757	19.0
239.76807	19.0
235.29768	19.0
315.52649	19.0
231.75554	19.0
299.64645	19.0
220.3255	19.0
183.32639	19.0
222.60037	19.0
182.91559	19.0
219.60803	19.0
339.71176	19.0
279.00995	18.0
311.42429	18.0
271.98669	18.0
181.44051	18.0
240.17462	18.0
350.43143	18.0
322.57028	18.0
213.79146	18.0
132.38931	18.0
316.74008	18.0
258.01526	18.0
175.5558	18.0
120.01995	18.0
124.01788	17.0
163.25182	17.0
194.08578	17.0
312.19897	17.0
158.83775	17.0
207.73669	17.0
253.90424	17.0
99.00526	17.0
140.34535	17.0
313.2276	17.0
291.43457	17.0
340.13605	17.0
338.73782	17.0
67.01268	17.0
278.01794	16.0
113.72672	16.0
423.07462	16.0
301.57523	16.0
417.5676	15.0
211.41408	15.0
289.01389	14.0
438.45981	14.0
470.48352	14.0
73.1917	14.0
471.99069	14.0
473.21054	14.0
474.48315	14.0
127.05047	14.0
401.38458	14.0
101.84325	13.0
462.69717	13.0
104.61414	13.0
103.08729	13.0
465.21146	13.0
469.22263	13.0
115.58689	13.0
114.05801	13.0
111.62904	13.0
289.87857	13.0
460.38718	13.0
430.7532	13.0
457.73511	13.0
421.20343	13.0
372.82397	13.0
376.90607	13.0
393.81616	13.0
125.48571	13.0
400.06726	13.0
402.68835	13.0
403.9057	13.0
406.23532	13.0
408.27478	13.0
413.6188	13.0
419.87201	13.0
425.84671	13.0
455.9769	13.0
141.23424	13.0
428.7637	13.0
434.02756	13.0
436.43008	13.0
440.29492	13.0
442.4469	13.0
100.35449	13.0
447.28006	13.0
448.77869	13.0
450.5687	13.0
453.89651	13.0
69.0033	12.0

MSID: 8900
ID: 159
RETENTIONTIME: 19.05215
PRECURSORMZ: 315.0501
AREA: 39586800.0
PRECURSORTYPE: [M-H]-
SMILES: COC1=C(OC2=CC(O)=CC(O)=C2C1=O)C1=CC(O)=C(O)C=C1
NAME: 2-(3,4-Dihydroxy-phenyl)-5,7-dihydroxy-3-methoxy-chromen-4-on
FORMULA: C16H12O7
INCHIKEY: WEPBGSIAWZTEJR-UHFFFAOYSA-N
CAS: 1486-70-0
Molecular Weight: 316.267
Number of References: 728
Class: Flavonols
Superclass: Flavonoids
Pathway: Shikimates and Phenylpropanoids
ppm: -0.38000000000693035
CMID: CM243
IONMODE: Negative
COLLISIONENERGY: 40±20eV
INSTRUMENTTYPE: AB SCIEX
INSTRUMENT: Q-TOF
Comment:  
Num Peaks: 1068
300.02823	192283.0
315.05032	38092.0
65.00387	22333.0
136.98752	18106.0
201.0186	15404.0
199.03944	11498.0
227.03481	8264.0
228.04224	8073.0
216.04268	7342.0
299.01981	7209.0
133.02907	6773.0
243.02882	6518.0
134.03732	5213.0
200.04788	4727.0
202.02647	4101.0
174.0321	4076.0
255.02917	3553.0
165.99101	3482.0
172.05215	3392.0
215.03487	3215.0
271.02362	2963.0
272.03214	2919.0
188.04765	2647.0
173.02461	2570.0
171.04402	2437.0
230.0222	2346.0
110.0014	2292.0
175.03992	2188.0
139.00294	2069.0
283.02554	1985.0
244.03743	1889.0
213.01772	1799.0
187.03915	1786.0
158.03667	1736.0
149.99567	1658.0
183.04424	1436.0
185.02365	1422.0
198.03218	1412.0
211.03993	1367.0
164.01108	1361.0
145.0302	1357.0
214.02654	1292.0
229.01337	1286.0
146.03673	1203.0
132.02235	1145.0
226.02666	1077.0
256.03729	1008.0
203.03546	981.0
82.00526	967.0
159.04405	955.0
241.01329	921.0
166.99808	906.0
143.04985	857.0
182.03737	819.0
108.99308	773.0
254.01993	770.0
108.02095	736.0
164.98195	730.0
163.00307	730.0
190.99734	650.0
129.03296	641.0
186.03204	638.0
157.02881	634.0
137.9957	608.0
94.00525	575.0
111.00818	561.0
135.04599	558.0
148.05305	543.0
282.01489	516.0
239.03491	495.0
160.01624	479.0
122.00001	479.0
212.04692	468.0
155.04836	433.0
119.01371	391.0
161.02368	378.0
136.01616	374.0
204.04277	373.0
177.99068	329.0
160.05341	314.0
147.04436	297.0
210.03252	293.0
176.04935	286.0
68.99847	283.0
197.02472	278.0
124.98827	271.0
96.99284	257.0
120.02113	255.0
170.0363	251.0
253.01424	251.0
95.01342	251.0
66.01125	250.0
184.05386	235.0
169.02773	218.0
225.01782	214.0
144.05771	197.0
154.04158	195.0
153.03322	194.0
162.03056	190.0
130.04274	190.0
231.03177	182.0
123.00693	179.0
135.00729	178.0
148.01851	178.0
257.01129	171.0
238.02612	164.0
237.02098	163.0
141.0331	143.0
151.0036	138.0
232.03757	138.0
181.02934	122.0
242.02077	121.0
281.00772	120.0
215.02194	118.0
192.00558	112.0
209.02608	111.0
64.03088	107.0
131.04861	105.0
245.00829	101.0
178.9994	100.0
217.0168	94.0
244.02214	92.0
117.03281	92.0
265.01334	90.0
229.00447	87.0
67.01755	86.0
156.05965	85.0
297.04016	84.0
142.04085	83.0
189.01846	76.0
184.01534	75.0
202.00281	74.0
131.01274	72.0
144.02129	70.0
298.01141	67.0
258.01389	66.0
140.01271	63.0
266.02182	63.0
193.01239	63.0
105.03432	61.0
156.02173	60.0
200.0105	60.0
270.9978	58.0
104.02711	57.0
165.01843	57.0
91.01859	56.0
298.98596	55.0
106.00505	54.0
200.01741	54.0
92.99962	54.0
77.03873	52.0
269.00735	52.0
83.01486	52.0
127.05499	51.0
188.0087	50.0
109.02785	48.0
167.04871	47.0
161.99442	46.0
259.02631	45.0
195.04349	45.0
212.0127	44.0
174.01013	43.0
51.02259	43.0
107.01265	42.0
120.994	41.0
193.02872	40.0
132.00885	40.0
147.00754	39.0
213.00198	39.0
199.01457	39.0
99.00729	38.0
314.01694	38.0
197.01509	38.0
70.00427	37.0
243.00745	37.0
177.98154	37.0
172.01619	35.0
190.02686	35.0
62.0151	35.0
221.02541	34.0
80.02648	34.0
228.01857	34.0
118.04033	34.0
297.00302	33.0
63.02401	33.0
89.04042	33.0
198.05147	32.0
71.01486	31.0
226.00752	31.0
80.99831	30.0
215.00183	30.0
228.00378	30.0
148.034	30.0
78.00959	30.0
115.05383	29.0
115.01917	29.0
101.0395	28.0
298.9707	28.0
147.03366	27.0
106.04034	27.0
122.03787	27.0
159.028	26.0
98.00427	26.0
135.02322	26.0
225.99869	26.0
172.02776	26.0
109.98702	26.0
179.03477	26.0
269.0459	25.0
166.97783	25.0
163.02182	25.0
285.0043	25.0
281.99023	24.0
54.01139	24.0
242.98454	24.0
182.02151	24.0
300.99585	24.0
229.99399	23.0
92.02663	23.0
202.39549	23.0
137.02077	23.0
315.01901	23.0
198.01013	23.0
231.00795	22.0
175.01012	22.0
132.05724	22.0
301.125	22.0
175.06583	22.0
161.01126	22.0
102.04504	22.0
202.81506	22.0
203.01175	22.0
270.02017	22.0
125.03754	22.0
198.58931	21.0
220.04524	21.0
207.33197	21.0
128.06256	21.0
134.31865	21.0
244.06497	21.0
280.98965	21.0
282.9794	21.0
136.9646	21.0
299.76538	21.0
79.01612	20.0
301.29666	20.0
221.9173	20.0
165.96326	20.0
212.4935	20.0
211.0058	20.0
129.01292	19.0
252.99554	19.0
195.90331	19.0
125.99973	19.0
156.01805	19.0
254.88846	19.0
165.03226	19.0
103.05357	19.0
301.03152	19.0
210.08218	18.0
212.97769	18.0
166.04526	18.0
225.49696	18.0
243.99919	18.0
225.05161	18.0
121.98595	18.0
297.45044	18.0
164.96182	18.0
301.42926	18.0
226.77223	18.0
209.74734	18.0
301.11481	18.0
201.75653	18.0
209.01334	18.0
256.00284	18.0
200.35272	18.0
64.79639	18.0
203.28951	18.0
218.99478	18.0
205.93275	17.0
211.07124	17.0
226.9935	17.0
163.98599	17.0
301.32724	17.0
166.96011	17.0
201.36169	17.0
199.62289	17.0
217.00381	17.0
216.95477	17.0
195.9828	17.0
157.00917	17.0
270.97525	17.0
202.44147	16.0
201.77184	16.0
206.35033	16.0
190.96893	16.0
166.67932	16.0
134.43558	16.0
202.11278	16.0
282.97281	16.0
201.54517	16.0
204.24005	16.0
202.25342	16.0
204.29184	16.0
204.06516	16.0
167.14871	16.0
301.94632	16.0
187.00299	16.0
146.01306	16.0
198.29547	16.0
239.99426	16.0
304.95547	16.0
300.78012	16.0
227.08055	16.0
155.03372	16.0
131.99648	16.0
185.46481	16.0
216.08443	16.0
198.11211	16.0
134.23694	16.0
215.77217	16.0
143.02525	16.0
213.66423	16.0
253.05006	16.0
188.07988	16.0
200.00079	16.0
210.71002	16.0
228.98076	16.0
300.88715	15.0
202.32863	15.0
200.69662	15.0
136.55234	15.0
198.37961	15.0
201.82191	15.0
200.325	15.0
199.84433	15.0
55.0193	15.0
213.13635	15.0
206.73174	15.0
167.03099	15.0
210.1347	15.0
229.98062	15.0
132.59344	15.0
302.52176	15.0
220.52924	15.0
219.7998	15.0
218.18834	15.0
155.2606	15.0
214.59998	15.0
214.091	15.0
213.21785	15.0
249.65157	15.0
211.61934	15.0
202.48048	15.0
113.04069	15.0
207.81308	15.0
207.655	15.0
207.21497	15.0
207.15999	15.0
205.66864	15.0
149.01979	15.0
203.81203	15.0
166.0238	15.0
301.40884	15.0
112.78055	15.0
202.56131	15.0
197.70709	15.0
301.67413	14.0
197.05496	14.0
197.51573	14.0
197.28871	14.0
228.96594	14.0
199.20804	14.0
209.57436	14.0
230.80408	14.0
223.32582	14.0
217.62312	14.0
240.96465	14.0
240.98441	14.0
216.00095	14.0
211.84448	14.0
254.00276	14.0
266.00745	14.0
299.99429	14.0
203.21132	14.0
203.08849	14.0
203.06337	14.0
202.98384	14.0
108.97775	14.0
201.73984	14.0
201.53543	14.0
200.22105	14.0
204.09734	14.0
204.71617	14.0
139.05606	14.0
121.0274	14.0
144.01657	14.0
138.97986	14.0
144.04126	14.0
140.00575	14.0
162.98431	14.0
254.98383	13.0
61.05871	13.0
170.40042	13.0
210.66879	13.0
199.38222	13.0
222.49976	13.0
223.96434	13.0
197.66579	13.0
302.85226	13.0
255.09486	13.0
202.65332	13.0
221.94211	13.0
196.75676	13.0
215.0722	13.0
221.09529	13.0
161.37804	13.0
108.00671	13.0
254.19321	13.0
166.46573	13.0
225.33083	13.0
225.57637	13.0
166.35204	13.0
166.27626	13.0
301.17938	13.0
221.4245	13.0
173.26042	13.0
302.71597	13.0
219.11508	13.0
301.63501	13.0
216.25432	13.0
202.08076	13.0
215.91748	13.0
261.31348	13.0
301.87317	13.0
167.63142	13.0
260.26184	13.0
302.15738	13.0
211.09399	13.0
167.28168	13.0
286.11966	13.0
156.04619	13.0
201.99028	13.0
215.46875	13.0
215.22733	13.0
198.41409	13.0
220.71251	13.0
202.56967	13.0
198.3465	13.0
220.91187	13.0
198.24721	13.0
198.21826	13.0
215.13826	13.0
200.2751	13.0
122.52409	13.0
203.3663	13.0
213.40378	13.0
232.67348	13.0
207.40672	13.0
233.23546	13.0
186.008	13.0
234.14864	13.0
185.21817	13.0
74.22672	13.0
244.99142	13.0
314.16272	13.0
163.33955	13.0
204.55226	13.0
236.97424	13.0
187.43445	13.0
201.2047	13.0
176.8233	13.0
206.90918	13.0
204.86191	13.0
81.99019	13.0
299.53992	13.0
213.26933	13.0
134.50598	13.0
177.01868	13.0
299.81116	13.0
205.8653	13.0
195.1871	13.0
201.06998	13.0
207.74673	13.0
211.96565	13.0
134.82303	13.0
201.8887	13.0
214.93292	13.0
227.19566	13.0
194.4299	13.0
209.06006	13.0
133.33533	13.0
253.17003	13.0
141.07497	13.0
203.86656	13.0
211.90434	13.0
203.93228	13.0
200.75905	13.0
231.70058	13.0
301.53976	13.0
213.4653	13.0
273.03931	13.0
230.36838	13.0
212.18954	13.0
190.5172	13.0
103.01978	13.0
211.5182	13.0
159.84286	12.0
211.77606	12.0
212.34221	12.0
211.73332	12.0
211.78889	12.0
212.28798	12.0
212.46352	12.0
137.35454	12.0
211.42848	12.0
125.97005	12.0
205.70515	12.0
299.7128	12.0
299.59753	12.0
206.99229	12.0
207.15294	12.0
207.6028	12.0
207.85826	12.0
207.92462	12.0
208.0941	12.0
137.24324	12.0
208.49408	12.0
243.99155	12.0
208.71048	12.0
208.98219	12.0
298.94531	12.0
211.30605	12.0
162.69189	12.0
209.70906	12.0
162.27997	12.0
209.8438	12.0
209.99846	12.0
210.42581	12.0
210.51816	12.0
210.58069	12.0
126.20097	12.0
210.7612	12.0
137.47392	12.0
210.93468	12.0
160.80382	12.0
137.74274	12.0
212.78624	12.0
213.4324	12.0
127.28469	12.0
227.99196	12.0
247.84605	12.0
230.10983	12.0
147.99467	12.0
229.91231	12.0
229.36917	12.0
252.97061	12.0
148.63033	12.0
227.82639	12.0
151.93282	12.0
227.47177	12.0
131.35147	12.0
151.13359	12.0
226.48624	12.0
226.35657	12.0
226.26817	12.0
226.07524	12.0
230.29854	12.0
146.5318	12.0
246.01332	12.0
245.42079	12.0
142.811	12.0
243.08989	12.0
142.41223	12.0
241.94307	12.0
132.94775	12.0
239.83803	12.0
82.50974	12.0
237.9944	12.0
237.83882	12.0
236.71352	12.0
244.43228	12.0
234.86246	12.0
232.8707	12.0
245.13246	12.0
231.93913	12.0
96.68736	12.0
225.97955	12.0
138.42513	12.0
99.50877	12.0
155.38387	12.0
217.4137	12.0
300.8056	12.0
216.19528	12.0
64.4901	12.0
215.811	12.0
133.59779	12.0
64.0246	12.0
225.11772	12.0
214.71906	12.0
138.55304	12.0
214.44363	12.0
272.86621	12.0
213.86324	12.0
177.2585	12.0
279.44217	12.0
217.91214	12.0
64.99123	12.0
218.68187	12.0
219.17307	12.0
152.16707	12.0
96.98128	12.0
224.97229	12.0
224.42035	12.0
223.79291	12.0
223.61128	12.0
223.41803	12.0
221.58482	12.0
140.58687	12.0
220.76634	12.0
256.3461	12.0
220.32278	12.0
220.15274	12.0
219.42104	12.0
219.25716	12.0
136.54204	12.0
208.64964	12.0
205.35838	12.0
202.14897	12.0
172.10739	12.0
199.4984	12.0
199.47488	12.0
199.39743	12.0
199.27162	12.0
301.82382	12.0
199.10162	12.0
134.96861	12.0
302.34125	12.0
198.95795	12.0
302.43658	12.0
302.50644	12.0
172.98984	12.0
173.50284	12.0
197.98532	12.0
170.95055	12.0
110.32311	12.0
110.09077	12.0
201.30472	12.0
202.06267	12.0
301.35275	12.0
301.39014	12.0
201.60634	12.0
169.05064	12.0
201.34085	12.0
200.90199	12.0
200.08389	12.0
200.79097	12.0
169.89459	12.0
200.56346	12.0
200.43312	12.0
170.17296	12.0
200.17256	12.0
197.83792	12.0
197.63411	12.0
173.79964	12.0
183.01111	12.0
116.03277	12.0
134.65707	12.0
116.21955	12.0
184.99168	12.0
314.97733	12.0
176.79205	12.0
181.23494	12.0
175.41325	12.0
181.10709	12.0
180.01228	12.0
118.65502	12.0
178.78459	12.0
178.25337	12.0
119.05217	12.0
176.35612	12.0
188.63225	12.0
174.07602	12.0
303.31601	12.0
196.67711	12.0
196.30235	12.0
196.25023	12.0
196.07878	12.0
174.16647	12.0
303.22391	12.0
111.4316	12.0
174.81714	12.0
194.86983	12.0
193.17705	12.0
305.74777	12.0
112.04131	12.0
305.90704	12.0
190.93645	12.0
167.75063	12.0
172.44801	12.0
301.05191	12.0
205.00771	12.0
204.99228	12.0
202.61707	12.0
202.79553	12.0
136.52258	12.0
203.7659	12.0
125.65701	12.0
166.8665	12.0
202.84155	12.0
135.97391	12.0
166.79567	12.0
202.29102	12.0
203.50598	12.0
124.9642	12.0
203.17642	12.0
204.39963	12.0
124.0147	12.0
166.89685	12.0
165.44263	12.0
205.14374	12.0
165.55853	12.0
165.76903	12.0
135.59279	12.0
203.88474	12.0
205.02454	12.0
203.78267	12.0
194.9628	11.0
197.38914	11.0
226.64395	11.0
152.76683	11.0
151.0397	11.0
96.52951	11.0
305.04782	11.0
204.33664	11.0
194.72359	11.0
305.10086	11.0
149.96327	11.0
303.00568	11.0
222.85046	11.0
149.87814	11.0
163.2482	11.0
72.35387	11.0
195.34174	11.0
303.05511	11.0
133.99084	11.0
196.40253	11.0
196.38606	11.0
133.85146	11.0
111.26937	11.0
225.18825	11.0
208.16051	11.0
225.34552	11.0
152.00284	11.0
208.00513	11.0
136.12582	11.0
207.54495	11.0
121.32816	11.0
195.94579	11.0
223.70209	11.0
197.30797	11.0
165.40233	11.0
223.47804	11.0
195.77722	11.0
228.49794	11.0
211.23061	11.0
191.5811	11.0
94.59865	11.0
236.02698	11.0
236.11876	11.0
244.31288	11.0
206.45866	11.0
86.95425	11.0
118.24363	11.0
181.81679	11.0
238.4796	11.0
136.83971	11.0
239.53784	11.0
118.48335	11.0
145.57083	11.0
240.44656	11.0
75.79831	11.0
241.71617	11.0
179.21303	11.0
136.65076	11.0
242.08932	11.0
178.98499	11.0
133.24715	11.0
133.28445	11.0
235.84798	11.0
204.91096	11.0
314.53082	11.0
188.97134	11.0
174.41211	11.0
229.80244	11.0
174.63722	11.0
204.45284	11.0
248.60977	11.0
230.05933	11.0
204.54247	11.0
308.78436	11.0
175.19542	11.0
163.52234	11.0
163.89572	11.0
146.33865	11.0
163.83806	11.0
231.80493	11.0
114.0487	11.0
187.09676	11.0
145.67719	11.0
119.69842	11.0
233.0052	11.0
300.9364	11.0
147.2653	11.0
222.06758	11.0
204.0134	11.0
209.77003	11.0
213.97926	11.0
101.03162	11.0
52.80552	11.0
214.28162	11.0
62.69094	11.0
200.61478	11.0
271.07358	11.0
200.52187	11.0
169.99033	11.0
202.95036	11.0
298.39359	11.0
210.23692	11.0
166.52512	11.0
298.48157	11.0
215.57802	11.0
215.6571	11.0
171.21184	11.0
199.79312	11.0
197.80074	11.0
103.56418	11.0
155.95935	11.0
127.6252	11.0
301.46155	11.0
201.10052	11.0
168.32187	11.0
137.97385	11.0
211.69913	11.0
201.92766	11.0
301.19296	11.0
201.79826	11.0
168.04247	11.0
135.31241	11.0
60.36892	11.0
212.08115	11.0
123.62569	11.0
201.27971	11.0
168.3727	11.0
123.29491	11.0
159.57925	11.0
212.6891	11.0
201.42841	11.0
138.18788	11.0
57.71888	11.0
202.53065	11.0
158.44319	11.0
203.24203	11.0
199.70592	11.0
198.67764	11.0
220.19633	11.0
154.64745	11.0
209.34052	11.0
209.31076	11.0
219.43555	11.0
219.73738	11.0
154.18016	11.0
219.97697	11.0
129.41144	11.0
256.97363	11.0
198.65417	11.0
198.61552	11.0
65.39845	11.0
220.47398	11.0
134.94359	11.0
220.57286	11.0
220.64995	11.0
198.40857	11.0
172.85977	11.0
130.96902	11.0
121.78594	11.0
208.82791	11.0
221.86771	11.0
218.91074	11.0
243.88754	11.0
217.98732	11.0
218.34024	11.0
172.42744	11.0
135.70341	11.0
155.58412	11.0
216.9288	11.0
218.02925	11.0
298.76755	11.0
134.20744	11.0
139.91307	11.0
205.15916	11.0
218.71518	11.0
74.0429	10.0
251.64534	10.0
135.4993	10.0
53.00282	10.0
133.54121	10.0
140.825	10.0
267.52371	10.0
133.30933	10.0
64.78693	10.0
133.66911	10.0
300.6969	10.0
141.52545	10.0
313.99438	10.0
140.91798	10.0
303.69815	10.0
135.10973	10.0
244.20116	10.0
138.09579	10.0
301.58908	10.0
138.36292	10.0
67.31208	10.0
246.90961	10.0
259.46466	10.0
309.89011	10.0
299.08249	10.0
254.07455	10.0
299.46027	10.0
53.45436	10.0
141.27626	10.0
177.76212	10.0
243.82178	10.0
164.89139	10.0
168.00058	10.0
167.85973	10.0
108.64474	10.0
167.26646	10.0
202.42476	10.0
203.22667	10.0
203.52834	10.0
203.72955	10.0
165.60265	10.0
204.19807	10.0
165.07504	10.0
204.754	10.0
204.79323	10.0
205.45242	10.0
205.84422	10.0
201.47287	10.0
164.75058	10.0
206.08736	10.0
206.28	10.0
125.78876	10.0
206.43053	10.0
206.5825	10.0
206.6543	10.0
207.05711	10.0
207.45326	10.0
163.07184	10.0
208.2679	10.0
208.31171	10.0
209.44962	10.0
209.49214	10.0
168.23549	10.0
109.48846	10.0
242.61223	10.0
195.7005	10.0
179.92163	10.0
117.91801	10.0
116.52696	10.0
184.10568	10.0
176.6098	10.0
175.52351	10.0
188.20076	10.0
189.99042	10.0
112.50928	10.0
174.33711	10.0
193.57468	10.0
194.03548	10.0
195.16112	10.0
195.50464	10.0
174.28281	10.0
200.93393	10.0
196.48625	10.0
197.48683	10.0
173.78545	10.0
110.98341	10.0
172.60107	10.0
198.78117	10.0
198.81708	10.0
198.99524	10.0
110.72359	10.0
199.18039	10.0
199.22739	10.0
199.30894	10.0
199.44722	10.0
199.92325	10.0
126.15916	10.0
210.29799	10.0
210.56079	10.0
95.59658	10.0
220.8391	10.0
221.06763	10.0
153.02596	10.0
223.00252	10.0
223.15025	10.0
224.64926	10.0
225.08687	10.0
151.61552	10.0
226.55846	10.0
96.02121	10.0
228.33661	10.0
228.57196	10.0
228.93187	10.0
148.8226	10.0
229.14528	10.0
210.77399	10.0
229.30095	10.0
132.28128	10.0
230.248	10.0
230.75499	10.0
89.30952	10.0
231.84668	10.0
232.00923	10.0
234.35248	10.0
234.6134	10.0
235.4361	10.0
236.65326	10.0
237.97325	10.0
144.99835	10.0
133.14203	10.0
153.49028	10.0
220.11787	10.0
220.022	10.0
159.53844	10.0
157.99483	10.0
213.62701	10.0
213.19069	10.0
158.61087	10.0
213.07489	10.0
159.00331	10.0
212.85194	10.0
218.87886	10.0
212.15674	10.0
159.69061	10.0
159.95926	10.0
126.71745	10.0
126.4365	10.0
210.84082	10.0
214.34756	10.0
214.50386	10.0
157.69708	10.0
157.45123	10.0
157.31487	10.0
215.54926	10.0
127.7093	10.0
128.00494	10.0
216.64333	10.0
155.42781	10.0
97.20514	10.0
217.18994	10.0
217.73871	10.0
155.01178	10.0
218.46904	10.0
218.5863	10.0
200.6675	10.0
199.07812	9.0

MSID: 8901
ID: 318
RETENTIONTIME: 28.51943
PRECURSORMZ: 345.1699
AREA: 36715904.0
PRECURSORTYPE: [M-H]-
SMILES: [H][C@]12[C@@H](O)[C@@H]3OC(=O)[C@@]1(CCCC2(C)C)C1=C3C=C(C(C)C)C(O)=C1O
NAME: isorosmanol
FORMULA: C20H26O5
INCHIKEY: UXVPWKDITRJELA-XLSPSMHOSA-N
CAS: nan
Molecular Weight: 346.423
Number of References: 36
Class: Abietane diterpenoids
Superclass: Diterpenoids
Pathway: Terpenoids
ppm: -0.29999999998153726
CMID: CM243
IONMODE: Negative
COLLISIONENERGY: 40±20eV
INSTRUMENTTYPE: AB SCIEX
INSTRUMENT: Q-TOF
Comment:  
Num Peaks: 769
345.17352	283647.0
283.17026	238683.0
227.10835	32661.0
268.14526	18757.0
267.13916	17041.0
253.12303	11181.0
212.08379	9466.0
273.18469	5639.0
301.17908	5159.0
240.1154	4734.0
239.10736	4463.0
214.09938	4314.0
255.13841	3158.0
201.09061	2515.0
213.09183	2382.0
299.16516	2156.0
225.09251	1996.0
265.15976	1559.0
228.11447	1485.0
282.16098	1429.0
317.17413	1376.0
211.07672	1104.0
281.15353	966.0
215.10789	938.0
200.08369	919.0
199.07516	900.0
238.09993	885.0
258.12534	865.0
259.17108	865.0
226.09857	842.0
249.12706	751.0
252.11444	740.0
265.12308	673.0
251.10632	657.0
243.10338	630.0
198.06781	577.0
184.08823	533.0
250.13585	493.0
203.10782	485.0
241.12251	483.0
188.08237	459.0
197.05888	455.0
209.09666	449.0
271.17166	431.0
187.07646	409.0
255.17125	377.0
165.09248	353.0
202.09726	331.0
186.06792	331.0
184.05235	308.0
237.0916	283.0
230.09326	282.0
235.11292	275.0
257.15393	266.0
185.05809	259.0
257.1178	250.0
285.15115	239.0
237.16399	237.0
284.14169	232.0
229.08723	232.0
265.14062	230.0
273.17175	229.0
243.1385	222.0
254.13362	221.0
272.17725	210.0
199.11247	208.0
217.08727	207.0
230.1304	203.0
164.08492	203.0
210.10327	197.0
266.12857	196.0
317.16541	196.0
256.11069	190.0
222.10385	188.0
215.06767	187.0
242.13174	185.0
327.16107	185.0
204.07755	183.0
183.04538	182.0
281.14697	180.0
97.06509	178.0
185.09407	172.0
210.06778	171.0
344.03009	170.0
214.09079	169.0
221.09653	168.0
216.0799	167.0
287.16388	167.0
224.08138	140.0
228.08932	140.0
269.11951	139.0
209.06126	138.0
159.0439	137.0
187.04031	135.0
299.15161	135.0
223.07689	133.0
172.05199	132.0
217.12045	131.0
245.18895	129.0
269.15485	128.0
207.07945	127.0
246.08987	124.0
223.11198	124.0
224.11803	122.0
256.14517	122.0
239.17702	121.0
241.08603	120.0
258.16153	119.0
266.1669	119.0
245.15675	119.0
237.12779	115.0
255.12277	113.0
229.12282	110.0
171.07971	110.0
196.05389	108.0
344.021	107.0
286.15414	103.0
223.14563	102.0
251.14513	100.0
245.07855	99.0
163.07542	98.0
298.15482	97.0
137.0596	96.0
231.06726	95.0
282.24655	95.0
282.22845	93.0
170.07317	93.0
206.05623	92.0
171.04642	92.0
194.07211	91.0
184.0683	87.0
201.05589	86.0
309.14554	86.0
183.11693	85.0
184.07626	84.0
189.13138	83.0
189.05463	83.0
271.13297	81.0
231.1015	80.0
236.11853	80.0
202.06107	77.0
197.13586	75.0
177.09148	74.0
245.11688	74.0
156.05704	74.0
196.12521	72.0
263.14639	72.0
244.1091	71.0
158.03897	71.0
183.08247	71.0
222.13887	69.0
201.07117	68.0
181.10164	67.0
259.13324	66.0
264.15289	65.0
330.14359	64.0
252.10045	64.0
216.11732	64.0
258.15521	64.0
243.17668	63.0
179.06866	63.0
297.15463	63.0
151.07445	63.0
239.14371	62.0
175.07602	62.0
178.06105	62.0
231.17743	62.0
221.15915	61.0
188.11998	61.0
212.06239	60.0
203.06876	60.0
300.17383	59.0
282.27286	57.0
183.03743	57.0
200.0463	56.0
280.14462	55.0
195.08295	55.0
155.086	54.0
137.09515	53.0
197.09738	53.0
344.05914	52.0
183.105	52.0
299.13467	52.0
189.09232	51.0
162.06905	51.0
173.05922	51.0
291.19717	51.0
150.06868	50.0
204.11391	50.0
206.07309	50.0
222.0732	50.0
171.03488	49.0
211.10516	49.0
312.13318	49.0
272.10294	49.0
199.09727	49.0
298.15146	49.0
187.11531	49.0
327.12387	48.0
171.1002	48.0
241.11035	47.0
235.14745	47.0
345.13898	47.0
139.0744	46.0
169.06322	46.0
185.13004	46.0
200.06708	46.0
189.44395	45.0
156.09619	45.0
185.0914	45.0
271.09427	45.0
289.177	45.0
213.05609	45.0
175.1123	45.0
174.03192	45.0
238.13467	44.0
284.17303	44.0
267.11514	44.0
315.15952	44.0
228.03018	44.0
171.1143	44.0
157.06302	43.0
255.09773	43.0
188.04477	43.0
236.08241	43.0
207.11891	42.0
208.08824	42.0
231.60495	42.0
143.0497	42.0
196.09093	42.0
165.08495	42.0
198.01131	42.0
226.35634	41.0
271.14105	41.0
198.47597	41.0
231.16998	41.0
228.1411	40.0
285.5614	40.0
211.04968	39.0
198.1064	39.0
145.02887	39.0
238.06819	39.0
196.04294	38.0
231.00475	38.0
247.14946	38.0
244.09991	38.0
213.12613	38.0
266.15253	38.0
182.03851	38.0
193.10336	37.0
191.10408	37.0
239.07858	37.0
284.30511	37.0
210.04366	37.0
192.07732	37.0
230.17052	37.0
284.0575	37.0
156.76616	37.0
282.12317	37.0
195.04329	37.0
253.09187	36.0
191.98639	36.0
257.19003	36.0
199.53693	36.0
172.08667	36.0
209.13348	36.0
155.05064	36.0
226.3475	36.0
189.30649	36.0
187.0912	36.0
190.09688	36.0
231.13872	36.0
190.06447	36.0
256.07935	35.0
227.09065	35.0
232.05077	35.0
174.1004	35.0
220.09006	35.0
211.15071	35.0
194.76575	35.0
241.16054	35.0
191.80191	35.0
252.08334	35.0
234.09746	35.0
240.36888	34.0
225.12631	34.0
203.03247	34.0
212.1223	34.0
274.15671	34.0
236.15614	34.0
302.11279	34.0
231.73312	34.0
218.90038	34.0
228.89459	34.0
232.15221	33.0
191.26521	33.0
221.18245	33.0
282.19882	33.0
191.90634	33.0
189.0627	33.0
233.16345	33.0
187.99911	33.0
299.11945	33.0
293.11703	33.0
301.21985	33.0
273.14584	33.0
231.28316	33.0
187.3927	33.0
239.47092	33.0
209.0726	33.0
268.11481	33.0
279.13913	33.0
226.92982	33.0
258.10016	33.0
231.55727	32.0
244.58823	32.0
227.44792	32.0
237.5472	32.0
229.06056	32.0
229.59146	32.0
231.95082	32.0
216.06117	32.0
199.67667	32.0
193.06662	32.0
344.08823	32.0
181.09241	32.0
83.05048	32.0
212.05098	31.0
232.18504	31.0
232.64485	31.0
242.38629	31.0
228.3275	31.0
317.13751	31.0
186.88632	31.0
209.0556	31.0
227.85275	31.0
241.39023	31.0
242.08603	31.0
250.10797	31.0
302.15195	31.0
201.1281	31.0
227.13049	31.0
185.04744	31.0
192.32304	31.0
276.15308	31.0
250.98375	31.0
179.04376	30.0
229.01018	30.0
236.10649	30.0
229.99078	30.0
267.25922	30.0
252.54533	30.0
232.82114	30.0
181.06474	30.0
249.10078	30.0
268.17734	30.0
145.06779	30.0
232.45222	30.0
163.11169	30.0
170.10892	29.0
204.94861	29.0
239.0695	29.0
228.83978	29.0
197.05063	29.0
231.36507	29.0
280.69067	29.0
257.4288	29.0
230.05316	29.0
226.79855	29.0
188.19789	29.0
221.08925	29.0
191.03235	29.0
233.09766	28.0
205.99298	28.0
217.04831	28.0
188.06088	28.0
189.16235	28.0
225.47908	28.0
255.06802	28.0
229.40157	28.0
229.452	28.0
193.87163	28.0
223.8	28.0
257.10526	28.0
284.008	28.0
284.76105	28.0
211.53793	28.0
330.14001	28.0
243.07437	28.0
190.82668	28.0
266.6608	28.0
252.32285	28.0
135.08113	28.0
230.35774	27.0
237.28012	27.0
285.74017	27.0
224.6916	27.0
249.38062	27.0
228.54063	27.0
155.59373	27.0
210.20122	27.0
187.61261	27.0
231.49915	27.0
231.63327	27.0
239.96065	27.0
283.71927	26.0
235.6162	26.0
217.80063	26.0
232.95564	26.0
281.06323	26.0
248.10333	26.0
233.51198	26.0
222.31259	26.0
272.84976	26.0
275.07196	26.0
231.39932	26.0
321.33673	26.0
230.87825	26.0
270.37564	26.0
236.56415	26.0
233.74698	26.0
159.11925	26.0
226.67468	26.0
236.77959	26.0
261.18344	26.0
284.27542	26.0
237.80989	26.0
239.23912	26.0
244.14735	26.0
240.67415	26.0
309.46069	26.0
224.98674	26.0
167.05234	26.0
237.23637	26.0
226.59802	26.0
297.10062	26.0
331.55609	26.0
174.06422	26.0
255.70026	26.0
343.92474	26.0
251.44162	25.0
284.42899	25.0
266.46735	25.0
239.99553	25.0
287.35309	25.0
157.4265	25.0
182.89436	25.0
243.05911	25.0
253.16042	25.0
284.72302	25.0
188.24626	25.0
238.46272	25.0
247.38351	25.0
188.31076	25.0
158.797	25.0
287.12903	25.0
264.13541	25.0
234.36574	25.0
154.03778	25.0
248.46596	25.0
285.05692	25.0
188.43843	25.0
283.85782	25.0
237.11121	25.0
188.93884	25.0
232.49701	25.0
282.61188	25.0
232.42384	25.0
193.02988	25.0
192.77826	25.0
209.36014	25.0
229.50838	25.0
229.36894	25.0
226.02643	25.0
211.39125	25.0
212.1123	25.0
212.78745	25.0
213.38498	25.0
228.60133	25.0
214.37172	25.0
228.42369	25.0
228.3423	25.0
228.21654	25.0
228.16772	25.0
191.8141	25.0
190.34944	25.0
191.74359	25.0
218.08542	25.0
219.10471	25.0
191.38306	25.0
102.20427	25.0
317.12009	25.0
226.90622	25.0
224.62408	25.0
190.98497	25.0
225.37616	25.0
208.56882	25.0
225.68353	25.0
199.96043	25.0
232.28801	25.0
194.06256	25.0
203.05479	25.0
189.7352	25.0
195.10347	25.0
344.16269	25.0
230.96307	25.0
203.77687	25.0
195.11168	25.0
282.94946	25.0
189.48035	25.0
230.73393	25.0
230.69527	25.0
202.13625	25.0
230.49451	25.0
344.70065	25.0
230.43802	25.0
230.33992	25.0
198.58359	25.0
196.57117	25.0
203.08829	25.0
101.04235	24.0
184.66133	24.0
154.83611	24.0
191.63377	24.0
250.59294	24.0
249.83392	24.0
185.57001	24.0
313.47717	24.0
223.65793	24.0
157.90974	24.0
285.22888	24.0
270.12128	24.0
192.20898	24.0
208.07977	24.0
170.40536	24.0
192.73883	24.0
193.05574	24.0
343.6633	24.0
192.3665	24.0
205.09163	24.0
203.38704	24.0
191.89006	24.0
255.50769	24.0
180.05547	24.0
69.43183	24.0
214.02917	24.0
98.6791	24.0
254.83817	24.0
261.98328	24.0
258.086	24.0
250.077	24.0
236.02975	24.0
226.7027	24.0
241.35066	24.0
229.23845	24.0
231.33975	24.0
228.82793	24.0
236.36688	24.0
233.13654	24.0
148.05292	24.0
130.0426	24.0
236.4783	24.0
242.95531	24.0
226.63783	24.0
232.33279	24.0
232.90034	24.0
229.19545	23.0
260.22842	23.0
190.00777	23.0
210.64017	23.0
228.45181	23.0
228.9257	23.0
192.21713	23.0
237.77214	23.0
255.79109	23.0
181.42201	23.0
228.62503	23.0
228.36154	23.0
230.23738	23.0
189.96323	23.0
231.76743	23.0
232.6852	23.0
195.11852	23.0
136.28455	23.0
232.03287	23.0
158.62674	23.0
233.28906	23.0
201.78415	23.0
160.53677	23.0
207.04845	23.0
269.10345	23.0
234.54716	23.0
204.01599	23.0
301.68744	23.0
235.86279	23.0
253.3786	23.0
264.81702	23.0
253.72321	23.0
192.46838	23.0
227.48483	23.0
126.3549	23.0
187.92125	23.0
246.16516	23.0
140.49734	23.0
227.74191	23.0
246.02843	23.0
186.77121	23.0
225.98079	23.0
240.07747	23.0
190.24812	23.0
239.16794	23.0
285.41086	23.0
168.05627	22.0
215.97914	22.0
193.34839	22.0
265.72455	22.0
227.05376	22.0
242.21251	22.0
248.32704	22.0
169.02756	22.0
230.92735	22.0
191.00934	22.0
159.25516	22.0
234.34474	22.0
161.05211	22.0
247.11098	22.0
158.07468	22.0
272.71875	22.0
344.57523	22.0
199.48436	22.0
242.54488	22.0
59.01158	22.0
155.82591	22.0
170.03613	22.0
226.44621	22.0
185.26331	22.0
228.47105	22.0
288.32004	22.0
238.73651	22.0
146.03658	22.0
184.85567	22.0
238.94081	22.0
229.77994	22.0
252.26218	22.0
284.80069	22.0
259.88098	22.0
217.94518	22.0
221.13293	22.0
228.66205	21.0
186.65346	21.0
227.94737	21.0
186.46887	21.0
273.12805	21.0
193.50774	21.0
231.91504	21.0
227.70792	21.0
217.21281	21.0
242.41678	21.0
199.87183	21.0
255.28859	21.0
224.59473	21.0
344.87341	21.0
196.32137	21.0
196.38312	21.0
215.34781	21.0
232.59856	21.0
155.18602	21.0
185.83023	21.0
228.87534	21.0
159.07848	21.0
201.95529	21.0
191.505	21.0
187.58847	21.0
206.23058	21.0
227.67097	21.0
265.05771	21.0
208.47124	21.0
284.64868	21.0
205.12669	21.0
193.22177	21.0
229.61816	21.0
234.77669	21.0
192.53088	21.0
231.036	21.0
187.19435	21.0
229.03239	21.0
268.77423	21.0
185.67807	21.0
208.03458	21.0
193.44507	21.0
253.57193	21.0
147.04301	20.0
152.06546	20.0
150.58737	20.0
196.67416	20.0
233.67812	20.0
186.96933	20.0
238.42491	20.0
237.47174	20.0
198.21806	20.0
188.54869	20.0
199.04892	20.0
156.04358	20.0
233.2128	20.0
232.36414	20.0
232.08955	20.0
231.80768	20.0
231.20274	20.0
229.83932	20.0
225.95724	20.0
191.07837	20.0
217.82086	20.0
214.14381	20.0
192.09767	20.0
212.4005	20.0
192.39096	20.0
198.90663	20.0
193.24219	20.0
193.46687	20.0
201.67149	20.0
240.82913	20.0
235.07237	20.0
244.03719	20.0
254.08679	20.0
167.08524	20.0
264.11472	20.0
262.44473	20.0
259.12219	20.0
257.48538	20.0
255.53273	20.0
258.87793	20.0
245.77351	20.0
207.46152	19.0
240.7881	19.0
286.70605	19.0
152.30466	19.0
264.47131	19.0
212.90889	19.0
168.87482	19.0
105.06834	19.0
192.02982	19.0
70.65462	19.0
230.82915	19.0
188.57423	19.0
176.39366	19.0
153.23787	19.0
157.69569	19.0
244.30957	18.0
95.04865	18.0
284.10703	18.0
266.28674	18.0
162.59183	18.0
234.97479	18.0
191.21782	18.0
191.30449	18.0
250.90929	18.0
316.09723	18.0
223.30365	18.0
190.92543	18.0
230.03534	18.0
236.94687	18.0
201.25034	18.0
55.9544	17.0
172.04042	17.0
247.40355	17.0
282.91324	16.0
79.05348	16.0
294.12048	15.0
52.02771	14.0

MSID: 8902
ID: 503
RETENTIONTIME: 31.99972
PRECURSORMZ: 387.182
AREA: 34810340.0
PRECURSORTYPE: [M-H]-
SMILES: [H][C@@]12[C@@H]3OC(=O)[C@@]1(CCCC2(C)C)C1=C([C@@H]3OCC)C(=O)C(C(C)C)=C(O)C1=O
NAME: canariquinone
FORMULA: C22H28O6
INCHIKEY: FYSABPSXOXYZFC-WEMPKCCASA-N
CAS: 121927-69-3
Molecular Weight: 388.461
Number of References: 87
Class: Abietane diterpenoids
Superclass: Diterpenoids
Pathway: Terpenoids
ppm: 1.2350000000651562
CMID: CM243
IONMODE: Negative
COLLISIONENERGY: 40±20eV
INSTRUMENTTYPE: AB SCIEX
INSTRUMENT: Q-TOF
Comment:  
Num Peaks: 858
312.13791	353721.0
387.18387	166103.0
297.11371	92092.0
327.16061	39033.0
59.01375	21012.0
243.06639	16355.0
296.10516	14967.0
311.12662	10945.0
269.08218	10550.0
282.08987	7553.0
254.05833	4667.0
279.10275	4014.0
284.10498	3542.0
257.08292	3178.0
372.15622	2661.0
251.10751	2487.0
283.0957	2441.0
241.0872	1284.0
295.09665	938.0
280.11145	914.0
210.06749	844.0
281.08255	808.0
228.04021	716.0
327.14645	589.0
236.08508	557.0
295.13367	450.0
270.08871	412.0
271.0939	399.0
239.07068	391.0
267.10358	388.0
226.06293	377.0
283.13031	355.0
253.05257	349.0
227.03426	348.0
268.07434	329.0
267.06677	327.0
241.12065	311.0
225.05547	295.0
286.11896	289.0
255.10364	277.0
294.12344	276.0
253.08372	267.0
231.06693	240.0
264.07614	239.0
244.07356	199.0
250.09987	198.0
309.14853	194.0
293.11664	194.0
241.05223	189.0
284.14294	185.0
240.07712	180.0
256.07428	179.0
254.09267	178.0
330.1431	174.0
285.11273	163.0
229.08691	152.0
211.04085	145.0
345.1694	139.0
310.12213	134.0
267.13718	130.0
242.05522	126.0
311.09381	118.0
253.12422	117.0
235.11258	111.0
278.09424	108.0
239.03586	105.0
255.0661	100.0
223.0795	99.0
198.03169	98.0
245.08127	97.0
237.05357	93.0
215.07169	92.0
200.04741	88.0
235.07504	88.0
258.08878	83.0
268.10962	82.0
385.89774	78.0
253.06815	78.0
216.08102	77.0
240.04222	77.0
227.06967	76.0
233.09433	76.0
226.02316	73.0
238.05879	70.0
232.07579	70.0
265.12271	68.0
242.09636	68.0
237.09126	67.0
385.88235	67.0
284.07855	67.0
279.0733	66.0
187.07486	66.0
224.0444	65.0
213.05293	65.0
230.09442	61.0
263.07135	60.0
228.07866	60.0
286.10571	60.0
265.09241	59.0
268.06631	57.0
222.06996	57.0
239.06462	56.0
215.03435	56.0
209.06239	55.0
261.08969	54.0
229.04987	53.0
225.09073	52.0
280.07047	50.0
243.03128	50.0
251.08115	49.0
252.07988	49.0
309.11066	49.0
282.11453	49.0
254.04585	49.0
250.0627	47.0
209.81635	47.0
255.13805	47.0
311.65195	47.0
198.06891	47.0
266.12979	46.0
205.10117	46.0
277.08432	45.0
236.06854	45.0
313.38486	45.0
214.06326	45.0
183.04512	45.0
298.19162	44.0
313.13873	43.0
214.02458	43.0
385.93045	43.0
232.06834	42.0
186.06898	42.0
266.0611	42.0
187.0695	42.0
276.96207	42.0
281.51614	41.0
206.09108	40.0
205.79315	40.0
229.12396	40.0
210.52902	40.0
216.52174	40.0
208.05547	39.0
231.05205	39.0
296.89264	38.0
184.05475	38.0
299.16473	38.0
226.05409	38.0
254.02711	38.0
228.12007	38.0
343.50125	38.0
216.63702	38.0
223.06342	37.0
208.6449	37.0
256.95731	37.0
217.07976	37.0
175.07318	37.0
209.56393	36.0
209.45053	36.0
313.49582	36.0
326.06335	36.0
172.0556	36.0
211.85109	36.0
220.37749	36.0
209.34991	36.0
312.93948	36.0
197.05861	36.0
225.12599	36.0
222.40866	36.0
221.55513	36.0
252.68661	36.0
221.09622	36.0
312.95334	36.0
222.61024	36.0
208.7892	35.0
314.46927	35.0
209.13461	35.0
210.33298	35.0
249.09116	35.0
252.11253	35.0
326.07748	35.0
207.11861	35.0
243.58577	35.0
229.66385	34.0
212.05069	34.0
217.71794	34.0
315.25296	34.0
210.39406	34.0
265.04776	34.0
211.70146	34.0
313.39526	34.0
257.04523	34.0
236.05951	34.0
252.02858	34.0
220.27428	34.0
220.8764	34.0
207.73212	34.0
174.69244	33.0
233.36652	33.0
205.85216	33.0
176.7825	33.0
311.17154	33.0
215.54298	33.0
259.80801	33.0
217.93619	33.0
251.07028	33.0
257.21167	33.0
214.86636	33.0
313.22192	33.0
268.31168	33.0
256.11032	33.0
208.0696	33.0
257.80096	33.0
174.44014	33.0
213.43045	33.0
231.51669	33.0
210.57733	32.0
225.01874	32.0
226.27499	32.0
212.52867	32.0
214.23236	32.0
213.65799	32.0
283.05945	32.0
218.14586	32.0
266.10742	32.0
203.06706	32.0
386.5155	32.0
264.35788	32.0
207.28354	32.0
172.69202	32.0
208.91092	32.0
268.66309	32.0
201.0556	32.0
210.19525	31.0
211.67296	31.0
246.06648	31.0
212.65004	31.0
270.0694	31.0
250.63445	31.0
313.2583	31.0
235.16965	31.0
314.62732	31.0
315.42337	31.0
211.38527	31.0
202.97777	31.0
210.94412	31.0
209.47321	31.0
280.57874	31.0
208.13599	31.0
213.9014	30.0
210.70099	30.0
208.43137	30.0
249.12825	30.0
202.06218	30.0
253.73534	30.0
310.6449	30.0
214.18793	30.0
209.22383	30.0
159.04491	30.0
316.12292	30.0
217.87259	30.0
209.99084	30.0
203.33928	30.0
199.03621	30.0
211.16179	30.0
211.07642	30.0
243.48796	30.0
208.47237	29.0
255.56682	29.0
257.12057	29.0
311.64157	29.0
214.99414	29.0
185.0565	29.0
208.57983	29.0
216.41656	29.0
211.1931	29.0
262.09705	29.0
170.041	29.0
286.14545	29.0
205.47157	29.0
213.09009	29.0
210.61571	29.0
242.2518	29.0
249.08498	29.0
210.09871	29.0
242.27924	29.0
265.73853	29.0
206.66788	28.0
281.15314	28.0
259.1644	28.0
206.76643	28.0
218.49747	28.0
258.40982	28.0
273.10986	28.0
299.12747	28.0
192.48035	28.0
248.77287	28.0
214.10051	28.0
204.12622	28.0
214.05611	28.0
212.5815	28.0
222.02765	28.0
205.74118	28.0
239.2403	28.0
208.43843	28.0
206.82558	28.0
200.08479	28.0
262.73315	27.0
266.08505	27.0
256.04294	27.0
259.39935	27.0
224.73093	27.0
221.05981	27.0
254.60338	27.0
218.54813	27.0
235.78876	27.0
230.0558	27.0
206.22185	27.0
213.04007	27.0
207.05096	27.0
182.03297	27.0
210.03767	27.0
207.41185	27.0
291.13159	27.0
207.99049	27.0
205.95192	27.0
209.3896	27.0
313.02783	27.0
313.78195	27.0
202.09419	27.0
208.19957	27.0
212.08348	27.0
208.17696	27.0
230.92256	26.0
267.48141	26.0
183.09016	26.0
258.35944	26.0
211.33829	26.0
258.72946	26.0
237.28583	26.0
237.02342	26.0
206.35687	26.0
258.78619	26.0
268.72409	26.0
277.28812	26.0
206.96643	26.0
239.6646	26.0
205.66252	26.0
227.21579	26.0
255.03169	26.0
277.67798	26.0
208.38046	26.0
208.52751	26.0
310.75708	26.0
314.17413	26.0
309.34314	26.0
228.91797	26.0
231.90277	26.0
207.67708	26.0
281.1745	26.0
311.61044	26.0
228.06682	26.0
268.50101	26.0
257.60916	26.0
257.68149	26.0
257.73965	26.0
212.24324	26.0
207.34134	26.0
223.88466	26.0
255.74689	26.0
275.35748	26.0
213.9859	26.0
264.27032	26.0
214.64679	26.0
203.77939	26.0
272.83643	26.0
266.75	26.0
285.14911	26.0
219.9561	26.0
263.68164	26.0
313.30685	26.0
215.8522	26.0
286.41885	26.0
204.71007	26.0
214.92952	26.0
251.23634	26.0
217.17354	26.0
270.36398	26.0
194.94319	26.0
241.03094	26.0
212.31743	26.0
260.96631	26.0
317.22601	26.0
275.16904	26.0
205.61057	26.0
271.59235	26.0
290.34845	26.0
250.71663	26.0
296.04282	26.0
295.45676	26.0
198.15851	26.0
272.72482	25.0
202.41173	25.0
199.974	25.0
207.9213	25.0
231.28134	25.0
203.89124	25.0
202.69464	25.0
231.04311	25.0
278.89502	25.0
273.6944	25.0
178.47267	25.0
255.48228	25.0
271.06003	25.0
253.62927	25.0
275.46149	25.0
195.36591	25.0
206.00252	25.0
216.29124	25.0
206.24997	25.0
204.78293	25.0
236.29128	25.0
206.33295	25.0
270.69095	25.0
206.79459	25.0
269.04523	25.0
204.65683	25.0
243.40546	25.0
313.47675	25.0
204.53496	25.0
204.30534	25.0
243.85789	25.0
274.44662	25.0
216.55632	25.0
165.25084	25.0
230.70088	25.0
317.04987	25.0
220.75853	25.0
214.32697	25.0
213.36894	25.0
212.79715	25.0
261.15775	25.0
260.55673	25.0
158.67586	25.0
211.31693	25.0
224.08545	25.0
224.3098	25.0
297.05969	25.0
255.98811	25.0
224.86453	25.0
224.9688	25.0
266.97076	25.0
293.73059	25.0
214.60233	25.0
219.23053	25.0
219.11165	25.0
219.03627	25.0
218.56116	25.0
367.76752	25.0
372.10333	25.0
215.22107	25.0
215.60913	25.0
217.84222	25.0
290.61719	25.0
217.56914	25.0
217.09129	25.0
216.79849	25.0
386.8602	25.0
267.24283	25.0
283.16327	25.0
210.97826	25.0
209.77521	25.0
267.65121	25.0
302.60107	25.0
302.90948	25.0
267.97333	25.0
307.07379	25.0
307.83447	25.0
228.20438	25.0
282.61313	25.0
209.69153	25.0
164.27917	25.0
313.23752	25.0
256.83487	25.0
209.03265	25.0
173.69208	25.0
210.31026	25.0
282.19186	25.0
210.59012	25.0
267.39975	25.0
225.442	25.0
210.75642	25.0
210.71805	25.0
301.27042	25.0
258.31537	25.0
201.81308	25.0
269.53857	24.0
257.35617	24.0
174.011	24.0
386.21909	24.0
185.06583	24.0
251.14632	24.0
266.64923	24.0
265.20242	24.0
261.59628	24.0
270.28671	24.0
187.40317	24.0
313.56171	24.0
258.66962	24.0
372.70428	24.0
313.70737	24.0
188.58203	24.0
197.61299	24.0
264.66687	24.0
315.0061	24.0
198.00827	24.0
330.36023	24.0
182.07129	24.0
252.85477	24.0
261.92108	24.0
163.83514	24.0
150.05766	24.0
180.15114	24.0
238.64236	24.0
201.97588	24.0
278.07138	24.0
312.66235	24.0
311.90439	24.0
284.17099	24.0
235.60535	24.0
207.01997	24.0
207.20319	24.0
212.69002	24.0
223.11314	24.0
223.27553	24.0
229.89394	24.0
276.81866	24.0
224.19981	24.0
224.45209	24.0
211.64305	24.0
210.37134	24.0
202.23622	24.0
226.5417	24.0
228.41745	24.0
209.74117	24.0
303.51654	24.0
213.52202	24.0
282.04218	24.0
205.29755	24.0
202.5441	24.0
218.23843	24.0
239.10854	24.0
288.72882	24.0
218.83197	24.0
292.6189	24.0
240.11507	24.0
240.58873	24.0
205.04086	24.0
206.15154	24.0
218.19649	24.0
217.01915	24.0
242.03999	24.0
226.09827	23.0
211.46643	23.0
323.31946	23.0
215.99179	23.0
226.21902	23.0
385.85544	23.0
226.63751	23.0
210.2563	23.0
216.27109	23.0
315.0426	23.0
212.12341	23.0
298.12567	23.0
315.35031	23.0
223.47897	23.0
260.13486	23.0
293.05124	23.0
346.68295	23.0
218.59012	23.0
222.83823	23.0
227.42839	23.0
219.33638	23.0
220.17256	23.0
214.38863	23.0
222.66431	23.0
314.40848	23.0
227.67361	23.0
255.25069	23.0
280.85275	23.0
235.70306	23.0
206.91853	23.0
269.93585	23.0
312.77667	23.0
191.58876	23.0
205.64989	23.0
205.57687	23.0
197.09709	23.0
205.1783	23.0
274.77118	23.0
204.19478	23.0
274.31198	23.0
203.44542	23.0
202.89406	23.0
201.15004	23.0
271.38098	23.0
178.31702	23.0
233.61491	23.0
233.08537	23.0
208.03569	23.0
166.67513	23.0
170.88356	23.0
209.31308	23.0
256.79721	23.0
171.48703	23.0
256.53677	23.0
314.21579	23.0
256.43484	23.0
229.30484	23.0
173.65466	23.0
208.95479	23.0
279.61505	23.0
231.00293	23.0
216.51021	23.0
313.85657	22.0
328.16391	22.0
276.5499	22.0
316.28659	22.0
313.08154	22.0
322.01422	22.0
312.68661	22.0
316.60538	22.0
230.30688	22.0
228.70319	22.0
222.37508	22.0
208.89676	22.0
232.43098	22.0
209.00009	22.0
210.13988	22.0
224.36699	22.0
228.72984	22.0
210.80476	22.0
218.79866	22.0
207.08902	22.0
246.59827	22.0
217.41028	22.0
213.24022	22.0
214.88646	22.0
217.19952	22.0
237.76274	22.0
241.59685	22.0
208.61803	22.0
254.32532	22.0
204.05208	22.0
205.22038	22.0
228.24728	22.0
134.59085	22.0
141.16885	22.0
151.48013	22.0
162.44678	22.0
228.16296	22.0
201.09172	22.0
201.57944	22.0
203.81154	22.0
240.54317	22.0
256.28589	22.0
205.54738	22.0
206.29216	22.0
227.61156	22.0
254.77841	22.0
206.61015	22.0
226.93541	21.0
223.7572	21.0
224.49904	21.0
218.43523	21.0
225.53171	21.0
216.18036	21.0
227.27779	21.0
265.35715	21.0
215.18515	21.0
209.83478	21.0
370.93683	21.0
194.15915	21.0
206.45535	21.0
207.25534	21.0
207.87187	21.0
310.09109	21.0
210.17253	21.0
292.91547	21.0
210.27618	21.0
210.86591	21.0
211.69148	21.0
298.11383	21.0
213.10153	21.0
213.21448	21.0
210.65408	21.0
210.44662	21.0
254.9707	21.0
253.53259	21.0
244.43628	21.0
257.43787	21.0
272.09933	21.0
239.70552	21.0
271.14066	21.0
237.70537	21.0
252.35982	21.0
260.3418	21.0
252.80338	21.0
232.9015	21.0
248.90573	21.0
278.29352	21.0
258.54993	21.0
258.2178	21.0
253.28004	20.0
212.83144	20.0
171.08075	20.0
212.33313	20.0
212.00505	20.0
204.5938	20.0
254.53775	20.0
251.61987	20.0
158.07199	20.0
207.43584	20.0
269.73154	20.0
263.91544	20.0
208.11621	20.0
146.28262	20.0
252.49207	20.0
252.75667	20.0
245.94669	20.0
270.04849	20.0
168.96622	20.0
253.88979	20.0
209.91707	20.0
257.93304	20.0
245.63348	20.0
213.79256	20.0
386.90643	20.0
279.69366	20.0
194.65343	20.0
232.18173	20.0
232.35634	20.0
226.754	20.0
226.24553	20.0
226.1881	20.0
200.82796	20.0
233.05696	20.0
277.8934	20.0
223.38091	20.0
330.65396	20.0
219.62654	20.0
228.27835	20.0
259.48611	20.0
235.8414	20.0
201.87291	20.0
215.78316	20.0
202.32257	20.0
244.62923	20.0
214.46463	20.0
214.43881	20.0
314.78714	20.0
213.87274	20.0
172.54663	19.0
256.4819	19.0
313.01572	19.0
206.0714	19.0
272.40149	19.0
254.70807	19.0
327.77197	19.0
369.16608	19.0
225.38614	19.0
341.10425	19.0
235.34387	19.0
216.75668	19.0
254.49088	19.0
215.4438	19.0
296.70535	19.0
146.03519	19.0
174.80507	19.0
250.82518	19.0
258.95792	19.0
187.60966	19.0
319.543	18.0
262.55859	18.0
173.27547	18.0
229.4769	18.0
233.28127	18.0
209.8589	18.0
242.57808	18.0
207.6037	18.0
235.74666	18.0
219.78621	18.0
207.35968	18.0
210.21938	18.0
256.61206	18.0
257.98337	18.0
193.07451	18.0
384.99606	17.0
59.59292	17.0
137.05139	17.0
175.46211	17.0
227.87608	16.0
373.8811	16.0
179.44864	16.0
284.82343	16.0
256.242	16.0
255.34456	16.0
360.26053	14.0
375.98209	13.0
361.65405	13.0
363.5318	13.0
365.27032	13.0
130.87907	13.0
112.1022	13.0
161.21223	13.0
129.54707	13.0
127.54193	13.0
125.06134	13.0
105.58779	13.0
146.76508	13.0
378.50986	13.0
108.31605	13.0
381.04611	13.0
382.61713	13.0
123.04573	13.0
121.79753	13.0
120.12385	13.0
119.03265	13.0
118.0858	13.0
116.3048	13.0
114.24512	13.0
379.89432	13.0
358.61374	13.0
356.99661	13.0
354.25793	13.0
324.63437	13.0
145.06406	13.0
143.42455	13.0
141.48085	13.0
104.98189	13.0
147.81805	13.0
152.04593	13.0
153.66223	13.0
134.94212	13.0
154.76643	13.0
332.99435	13.0
334.3306	13.0
336.85107	13.0
338.67599	13.0
339.68958	13.0
157.05298	13.0
342.0834	13.0
159.69518	13.0
133.51825	13.0
131.98041	13.0
347.28674	13.0
350.67841	13.0
352.43741	13.0
110.25703	13.0

MSID: 8903
ID: 608
RETENTIONTIME: 35.91067
PRECURSORMZ: 455.3532
AREA: 29778812.0
PRECURSORTYPE: [M-H]-
SMILES: [H][C@@]12[C@@H](C)[C@H](C)CC[C@@]1(CC[C@]1(C)C2=CC[C@]2([H])[C@@]3(C)CC[C@H](O)C(C)(C)[C@]3([H])CC[C@@]12C)C(O)=O
NAME: ursolic acid
FORMULA: C30H48O3
INCHIKEY: WCGUUGGRBIKTOS-GPOJBZKASA-N
CAS: 77-52-1
Molecular Weight: 456.709
Number of References: 7684
Class: Ursane and Taraxastane triterpenoids
Superclass: Triterpenoids
Pathway: Terpenoids
ppm: 0.680000000045311
CMID: CM243
IONMODE: Negative
COLLISIONENERGY: 40±20eV
INSTRUMENTTYPE: AB SCIEX
INSTRUMENT: Q-TOF
Comment:  
Num Peaks: 280
455.35303	240792.0
407.33066	3346.0
409.34711	498.0
453.84137	153.0
375.2702	140.0
391.30081	140.0
405.31525	130.0
453.86014	126.0
393.31415	69.0
389.28494	68.0
377.27805	65.0
407.30301	55.0
373.25067	49.0
293.7355	46.0
453.89145	46.0
294.18042	38.0
297.94971	38.0
350.04404	38.0
301.92505	37.0
299.58823	37.0
299.22729	36.0
453.80798	35.0
455.01666	34.0
409.32532	33.0
300.60608	33.0
315.69635	32.0
299.67804	32.0
313.84775	32.0
296.67319	31.0
303.79797	30.0
302.27399	29.0
299.51874	28.0
300.2038	28.0
324.54602	28.0
303.74167	27.0
454.92685	27.0
97.06492	27.0
454.87463	27.0
309.96509	27.0
312.44064	26.0
301.12415	26.0
316.11581	26.0
298.44351	26.0
325.46228	26.0
296.20111	26.0
295.59467	26.0
294.8678	26.0
302.81393	26.0
321.87354	26.0
303.22647	26.0
296.37808	26.0
358.18347	26.0
350.35007	26.0
407.99304	26.0
341.98727	26.0
343.0965	25.0
320.24869	25.0
301.17172	25.0
298.63809	25.0
301.68857	25.0
301.75491	25.0
296.61584	25.0
303.10709	25.0
295.36237	25.0
303.68533	25.0
294.70132	25.0
407.25162	25.0
332.24054	25.0
321.16412	25.0
306.17856	25.0
330.94235	25.0
314.90689	25.0
297.29929	24.0
227.30869	24.0
453.76837	24.0
298.84796	24.0
311.89908	24.0
301.61545	24.0
298.21008	24.0
334.31613	24.0
311.3269	24.0
297.33643	24.0
297.26215	24.0
296.41348	24.0
255.22711	24.0
303.39188	24.0
324.17035	24.0
304.10358	23.0
301.99142	23.0
382.43503	23.0
302.77643	23.0
310.74313	23.0
310.43076	23.0
301.50659	23.0
300.09015	23.0
300.72491	23.0
306.43051	23.0
333.24982	23.0
227.944	23.0
315.64764	23.0
282.68381	23.0
322.34103	23.0
299.12057	23.0
348.10098	23.0
319.30307	23.0
297.65735	23.0
297.51883	23.0
302.14801	22.0
454.8454	22.0
326.22238	22.0
324.98367	22.0
309.52216	22.0
304.01651	22.0
317.81393	22.0
302.50388	22.0
358.96045	22.0
349.17432	22.0
300.7504	22.0
300.83701	22.0
299.17987	22.0
296.90262	21.0
304.92896	21.0
329.85657	21.0
300.44141	21.0
313.30499	21.0
307.7742	21.0
307.42728	21.0
317.04276	21.0
306.05005	21.0
303.60172	21.0
301.88931	21.0
391.45776	21.0
204.75621	21.0
339.51077	21.0
342.5018	21.0
363.26285	21.0
252.17151	21.0
377.30087	20.0
346.33463	20.0
453.97491	20.0
326.57977	20.0
299.62891	20.0
335.96722	20.0
299.02576	20.0
425.30646	20.0
291.05627	20.0
303.35947	20.0
306.90726	20.0
302.46469	20.0
337.03247	20.0
345.202	19.0
322.65582	19.0
391.23303	19.0
90.59281	19.0
307.94089	19.0
203.1256	19.0
307.11316	19.0
291.71323	19.0
321.49414	18.0
290.33167	18.0
292.86676	17.0
320.72729	17.0
318.9707	16.0
295.5408	16.0
328.61096	16.0
303.27933	16.0
353.07364	16.0
347.2355	16.0
253.01508	16.0
379.74908	15.0
251.99426	15.0
260.58664	15.0
312.87872	15.0
319.92984	15.0
318.25052	15.0
337.38315	14.0
272.10568	13.0
208.70564	13.0
413.35114	13.0
411.25137	13.0
409.98535	13.0
201.0222	13.0
201.75179	13.0
203.55429	13.0
205.29185	13.0
206.75789	13.0
405.8793	13.0
403.897	13.0
416.31702	13.0
402.75241	13.0
400.84836	13.0
399.48688	13.0
397.34067	13.0
395.1185	13.0
393.73376	13.0
210.77339	13.0
392.34369	13.0
213.67506	13.0
415.06314	13.0
417.97906	13.0
218.07779	13.0
440.3598	13.0
106.29431	13.0
189.16335	13.0
193.74585	13.0
195.34119	13.0
197.86629	13.0
452.4697	13.0
451.40381	13.0
448.44177	13.0
446.35593	13.0
443.80035	13.0
439.01276	13.0
419.27142	13.0
436.36783	13.0
434.69611	13.0
433.43729	13.0
431.46805	13.0
430.79297	13.0
427.80832	13.0
426.33908	13.0
199.73994	13.0
421.53024	13.0
420.1983	13.0
274.24213	13.0
215.70827	13.0
220.57224	13.0
353.6756	13.0
388.70166	13.0
246.87659	13.0
249.39098	13.0
250.03627	13.0
284.96545	13.0
280.7197	13.0
278.06473	13.0
253.16307	13.0
343.37952	13.0
255.23962	13.0
257.34036	13.0
260.0842	13.0
340.61234	13.0
277.14615	13.0
262.33795	13.0
263.92966	13.0
264.99982	13.0
266.47806	13.0
267.5838	13.0
269.24594	13.0
270.57486	13.0
285.53607	13.0
351.3461	13.0
354.82019	13.0
370.88199	13.0
387.02954	13.0
384.32751	13.0
382.81622	13.0
223.14668	13.0
288.25131	13.0
229.00679	13.0
376.06927	13.0
231.09512	13.0
356.03683	13.0
374.25409	13.0
369.2186	13.0
236.02481	13.0
246.177	13.0
243.60706	13.0
361.44162	13.0
359.26108	13.0
364.1817	13.0
365.29636	13.0
366.93216	13.0
368.03973	13.0
225.16557	13.0
232.82071	12.0
186.08894	12.0
174.56038	12.0
157.08604	12.0
149.32675	12.0
129.48349	12.0

MSID: 8904
ID: 508
RETENTIONTIME: 32.07475
PRECURSORMZ: 297.149
AREA: 28873572.0
PRECURSORTYPE: [M-H]-
SMILES: CC(C)C1=CC2=C(C(O)=C1O)C1=C(C=C2)C(C)(C)CCC1=O
NAME: arucadiol
FORMULA: C19H22O3
INCHIKEY: CEIJAQIIDANFLF-UHFFFAOYSA-N
CAS: 105037-85-2
Molecular Weight: 298.382
Number of References: 18
Class: Abeoabietane diterpenoids
Superclass: Diterpenoids
Pathway: Terpenoids
ppm: -0.06999999999379725
CMID: CM243
IONMODE: Negative
COLLISIONENERGY: 40±20eV
INSTRUMENTTYPE: AB SCIEX
INSTRUMENT: Q-TOF
Comment:  
Num Peaks: 686
297.15131	294959.0
281.11746	95705.0
282.1265	87904.0
267.10239	49075.0
269.15491	28020.0
280.11023	17889.0
266.09348	16845.0
239.10739	13678.0
252.07872	12543.0
254.13054	10490.0
253.12306	5464.0
265.08643	5207.0
251.07066	4192.0
224.08287	2704.0
223.07692	2345.0
238.06369	2184.0
194.0735	2108.0
296.13931	1973.0
209.06129	1604.0
235.11295	1446.0
237.05545	1343.0
279.10318	1001.0
227.07002	939.0
264.11475	939.0
241.08606	909.0
220.08862	814.0
263.10672	733.0
237.09013	688.0
208.05154	614.0
254.1118	579.0
222.06593	525.0
253.08723	482.0
226.06328	450.0
238.09694	440.0
249.09154	436.0
228.07901	432.0
199.07658	423.0
211.07675	407.0
225.09108	402.0
253.09813	379.0
255.10091	375.0
224.04768	331.0
221.09802	325.0
296.17303	319.0
295.13412	309.0
248.08487	293.0
250.06154	283.0
225.05582	282.0
268.10843	265.0
235.0769	234.0
171.07974	230.0
224.05795	229.0
240.0775	223.0
196.05392	218.0
226.10008	216.0
213.09186	201.0
221.0587	201.0
264.07816	200.0
234.10349	200.0
211.11232	200.0
236.04784	195.0
254.09464	195.0
265.12152	192.0
198.10229	192.0
210.07065	188.0
253.08099	185.0
203.07156	182.0
212.04674	179.0
207.07947	167.0
251.10481	164.0
262.09903	163.0
236.08395	160.0
180.05812	158.0
242.09521	156.0
279.14081	147.0
198.06921	136.0
250.09717	136.0
239.0771	136.0
229.0843	135.0
200.04356	132.0
195.0816	125.0
211.03833	125.0
235.09042	124.0
251.1436	122.0
213.05469	121.0
185.05812	120.0
197.06166	119.0
195.04741	117.0
256.11075	113.0
233.0947	110.0
269.1308	102.0
215.06914	101.0
193.06529	101.0
181.06476	101.0
214.06216	98.0
278.12897	90.0
185.09676	89.0
186.06528	87.0
200.08096	87.0
206.07594	86.0
225.12634	85.0
234.06752	84.0
241.12103	84.0
183.04672	83.0
226.078	81.0
240.11543	79.0
184.05238	79.0
219.08299	77.0
171.04388	76.0
296.11572	76.0
183.08382	75.0
247.07407	74.0
167.04855	72.0
156.05829	69.0
175.07735	66.0
196.08821	65.0
209.07971	65.0
225.06905	64.0
236.11856	64.0
83.05227	64.0
201.0948	63.0
188.04749	62.0
207.04425	62.0
199.02547	60.0
208.09109	59.0
268.14209	58.0
212.08096	57.0
216.07561	56.0
249.056	55.0
268.27039	54.0
223.11203	54.0
197.09328	53.0
227.10101	53.0
223.04036	53.0
210.03091	52.0
263.0686	51.0
158.07347	51.0
209.09811	51.0
280.69073	48.0
233.05882	48.0
199.948	47.0
208.03743	46.0
198.03062	46.0
190.43054	46.0
201.05592	45.0
199.26591	45.0
200.02278	44.0
207.11752	44.0
197.23079	44.0
295.11224	44.0
130.0415	44.0
186.03188	43.0
202.06248	42.0
182.07289	42.0
182.03986	42.0
253.14644	42.0
212.11948	41.0
195.84146	40.0
209.0882	40.0
210.10614	40.0
187.07114	39.0
220.2659	39.0
170.07446	39.0
199.93138	38.0
215.05478	38.0
194.34781	38.0
209.02589	38.0
200.07404	38.0
296.88635	38.0
266.0679	38.0
265.06094	38.0
192.05428	37.0
206.8611	37.0
169.06706	37.0
196.60278	37.0
200.10312	37.0
202.36746	37.0
228.06274	37.0
200.19733	36.0
281.09448	36.0
252.0585	36.0
207.58569	36.0
279.06064	36.0
226.04707	36.0
252.11449	36.0
170.03743	36.0
213.9805	35.0
178.75171	35.0
242.0876	35.0
217.10173	35.0
241.07086	35.0
243.10342	35.0
197.79643	35.0
201.00594	35.0
251.13429	35.0
158.03531	35.0
229.8542	35.0
220.05376	35.0
205.10287	35.0
185.15138	34.0
217.68939	34.0
296.21011	34.0
191.30452	33.0
197.75925	33.0
197.81158	33.0
296.87283	33.0
199.48578	33.0
222.10971	33.0
202.27692	32.0
198.85971	32.0
202.83162	32.0
223.51591	32.0
198.21257	32.0
168.06137	32.0
198.75615	32.0
187.04033	32.0
219.54997	32.0
222.19145	32.0
235.164	32.0
188.26241	32.0
183.00963	32.0
195.00365	31.0
202.58762	31.0
190.21843	31.0
187.64215	31.0
225.03819	31.0
279.185	31.0
233.62427	31.0
201.11008	31.0
193.10204	31.0
261.09171	31.0
215.31622	31.0
199.62549	31.0
206.12654	30.0
202.87625	30.0
200.27354	30.0
207.3318	30.0
198.54085	30.0
227.05379	30.0
213.40359	30.0
202.4845	30.0
197.36833	30.0
190.99989	30.0
188.13747	30.0
246.06841	30.0
188.63478	30.0
192.50374	30.0
191.36276	30.0
194.39287	30.0
194.94075	30.0
181.69254	30.0
195.53596	30.0
196.51079	30.0
210.98143	29.0
196.0128	29.0
200.70894	29.0
200.95041	29.0
192.76469	29.0
192.09499	29.0
217.0267	29.0
197.04242	29.0
198.60294	29.0
218.25758	29.0
203.23347	29.0
188.99945	28.0
296.65186	28.0
198.24704	28.0
225.92784	28.0
167.48677	28.0
183.11563	28.0
212.03249	28.0
197.30368	28.0
191.91994	28.0
164.94029	28.0
202.20729	28.0
198.83624	28.0
195.6017	28.0
189.50598	28.0
190.64006	27.0
200.35532	27.0
157.06181	27.0
207.76068	27.0
268.08276	27.0
200.51614	27.0
219.81123	27.0
214.17824	27.0
196.3118	27.0
199.3945	27.0
197.19778	27.0
199.41939	27.0
282.99069	27.0
196.2336	27.0
197.92453	27.0
190.54272	26.0
222.04112	26.0
285.84781	26.0
201.19897	26.0
203.00598	26.0
293.66895	26.0
207.40512	26.0
282.64487	26.0
196.45314	26.0
226.13396	26.0
198.72716	26.0
242.26895	26.0
208.45572	26.0
223.35344	26.0
251.34229	26.0
208.11229	26.0
215.74896	26.0
243.81851	26.0
251.02103	26.0
247.05098	26.0
268.28644	26.0
210.06071	26.0
216.51631	26.0
211.84003	26.0
206.22075	26.0
273.2851	26.0
204.27068	26.0
296.70581	26.0
194.70702	26.0
188.82582	26.0
271.84619	26.0
207.50951	26.0
270.15192	26.0
253.66554	26.0
220.78362	26.0
234.0885	26.0
188.07971	26.0
209.39276	26.0
203.79788	26.0
267.36813	25.0
262.19098	25.0
180.66309	25.0
218.14474	25.0
207.23169	25.0
206.48521	25.0
168.35603	25.0
222.61644	25.0
165.17682	25.0
153.07065	25.0
280.17743	25.0
211.24182	25.0
132.86635	25.0
147.31866	25.0
211.02411	25.0
132.33298	25.0
220.61485	25.0
210.37877	25.0
131.37379	25.0
160.04831	25.0
207.72539	25.0
282.61029	25.0
221.5788	25.0
163.97206	25.0
164.80199	25.0
145.02771	25.0
208.52219	25.0
283.37631	25.0
218.86128	25.0
285.50519	25.0
184.65071	25.0
203.94049	25.0
186.43413	25.0
196.65909	25.0
199.74449	25.0
201.52136	25.0
202.13489	25.0
201.50189	25.0
195.33336	25.0
199.2355	25.0
192.81636	25.0
199.00888	25.0
198.88733	25.0
244.33563	25.0
188.60654	25.0
194.75621	25.0
201.7981	25.0
188.29735	25.0
58.45547	25.0
200.15161	25.0
193.96165	25.0
205.51682	25.0
197.84187	25.0
200.42186	25.0
200.49672	25.0
194.72478	25.0
187.52815	25.0
192.83676	25.0
196.82803	25.0
187.84879	25.0
196.80467	25.0
187.95081	25.0
196.77858	25.0
199.89954	25.0
148.05055	24.0
194.85736	24.0
211.481	24.0
145.88161	24.0
210.75533	24.0
195.46339	24.0
131.13258	24.0
235.94102	24.0
198.6264	24.0
217.39185	24.0
197.48529	24.0
217.08875	24.0
218.00737	24.0
196.96132	24.0
196.74973	24.0
214.85521	24.0
245.36075	24.0
195.93602	24.0
199.19681	24.0
281.89462	24.0
200.28879	24.0
199.57983	24.0
213.01181	24.0
212.53328	24.0
132.46931	24.0
194.68515	24.0
200.83659	24.0
149.30789	24.0
165.06987	24.0
190.76988	24.0
189.14621	24.0
202.67545	24.0
165.2448	24.0
188.86888	24.0
165.53571	24.0
166.05269	24.0
227.03166	24.0
167.22327	24.0
203.45831	24.0
203.64552	24.0
197.6133	24.0
260.74844	24.0
204.52687	24.0
224.44215	24.0
187.11534	24.0
186.94124	24.0
194.20995	24.0
207.91315	24.0
165.05476	24.0
208.59572	24.0
253.86522	24.0
155.04822	24.0
159.04639	24.0
201.38931	24.0
165.00067	24.0
201.74384	24.0
201.69934	24.0
191.61752	24.0
229.64639	24.0
208.35677	24.0
208.32567	24.0
223.02426	24.0
197.69315	24.0
250.11729	23.0
233.19339	23.0
224.18843	23.0
246.65863	23.0
269.87674	23.0
224.75182	23.0
220.00438	23.0
297.1243	23.0
203.17624	23.0
197.15515	23.0
196.09506	23.0
127.3122	23.0
208.14761	23.0
196.71677	23.0
201.94002	23.0
197.56511	23.0
206.93576	23.0
206.90617	23.0
206.78224	23.0
170.5972	23.0
206.32623	23.0
206.18419	23.0
205.97052	23.0
204.05519	23.0
166.14735	23.0
203.43456	23.0
203.27956	23.0
202.7354	23.0
200.5522	23.0
200.65622	23.0
200.86157	23.0
201.4727	23.0
125.66348	23.0
184.79712	23.0
211.99968	23.0
188.34303	23.0
213.90315	23.0
192.9959	23.0
191.06079	23.0
213.5524	23.0
180.63412	23.0
193.17143	23.0
215.89859	23.0
211.53084	23.0
210.58476	23.0
176.45743	23.0
195.80309	23.0
209.22983	23.0
192.2932	23.0
166.07666	22.0
199.99094	22.0
196.34885	22.0
259.76105	22.0
200.39136	22.0
181.30862	22.0
179.9241	22.0
201.46019	22.0
255.05867	22.0
199.80817	22.0
198.41667	22.0
199.15396	22.0
198.93567	22.0
237.62119	22.0
198.43736	22.0
196.39412	22.0
198.31461	22.0
239.13464	22.0
176.62267	22.0
168.29378	22.0
197.59265	22.0
195.22388	22.0
174.90376	22.0
217.2547	22.0
232.04036	22.0
184.93558	22.0
143.05441	22.0
289.51352	22.0
282.95117	22.0
214.58257	22.0
225.45853	22.0
214.31297	22.0
205.70216	22.0
205.81174	22.0
206.57811	22.0
215.96333	22.0
212.75177	22.0
280.84662	22.0
207.44603	22.0
221.13733	22.0
209.00325	22.0
208.68483	22.0
218.09268	22.0
208.91266	22.0
277.11734	22.0
275.80496	22.0
202.34238	22.0
203.63295	22.0
154.04144	22.0
227.60156	22.0
62.46236	22.0
194.02167	21.0
182.78581	21.0
185.12607	21.0
185.85028	21.0
209.55434	21.0
186.0065	21.0
216.26711	21.0
217.91917	21.0
81.03262	21.0
63.58885	21.0
189.57205	21.0
256.82587	21.0
296.96228	21.0
190.0267	21.0
229.79779	21.0
173.14171	21.0
196.55609	21.0
198.49393	21.0
200.91986	21.0
268.35379	21.0
200.6909	21.0
200.33868	21.0
270.07303	21.0
199.7016	21.0
167.95856	21.0
207.62096	21.0
236.58075	21.0
143.03918	21.0
139.85504	21.0
279.61713	21.0
198.2953	21.0
202.04161	21.0
174.15729	21.0
216.98488	21.0
266.66245	20.0
274.43246	20.0
171.00803	20.0
181.90512	20.0
280.61526	20.0
268.25757	20.0
162.0965	20.0
288.94394	20.0
165.54579	20.0
195.9045	20.0
198.5574	20.0
209.70462	20.0
205.30348	20.0
225.77773	20.0
203.86638	20.0
206.76112	20.0
207.20351	20.0
227.14381	20.0
202.56671	20.0
202.51236	20.0
235.06039	20.0
199.96185	20.0
208.74142	20.0
197.64909	20.0
206.55418	20.0
191.84262	20.0
252.03986	20.0
214.2585	20.0
195.42506	19.0
218.51952	19.0
216.73828	19.0
186.87831	19.0
148.03625	19.0
138.89548	19.0
183.7204	19.0
189.94707	19.0
148.50368	19.0
181.56979	19.0
203.21394	19.0
154.69115	19.0
257.03464	19.0
208.66502	19.0
196.58218	19.0
191.69345	19.0
165.80167	19.0
165.8912	19.0
200.23474	19.0
236.33229	19.0
205.8876	19.0
250.64259	19.0
208.79094	19.0
177.2401	19.0
197.38484	19.0
219.68059	19.0
212.7989	19.0
134.5229	18.0
203.89156	18.0
57.68015	18.0
173.91699	18.0
239.91669	18.0
204.21609	18.0
185.02615	18.0
257.16025	18.0
192.69943	18.0
198.12297	18.0
190.34001	17.0
141.01785	17.0
184.56023	17.0
203.11343	17.0
139.41185	16.0
196.93109	16.0
292.86734	15.0
163.07419	15.0
124.6993	15.0
151.07448	14.0
120.59352	13.0
118.96554	13.0
149.74498	13.0
136.91292	13.0
135.62004	13.0
100.96461	13.0
105.42701	13.0
107.16761	13.0
108.76819	13.0
111.79775	13.0
113.54612	13.0
126.10627	13.0
118.04768	13.0
128.02257	13.0
289.71185	13.0
122.36253	13.0
115.35749	13.0
81.95997	12.0

MSID: 8905
ID: 471
RETENTIONTIME: 31.40407
PRECURSORMZ: 359.1851
AREA: 26746986.0
PRECURSORTYPE: [M-H]-
SMILES: [H][C@@]12[C@@H]3OC(=O)[C@@]1(CCCC2(C)C)C1=C(C=C(C(C)C)C(O)=C1O)[C@@H]3OC
NAME: 7-methoxyrosmanol
FORMULA: C21H28O5
INCHIKEY: XNPVHIQPSAZTLC-NYUBLWNDSA-N
CAS: 113085-62-4
Molecular Weight: 360.45
Number of References: 23
Class: Abietane diterpenoids
Superclass: Diterpenoids
Pathway: Terpenoids
ppm: -0.7499999999822649
CMID: CM243
IONMODE: Negative
COLLISIONENERGY: 40±20eV
INSTRUMENTTYPE: AB SCIEX
INSTRUMENT: Q-TOF
Comment:  
Num Peaks: 749
283.17123	331057.0
359.18668	129776.0
227.10783	36156.0
329.17557	34012.0
268.14624	28934.0
267.13855	17526.0
253.12401	11174.0
285.18524	7883.0
212.08473	7064.0
300.17313	6759.0
240.11485	6038.0
214.09889	4737.0
239.10681	3750.0
201.09154	2713.0
255.13782	2284.0
225.092	2283.0
213.09134	2070.0
265.15915	1927.0
228.11543	1521.0
299.16449	1210.0
282.16199	1149.0
327.16031	1099.0
301.18008	1032.0
199.0761	942.0
211.07623	802.0
252.11386	794.0
238.09938	782.0
215.10739	758.0
200.08463	757.0
226.09953	754.0
249.12648	645.0
217.08533	637.0
281.15289	603.0
269.15262	543.0
250.13683	542.0
209.09619	528.0
251.10574	516.0
187.07603	485.0
184.08913	438.0
202.09819	414.0
198.06735	400.0
241.12349	383.0
315.19528	383.0
197.06117	365.0
265.12405	344.0
188.08463	342.0
184.05193	324.0
257.11722	318.0
186.06749	313.0
242.12967	312.0
284.17569	307.0
237.09106	306.0
257.19104	304.0
185.05901	287.0
265.1416	275.0
255.17224	260.0
273.18567	251.0
229.12376	247.0
243.10283	242.0
235.11087	236.0
237.16194	235.0
229.08672	226.0
189.09323	218.0
270.16251	217.0
222.1048	208.0
239.17798	197.0
199.11201	196.0
210.06873	195.0
258.12473	194.0
266.16791	192.0
221.09747	179.0
210.10278	177.0
284.14102	166.0
224.11897	160.0
185.09631	156.0
282.22943	155.0
177.09106	151.0
309.14828	148.0
266.12955	143.0
183.04362	142.0
264.1507	136.0
223.11295	131.0
216.11395	130.0
223.07637	126.0
237.12875	122.0
216.08084	121.0
256.10855	121.0
251.13989	120.0
223.15244	116.0
171.04474	115.0
271.16782	114.0
282.14883	114.0
224.08086	110.0
282.22614	109.0
222.13983	105.0
230.0957	104.0
254.12991	99.0
196.12338	98.0
257.15176	98.0
183.07808	92.0
194.07439	91.0
203.10596	90.0
285.15546	89.0
209.06079	88.0
301.16479	88.0
183.12048	86.0
244.10854	85.0
211.14595	84.0
198.06322	84.0
196.0507	83.0
232.0726	82.0
251.12592	77.0
207.08179	74.0
236.08337	74.0
228.0755	73.0
158.03738	73.0
59.01521	72.0
171.08444	71.0
221.09019	71.0
300.13409	70.0
157.06511	70.0
263.14578	69.0
170.07405	69.0
256.14459	69.0
243.13489	69.0
156.05669	69.0
197.09142	68.0
357.99985	68.0
241.11133	67.0
212.12181	67.0
202.08427	66.0
195.11533	66.0
282.20477	66.0
172.05545	66.0
155.08565	62.0
156.09338	62.0
296.13693	62.0
215.06862	61.0
204.08267	60.0
193.06482	60.0
239.07956	59.0
178.09854	59.0
231.10097	59.0
230.13432	59.0
239.13406	59.0
240.14671	58.0
211.10895	58.0
315.15878	58.0
180.05637	57.0
242.11748	57.0
329.1507	56.0
166.07753	55.0
331.15424	55.0
286.1568	54.0
268.1254	53.0
297.14551	52.0
279.09924	51.0
255.10811	51.0
236.15561	51.0
229.10449	50.0
191.38669	50.0
226.08922	50.0
242.09462	49.0
159.04353	49.0
197.13268	49.0
171.11647	48.0
209.13443	48.0
164.08203	48.0
240.07843	47.0
236.12099	47.0
195.0825	47.0
204.11345	47.0
146.03505	46.0
267.17377	46.0
298.15414	45.0
226.35876	45.0
181.06432	45.0
358.02209	45.0
173.0601	45.0
300.12054	45.0
83.05118	44.0
250.10275	44.0
282.19159	44.0
191.93169	43.0
228.09177	43.0
284.07172	43.0
285.13895	43.0
269.12051	43.0
273.16626	42.0
297.18942	42.0
315.17966	42.0
269.14139	42.0
207.07616	41.0
197.11893	41.0
181.0999	41.0
201.06793	41.0
199.09821	41.0
250.09346	41.0
185.13628	41.0
158.07678	41.0
201.05405	40.0
239.14922	40.0
191.2756	40.0
217.11996	40.0
282.13568	40.0
187.03854	40.0
157.10193	39.0
284.75543	39.0
227.08865	39.0
188.0618	38.0
329.13293	38.0
357.96652	38.0
214.06308	38.0
174.03282	38.0
189.07841	38.0
200.10124	37.0
194.75438	37.0
201.70441	37.0
167.04816	37.0
143.04938	37.0
233.09563	37.0
196.71353	36.0
222.06831	36.0
313.14539	36.0
198.1032	36.0
284.20871	36.0
249.1002	35.0
198.43964	35.0
199.04707	35.0
192.07687	35.0
293.10968	35.0
201.12625	35.0
251.09488	35.0
212.79982	35.0
284.12451	35.0
284.26154	35.0
238.05858	34.0
126.99277	34.0
280.10464	34.0
212.0562	34.0
284.8992	34.0
213.12851	34.0
267.11935	34.0
165.09085	34.0
244.99214	34.0
282.30017	34.0
185.83513	33.0
271.13074	33.0
154.28181	33.0
221.13097	33.0
285.58392	33.0
155.05272	33.0
187.56792	33.0
202.06895	32.0
192.01717	32.0
149.09581	32.0
238.12355	31.0
236.90111	31.0
199.45486	31.0
201.50975	31.0
225.12138	31.0
213.539	31.0
213.05132	31.0
284.23349	31.0
194.58632	31.0
253.07259	31.0
280.14398	31.0
253.09441	31.0
193.44327	31.0
272.1734	31.0
179.08267	31.0
189.24274	31.0
185.60159	31.0
241.3349	30.0
266.25256	30.0
157.1277	30.0
156.79645	30.0
158.57582	30.0
328.09445	30.0
193.30573	30.0
241.75801	30.0
282.10934	29.0
358.92505	29.0
190.3963	29.0
255.25984	29.0
245.69313	29.0
269.06909	29.0
282.78906	29.0
247.14735	29.0
194.86781	29.0
239.27341	29.0
223.56223	28.0
286.48822	28.0
200.05969	28.0
242.78229	28.0
190.68016	28.0
201.62097	28.0
258.16721	28.0
193.10156	28.0
189.05688	28.0
156.99271	28.0
218.66667	28.0
208.08919	28.0
241.19952	28.0
284.47293	28.0
186.94882	28.0
211.50185	28.0
156.94853	28.0
328.06784	28.0
252.29738	28.0
233.45609	28.0
191.70111	28.0
281.12497	27.0
204.15543	27.0
241.67883	27.0
238.4153	27.0
198.73911	27.0
258.68356	27.0
172.01434	27.0
297.10669	27.0
187.9866	27.0
287.09518	27.0
240.45792	27.0
228.3329	27.0
181.15921	27.0
358.05359	26.0
183.18674	26.0
231.63274	26.0
204.46336	26.0
245.13165	26.0
193.86981	26.0
205.17671	26.0
275.51816	26.0
219.68875	26.0
283.97598	26.0
208.63199	26.0
219.06218	26.0
283.77304	26.0
282.85825	26.0
236.34375	26.0
358.65051	26.0
222.75618	26.0
299.71011	26.0
191.98866	26.0
188.62491	26.0
153.06906	26.0
198.92966	26.0
233.87523	26.0
314.45163	26.0
191.54659	26.0
199.61118	26.0
192.81181	26.0
191.61977	26.0
190.92635	26.0
323.18536	26.0
288.16309	26.0
242.25616	26.0
243.64822	26.0
203.07246	26.0
265.40796	26.0
193.51819	26.0
245.08412	26.0
268.70618	26.0
213.29581	25.0
214.14618	25.0
221.93845	25.0
273.12094	25.0
298.73441	25.0
234.87518	25.0
246.43353	25.0
294.16684	25.0
235.08084	25.0
284.39694	25.0
141.57858	25.0
215.004	25.0
236.53348	25.0
220.08954	25.0
313.11246	25.0
215.66934	25.0
287.65628	25.0
284.6282	25.0
235.62468	25.0
271.09528	25.0
216.4884	25.0
132.40251	25.0
287.24289	25.0
239.35066	25.0
258.09955	25.0
342.84607	25.0
259.00497	25.0
270.08685	25.0
140.65376	25.0
195.27814	25.0
206.77188	25.0
205.77751	25.0
205.69464	25.0
190.87358	25.0
204.81078	25.0
190.83841	25.0
204.26598	25.0
203.73167	25.0
190.50035	25.0
203.03061	25.0
202.95667	25.0
190.33414	25.0
190.10184	25.0
197.49307	25.0
189.70239	25.0
197.84277	25.0
189.46913	25.0
198.22726	25.0
186.24786	25.0
186.42833	25.0
201.03877	25.0
200.82916	25.0
188.92764	25.0
187.11623	25.0
188.67064	25.0
188.49716	25.0
191.18082	25.0
188.36005	25.0
194.54944	25.0
191.58995	25.0
193.67761	25.0
161.43971	25.0
191.43275	25.0
162.01756	25.0
163.73349	25.0
168.05714	25.0
192.39731	25.0
157.85278	25.0
193.77983	25.0
207.42154	25.0
207.23119	25.0
171.73575	25.0
192.48288	25.0
150.7541	25.0
174.85413	25.0
192.73975	24.0
271.00659	24.0
192.91653	24.0
193.46915	24.0
189.30875	24.0
188.48909	24.0
198.83713	24.0
193.74576	24.0
239.68712	24.0
197.72157	24.0
189.5554	24.0
265.8389	24.0
194.03484	24.0
189.82245	24.0
191.72958	24.0
191.64146	24.0
190.76537	24.0
194.90472	24.0
190.98454	24.0
188.44473	24.0
191.56691	24.0
195.23434	24.0
257.08737	24.0
187.39763	24.0
179.00404	24.0
287.96695	24.0
202.83949	24.0
208.40291	24.0
184.19676	24.0
217.0507	24.0
219.89346	24.0
285.81235	24.0
182.07773	24.0
160.05536	24.0
226.13341	24.0
284.42831	24.0
184.02536	24.0
205.00282	24.0
179.81204	24.0
210.85576	24.0
178.04889	24.0
155.31012	24.0
187.02246	24.0
187.22072	24.0
206.44954	24.0
329.79593	24.0
187.87785	24.0
93.06921	23.0
188.42725	23.0
169.10229	23.0
169.06027	23.0
161.83937	23.0
192.15288	23.0
156.6763	23.0
327.13022	23.0
71.04681	23.0
192.21533	23.0
244.83736	23.0
153.39636	23.0
192.09587	23.0
255.58694	23.0
253.78503	23.0
185.89255	23.0
243.54428	23.0
188.54422	23.0
186.78683	23.0
189.20502	23.0
282.50919	23.0
282.90271	23.0
186.18773	23.0
284.04694	23.0
185.97533	23.0
184.76338	23.0
254.15802	23.0
189.72397	23.0
264.38474	23.0
184.53717	23.0
189.87778	23.0
190.00058	23.0
257.32297	23.0
284.29456	23.0
190.54631	23.0
188.14641	23.0
192.67314	23.0
212.23306	23.0
198.68941	23.0
200.5101	23.0
196.64487	23.0
237.27354	23.0
205.10239	23.0
194.80768	23.0
236.07434	23.0
194.26543	23.0
137.78366	23.0
237.06694	23.0
198.31551	23.0
208.75789	23.0
199.57104	22.0
284.79013	22.0
233.63417	22.0
169.76385	22.0
196.92511	22.0
217.58195	22.0
212.28871	22.0
175.07433	22.0
238.04498	22.0
178.82983	22.0
237.43498	22.0
199.20461	22.0
187.74768	22.0
202.15388	22.0
187.17918	22.0
203.60451	22.0
284.22028	22.0
197.22342	22.0
202.36418	22.0
294.11981	22.0
202.29314	22.0
130.04007	22.0
198.51552	22.0
189.68082	22.0
262.54565	22.0
243.43427	22.0
133.60414	22.0
191.22821	22.0
192.70033	22.0
244.61983	22.0
135.04099	22.0
192.36606	22.0
152.2608	22.0
241.44444	22.0
241.1615	22.0
194.42926	22.0
211.10042	22.0
156.29532	22.0
196.5721	22.0
322.34439	22.0
159.12012	22.0
312.18091	22.0
170.03828	22.0
163.52054	22.0
195.05377	22.0
160.91507	22.0
253.2097	22.0
300.20877	22.0
288.40085	21.0
199.47008	21.0
143.47485	21.0
150.59784	21.0
187.45528	21.0
186.52194	21.0
161.28546	21.0
216.34146	21.0
199.90874	21.0
198.78191	21.0
138.38664	21.0
152.90192	21.0
284.99344	21.0
282.64252	21.0
286.88947	21.0
209.82466	21.0
201.54727	21.0
283.96277	21.0
331.0509	21.0
156.2231	21.0
217.94177	21.0
285.66501	21.0
79.04546	21.0
318.177	21.0
157.33768	21.0
157.62279	21.0
206.6691	21.0
164.8242	21.0
212.15747	21.0
235.05382	21.0
191.24582	21.0
190.19637	21.0
126.84824	21.0
256.53186	21.0
255.84219	21.0
238.65427	21.0
198.14178	21.0
253.08505	21.0
189.17809	21.0
196.34561	21.0
188.70157	21.0
198.60245	21.0
250.20807	21.0
158.26398	20.0
139.4115	20.0
190.24904	20.0
176.08255	20.0
210.08717	20.0
210.22345	20.0
197.03232	20.0
250.35989	20.0
238.3911	20.0
207.81946	20.0
293.57761	20.0
215.98584	20.0
315.11707	20.0
191.0062	20.0
215.14474	20.0
132.74753	20.0
191.51677	20.0
259.16733	20.0
160.10986	20.0
195.02095	20.0
118.31034	20.0
75.00978	20.0
193.03352	20.0
209.85162	20.0
252.08899	20.0
205.49666	20.0
197.16017	20.0
250.55206	20.0
193.00496	20.0
201.88107	20.0
242.75177	20.0
197.88135	20.0
226.34698	20.0
189.27373	20.0
236.82274	20.0
189.22792	20.0
189.15518	20.0
189.63226	20.0
243.9005	20.0
263.98044	20.0
202.42827	20.0
189.0313	20.0
203.41032	20.0
281.8331	20.0
188.7796	20.0
199.39262	20.0
229.85216	19.0
145.79256	19.0
191.19977	19.0
149.75299	19.0
343.32129	19.0
199.37465	19.0
250.63112	19.0
158.33791	19.0
284.55222	19.0
191.0495	19.0
180.02876	19.0
204.64824	19.0
186.15031	19.0
356.6763	19.0
190.03839	19.0
237.23433	19.0
255.85942	19.0
218.27296	19.0
256.3515	19.0
330.79614	18.0
179.53638	18.0
197.65686	18.0
134.40561	18.0
159.63811	18.0
65.23598	18.0
226.64616	18.0
113.02574	18.0
217.52417	18.0
186.83101	18.0
198.17625	18.0
170.45227	18.0
192.29272	18.0
124.44762	17.0
306.28125	17.0
182.12927	17.0
287.61642	17.0
336.58124	17.0
244.69029	16.0
101.35933	16.0
259.71625	16.0
208.57117	16.0
144.05606	15.0
344.0166	15.0
295.12329	15.0
60.38774	15.0
128.92577	15.0
336.99277	14.0
290.4183	14.0
110.4246	13.0
111.97046	13.0
102.65002	13.0
131.20517	13.0
116.35328	13.0
352.66693	13.0
351.52951	13.0
349.89548	13.0
348.09717	13.0
106.63377	13.0
345.08359	13.0
114.99358	13.0
324.65701	13.0
341.7626	13.0
320.02252	13.0
340.39536	13.0
338.08304	13.0
301.99298	13.0
331.54996	13.0
303.13596	13.0
121.72503	13.0
304.91	13.0
119.38432	13.0
307.83936	13.0
309.84946	13.0
135.22086	13.0
316.35077	13.0
122.77637	13.0
100.16695	13.0

MSID: 8906
ID: 28
RETENTIONTIME: 10.6998
PRECURSORMZ: 463.0872
AREA: 26018964.0
PRECURSORTYPE: [M-H]-
SMILES: OC[C@H]1O[C@@H](OC2=C(OC3=C(C(O)=CC(O)=C3)C2=O)C2=CC(O)=C(O)C=C2)[C@H](O)[C@@H](O)[C@@H]1O
NAME: isoquercetin
FORMULA: C21H20O12
INCHIKEY: OVSQVDMCBVZWGM-QSOFNFLRSA-N
CAS: 482-35-9
Molecular Weight: 464.383
Number of References: 2494
Class: Flavonols
Superclass: Flavonoids
Pathway: Shikimates and Phenylpropanoids
ppm: -0.4549999999881038
CMID: CM243
IONMODE: Negative
COLLISIONENERGY: 40±20eV
INSTRUMENTTYPE: AB SCIEX
INSTRUMENT: Q-TOF
Comment:  
Num Peaks: 541
301.03662	154415.0
300.0282	98470.0
463.08731	93551.0
136.98752	4980.0
299.01981	3061.0
228.0437	2977.0
227.03627	2630.0
255.03073	2551.0
216.04266	2374.0
283.02386	2271.0
201.01999	1746.0
199.03943	1692.0
243.02881	1635.0
200.04787	1542.0
272.03214	1519.0
65.00307	1291.0
133.02905	1163.0
165.98973	1065.0
134.03732	1063.0
211.03992	1023.0
202.02646	1019.0
174.03209	1008.0
271.02359	883.0
172.05344	881.0
215.03485	855.0
244.03589	820.0
188.04764	770.0
230.02367	739.0
213.01912	728.0
139.0041	716.0
166.99933	707.0
214.02652	696.0
164.98193	675.0
175.0412	631.0
256.03729	602.0
187.04048	600.0
135.04597	585.0
190.99869	563.0
343.04483	546.0
173.02332	535.0
165.01842	531.0
183.04422	518.0
257.04739	513.0
229.05188	503.0
239.0349	474.0
149.99445	441.0
201.0533	437.0
164.01106	429.0
110.00243	424.0
203.03406	418.0
241.0148	413.0
158.03667	404.0
192.00557	403.0
254.02147	401.0
226.02518	386.0
212.04691	358.0
198.03079	356.0
273.03931	339.0
185.02364	298.0
163.00305	282.0
185.06093	280.0
237.01794	262.0
171.04657	252.0
201.03247	251.0
111.0092	228.0
186.0307	227.0
137.0242	222.0
159.04529	221.0
231.02878	211.0
229.01187	207.0
245.04353	202.0
161.02368	200.0
204.04276	197.0
282.01651	195.0
124.98936	186.0
137.99454	183.0
160.01624	175.0
182.03604	157.0
177.99066	155.0
176.04803	155.0
210.03108	155.0
297.04013	154.0
146.0379	143.0
148.05186	138.0
228.03188	131.0
136.01616	128.0
173.05939	127.0
160.05215	126.0
145.02901	123.0
108.99307	121.0
253.01265	117.0
257.0097	117.0
119.01263	115.0
184.05385	115.0
313.03378	110.0
197.0247	108.0
151.00359	105.0
284.02972	105.0
242.01923	93.0
165.00206	92.0
96.99284	90.0
217.05284	89.0
82.00526	89.0
173.05551	88.0
240.03976	86.0
213.05344	86.0
143.04984	84.0
178.99808	84.0
157.02879	82.0
123.00909	81.0
108.02197	81.0
232.03905	79.0
109.02886	77.0
195.04483	75.0
162.99429	74.0
132.02234	74.0
258.01544	72.0
129.03406	69.0
238.02762	69.0
162.03305	69.0
373.05499	68.0
155.05078	68.0
259.02313	67.0
181.03065	67.0
122.0	66.0
461.54813	64.0
167.04996	63.0
170.03374	63.0
157.06316	63.0
325.03754	62.0
445.07535	62.0
193.01646	62.0
189.05479	59.0
315.05551	59.0
169.02899	57.0
233.04405	56.0
189.01979	56.0
83.01308	56.0
177.01868	56.0
225.01927	54.0
120.02112	53.0
95.01532	53.0
145.06557	52.0
302.0416	51.0
299.05197	50.0
151.03969	47.0
200.03679	47.0
302.25949	47.0
226.99937	47.0
245.00674	47.0
136.97491	46.0
147.00871	46.0
148.01968	45.0
272.01596	45.0
265.01331	45.0
156.05841	45.0
343.03214	44.0
217.01245	44.0
134.02258	43.0
228.01707	43.0
205.0119	43.0
461.58389	42.0
226.01634	42.0
302.46722	42.0
461.53339	42.0
283.00079	41.0
161.06221	41.0
462.6217	40.0
94.00619	40.0
200.02295	40.0
166.98541	39.0
285.039	39.0
373.04742	39.0
207.03032	39.0
182.02943	38.0
135.00615	38.0
120.99831	38.0
343.06842	36.0
137.98648	36.0
281.00934	36.0
306.88065	36.0
200.00632	36.0
164.96809	36.0
205.05397	35.0
199.01871	35.0
130.0405	35.0
191.03387	35.0
144.06241	35.0
201.70784	34.0
343.01581	34.0
213.7458	34.0
203.99521	34.0
121.03062	34.0
204.35062	34.0
214.99464	33.0
214.01363	33.0
255.00571	33.0
131.0486	32.0
172.01491	32.0
68.99766	32.0
298.96222	31.0
98.00136	31.0
302.27481	31.0
208.7048	31.0
303.66571	30.0
266.0202	30.0
258.00601	30.0
217.54944	30.0
152.01007	29.0
200.45529	29.0
216.00093	29.0
142.04317	29.0
193.03006	29.0
285.02908	28.0
216.15927	28.0
174.01529	28.0
302.81305	28.0
198.65692	28.0
329.797	28.0
301.85782	28.0
205.92009	27.0
150.99516	27.0
206.92465	27.0
240.98135	27.0
185.04628	27.0
463.02618	27.0
327.07104	27.0
200.68413	27.0
163.99352	27.0
269.04105	26.0
217.03265	26.0
300.73935	26.0
302.78238	26.0
225.67639	26.0
179.03476	26.0
64.99754	26.0
312.86053	26.0
313.0043	26.0
222.85776	26.0
303.90125	26.0
303.42172	26.0
282.1037	26.0
300.54749	26.0
205.35135	26.0
301.39182	26.0
413.23087	26.0
205.14793	26.0
204.23584	26.0
197.52673	26.0
462.12054	25.0
306.0509	25.0
305.56287	25.0
304.77252	25.0
196.61118	25.0
163.48351	25.0
220.85509	25.0
307.39551	25.0
194.93681	25.0
218.56602	25.0
194.03819	25.0
201.83443	25.0
154.04399	25.0
308.23911	25.0
253.99493	25.0
289.2489	25.0
299.67041	25.0
302.02118	25.0
246.1362	25.0
230.20639	25.0
311.69763	25.0
233.01266	25.0
301.59756	25.0
67.01834	25.0
243.00743	25.0
239.0016	25.0
199.62981	25.0
198.53271	25.0
202.49442	25.0
198.71075	25.0
209.01898	25.0
302.48767	25.0
214.8683	25.0
203.64149	25.0
213.44527	25.0
241.03912	25.0
211.65779	25.0
212.00841	25.0
214.31314	25.0
337.32111	25.0
302.55069	25.0
207.93309	25.0
93.00056	25.0
190.41718	25.0
175.02307	25.0
187.50551	25.0
204.15887	24.0
232.30464	24.0
263.02753	24.0
281.97375	24.0
141.03308	24.0
364.7099	24.0
185.00632	24.0
204.51724	24.0
312.02448	24.0
324.99695	24.0
190.01875	24.0
300.36417	24.0
199.24948	24.0
203.78127	24.0
200.20164	24.0
196.34488	24.0
201.60216	24.0
201.21858	24.0
173.004	24.0
203.07591	24.0
202.67282	24.0
370.52289	24.0
200.90059	24.0
341.22986	24.0
225.056	24.0
203.29646	24.0
99.00729	24.0
153.01747	24.0
227.07021	24.0
227.27536	24.0
200.3222	24.0
297.03003	24.0
302.13181	24.0
376.36282	23.0
307.69089	23.0
256.01379	23.0
311.95184	23.0
254.97755	23.0
215.01474	23.0
158.02312	23.0
222.03255	23.0
183.03362	23.0
202.30634	23.0
202.55991	23.0
165.97208	23.0
202.77878	23.0
210.99867	23.0
211.41994	23.0
212.99054	23.0
136.53745	23.0
128.38857	23.0
119.00729	23.0
117.072	23.0
220.36638	23.0
221.0152	23.0
148.01254	23.0
223.57466	23.0
92.56853	23.0
91.54533	23.0
222.79198	22.0
294.96783	22.0
95.46162	22.0
304.90759	22.0
304.17444	22.0
303.30743	22.0
303.19489	22.0
234.90897	22.0
403.04642	22.0
177.05385	22.0
299.38568	22.0
200.1019	22.0
199.54402	22.0
184.01134	22.0
198.61966	22.0
198.40442	22.0
301.80338	22.0
191.98386	22.0
196.05272	22.0
216.25864	22.0
216.44012	22.0
217.5061	22.0
133.00534	22.0
226.53633	22.0
308.44373	22.0
219.42249	22.0
228.98816	22.0
379.28085	22.0
300.72406	21.0
66.21906	21.0
350.13113	21.0
199.77373	21.0
186.01733	21.0
201.49788	21.0
302.3923	21.0
188.01004	21.0
220.69067	21.0
197.39876	21.0
301.97693	21.0
197.0948	21.0
302.67334	21.0
274.08398	21.0
298.9436	21.0
233.77864	21.0
306.3645	21.0
211.02428	21.0
212.1282	21.0
210.93466	21.0
203.70998	21.0
307.58612	21.0
250.23831	21.0
166.27499	21.0
132.51001	21.0
215.31209	21.0
176.01425	21.0
319.57175	21.0
355.04071	21.0
160.00755	21.0
310.2988	20.0
238.90926	20.0
186.60948	20.0
146.02962	20.0
239.82892	20.0
302.10458	20.0
202.13226	20.0
230.04298	20.0
249.0392	20.0
301.74216	20.0
215.59526	20.0
269.08923	20.0
206.81761	20.0
54.01211	20.0
198.77979	20.0
199.40295	20.0
335.00317	19.0
203.41656	19.0
273.0231	19.0
93.03645	19.0
234.05872	19.0
198.10934	19.0
201.34361	19.0
129.02849	19.0
316.34656	19.0
304.26157	19.0
202.84991	19.0
326.04996	19.0
120.98646	19.0
212.42354	18.0
132.01447	18.0
266.3685	18.0
118.56223	18.0
308.80673	18.0
218.4343	18.0
304.29742	18.0
168.6676	18.0
301.68262	18.0
149.02336	18.0
203.26854	18.0
127.85762	17.0
287.55759	17.0
200.82704	17.0
84.9912	17.0
61.44344	17.0
144.02245	17.0
106.00605	16.0
268.54816	16.0
229.98506	16.0
124.96966	16.0
330.57639	16.0
333.86957	16.0
235.31589	16.0
145.56845	16.0
113.27819	15.0
293.52823	15.0
339.57306	15.0
155.02153	15.0
411.39154	14.0
389.35172	14.0
435.08737	14.0
89.10696	14.0
421.22586	13.0
415.39157	13.0
414.02353	13.0
100.95387	13.0
456.27423	13.0
424.14517	13.0
406.04224	13.0
403.95126	13.0
401.08282	13.0
399.01837	13.0
397.61707	13.0
408.18607	13.0
425.56213	13.0
429.06824	13.0
430.17041	13.0
432.68243	13.0
437.4826	13.0
459.16544	13.0
438.55655	13.0
440.22949	13.0
246.6819	13.0
457.73544	13.0
445.8277	13.0
448.23773	13.0
451.1991	13.0
394.89575	13.0
454.34137	13.0
396.17532	13.0
361.19879	13.0
392.70953	13.0
261.14096	13.0
354.09476	13.0
352.66074	13.0
350.53253	13.0
347.54126	13.0
346.04041	13.0
343.38953	13.0
114.69171	13.0
125.62187	13.0
390.54294	13.0
263.21973	13.0
139.49985	13.0
275.05597	13.0
276.95294	13.0
279.02161	13.0
285.99707	13.0
290.54276	13.0
355.98978	13.0
358.06403	13.0
359.82657	13.0
291.70901	13.0
388.0755	13.0
384.53787	13.0
383.12006	13.0
380.71637	13.0
250.73582	13.0
103.21468	13.0
373.89905	13.0
105.0303	13.0
371.57736	13.0
107.00859	13.0
369.13495	13.0
367.61066	13.0
366.31253	13.0
111.17125	13.0
363.3385	13.0
251.99652	13.0

MSID: 8907
ID: 196
RETENTIONTIME: 22.5305
PRECURSORMZ: 347.1866
AREA: 23939566.0
PRECURSORTYPE: [M-H]-
SMILES: [H][C@@]12CC(=O)[C@]3([H])[C@]([C@@H]1O)([C@H](O)C[C@]1([H])[C@@](C)(CO)CCC[C@@]31C)C(=O)C2=C
NAME: amethystoidin A
FORMULA: C20H28O5
INCHIKEY: KVVMQRLBODZZRT-AZLPZDFOSA-N
CAS: nan
Molecular Weight: 348.439
Number of References: 3
Class: Kaurane and Phyllocladane diterpenoids
Superclass: Diterpenoids
Pathway: Terpenoids
ppm: 0.7500000000391083
CMID: CM243
IONMODE: Negative
COLLISIONENERGY: 40±20eV
INSTRUMENTTYPE: AB SCIEX
INSTRUMENT: Q-TOF
Comment:  
Num Peaks: 486
347.18661	159818.0
317.17566	150975.0
299.16495	19803.0
215.10774	17820.0
201.09186	14510.0
243.13834	14331.0
281.15335	9152.0
241.12387	5280.0
315.15927	4965.0
267.13898	4810.0
265.12289	4648.0
271.16986	4538.0
297.14935	4021.0
200.08356	2815.0
255.13823	2494.0
214.09923	2254.0
227.1082	2005.0
282.12625	1923.0
283.13379	1664.0
284.14313	1361.0
245.15504	1275.0
266.12997	1151.0
217.12175	1129.0
213.09311	1094.0
228.11432	1005.0
184.08809	990.0
256.1105	773.0
242.13158	752.0
73.0292	736.0
229.12265	684.0
212.08363	640.0
279.14056	634.0
257.15375	569.0
185.0966	525.0
226.09988	502.0
329.17609	475.0
186.06778	470.0
85.0651	458.0
172.05186	397.0
203.10768	392.0
319.19147	356.0
244.14565	351.0
268.1098	348.0
269.11612	339.0
269.15466	327.0
251.1077	324.0
240.11523	303.0
302.15002	295.0
199.07642	281.0
216.11572	276.0
238.10127	249.0
271.15857	241.0
345.16965	236.0
253.11974	234.0
259.16931	227.0
301.14148	223.0
225.09383	210.0
169.06564	201.0
202.0999	200.0
187.07365	198.0
255.10225	189.0
185.06062	188.0
285.14929	181.0
71.05023	177.0
239.10567	177.0
151.07675	168.0
257.11761	164.0
241.08737	151.0
254.09285	149.0
209.09935	146.0
316.13184	140.0
177.09265	130.0
346.04166	125.0
264.11295	125.0
188.08627	121.0
211.07799	118.0
237.09294	117.0
255.1132	117.0
242.09348	117.0
283.16016	106.0
237.16533	103.0
244.11046	103.0
59.01379	102.0
231.13705	101.0
71.01392	98.0
297.12405	98.0
258.16449	97.0
252.11581	94.0
284.12167	94.0
189.09084	94.0
210.10738	94.0
229.08708	90.0
236.08224	90.0
298.15799	87.0
287.16534	85.0
256.14499	84.0
253.08701	84.0
311.16138	81.0
283.17334	80.0
251.14183	79.0
273.1489	79.0
274.11758	79.0
101.06098	78.0
245.11671	77.0
212.11929	76.0
254.13031	75.0
214.08347	75.0
225.12614	74.0
211.11214	74.0
164.08354	71.0
257.13177	71.0
230.13173	70.0
230.09309	70.0
267.10376	69.0
280.14606	69.0
190.09808	68.0
239.14201	67.0
158.03886	67.0
99.04514	65.0
228.70039	65.0
250.09695	65.0
113.06028	64.0
198.06767	63.0
223.07381	61.0
240.08185	61.0
144.05511	61.0
199.10957	59.0
228.08917	59.0
238.06349	59.0
228.08177	58.0
218.09105	57.0
278.13037	57.0
315.13147	56.0
197.06012	55.0
115.07463	55.0
263.14304	55.0
204.11377	54.0
235.14879	54.0
58.00482	53.0
287.13214	53.0
255.17264	52.0
170.07687	51.0
231.10281	50.0
282.09995	50.0
256.09015	50.0
226.08369	49.0
252.07851	49.0
224.08121	49.0
227.13477	49.0
270.12753	47.0
244.13187	47.0
281.11722	47.0
163.07655	47.0
159.04379	46.0
202.08737	44.0
200.06139	44.0
300.13287	44.0
283.11566	44.0
249.09442	44.0
135.08104	43.0
316.16144	43.0
237.12762	42.0
173.06168	42.0
197.09311	42.0
266.08844	42.0
295.13049	42.0
213.05022	42.0
346.00525	42.0
327.15906	42.0
301.17377	41.0
184.07481	41.0
270.15973	41.0
258.12201	40.0
72.02261	40.0
150.06857	40.0
266.15234	40.0
313.14587	39.0
242.33582	39.0
171.08087	39.0
238.133	38.0
217.1001	38.0
251.07977	38.0
214.37013	38.0
296.14075	38.0
239.07236	38.0
223.11183	38.0
221.1357	37.0
271.1344	37.0
231.90443	37.0
212.10503	37.0
289.17181	37.0
285.11127	37.0
316.10919	37.0
202.07484	37.0
319.17221	36.0
317.99237	36.0
301.10239	36.0
346.069	36.0
229.15526	34.0
318.17752	34.0
266.1076	34.0
284.11176	34.0
219.03789	34.0
248.20961	34.0
187.0482	33.0
315.10886	33.0
216.07542	33.0
171.11674	33.0
153.0899	33.0
187.10849	33.0
203.15373	33.0
242.07977	33.0
95.04953	33.0
176.08414	32.0
315.12103	32.0
214.65698	32.0
225.08501	31.0
233.09749	31.0
230.69063	31.0
211.03815	31.0
229.00853	31.0
222.58702	31.0
198.1035	31.0
85.06059	31.0
183.04657	31.0
227.08606	31.0
232.92558	31.0
226.06161	31.0
303.1637	30.0
232.11028	30.0
275.16434	30.0
234.742	29.0
234.616	29.0
346.07809	29.0
236.6167	29.0
213.52074	29.0
169.05418	29.0
217.07846	29.0
252.09871	29.0
216.65736	29.0
230.65494	28.0
210.06621	28.0
222.10515	28.0
233.69891	28.0
216.13013	28.0
243.09863	27.0
215.07758	27.0
190.93341	27.0
242.1712	27.0
319.15472	27.0
174.06926	27.0
191.1053	27.0
215.81351	27.0
235.07671	26.0
250.33705	26.0
234.547	26.0
320.64172	26.0
329.12457	26.0
278.11404	26.0
244.08138	26.0
213.14027	26.0
97.06599	26.0
211.61755	26.0
225.32455	26.0
265.63657	26.0
255.41673	26.0
214.45618	26.0
257.67853	26.0
195.93037	26.0
306.58344	26.0
171.04501	26.0
167.05095	26.0
252.75841	26.0
282.07855	26.0
258.54382	26.0
232.02226	26.0
232.31172	26.0
225.68631	26.0
186.04909	25.0
244.5666	25.0
185.08061	25.0
139.31116	25.0
225.05856	25.0
245.74724	25.0
241.67769	25.0
83.04684	25.0
221.73315	25.0
215.86818	25.0
218.91325	25.0
218.8727	25.0
216.90968	25.0
261.18958	25.0
216.33173	25.0
209.32173	25.0
213.85858	25.0
279.01624	25.0
280.24603	25.0
297.08353	25.0
167.29152	25.0
214.26978	25.0
214.15799	25.0
317.77939	25.0
143.09177	25.0
316.70844	25.0
149.09964	25.0
231.18619	25.0
346.51181	24.0
344.34052	24.0
254.86456	24.0
332.16238	24.0
258.14087	24.0
229.93715	24.0
157.09726	24.0
231.65396	24.0
219.11905	24.0
228.84999	24.0
228.29626	24.0
208.08527	24.0
227.80086	24.0
208.50504	24.0
227.43002	24.0
227.3119	24.0
227.0654	24.0
209.05971	24.0
210.08751	24.0
211.24164	24.0
214.05911	24.0
215.03305	24.0
215.14221	24.0
220.24973	24.0
219.71959	24.0
230.76501	24.0
206.49631	24.0
199.05154	24.0
232.81351	24.0
126.63676	24.0
234.562	24.0
187.8795	24.0
172.0416	24.0
233.11693	24.0
195.28802	24.0
168.56433	24.0
197.84447	24.0
210.90161	23.0
221.56111	23.0
215.50432	23.0
154.97128	23.0
155.08345	23.0
238.39905	23.0
212.35896	23.0
211.56912	23.0
263.10651	23.0
218.73508	23.0
210.54622	23.0
231.59882	23.0
144.87431	23.0
235.44621	23.0
68.39044	23.0
241.02504	23.0
230.79922	23.0
210.80775	22.0
145.94299	22.0
295.33243	22.0
141.87492	22.0
207.40778	22.0
200.42723	22.0
209.11635	22.0
268.07932	22.0
267.08777	22.0
225.88643	22.0
347.13553	22.0
250.08766	22.0
237.14421	22.0
236.29596	22.0
232.80156	22.0
232.60587	22.0
229.79462	22.0
123.08058	22.0
226.13818	22.0
229.47855	22.0
221.95923	22.0
263.37183	22.0
222.63086	21.0
237.30409	21.0
185.04597	21.0
220.08263	21.0
202.78403	21.0
319.06726	21.0
221.09346	21.0
272.05106	21.0
280.94156	21.0
147.04172	21.0
150.80605	21.0
279.08984	21.0
67.05431	21.0
298.14108	21.0
239.84065	21.0
217.89008	21.0
247.1185	20.0
249.12224	20.0
215.54027	20.0
269.61755	20.0
183.68971	20.0
233.18721	20.0
285.12119	20.0
232.49834	20.0
221.83086	20.0
264.1384	20.0
225.76428	20.0
210.00803	20.0
209.63922	20.0
280.21982	20.0
345.78305	20.0
199.46486	20.0
244.34766	20.0
140.76898	19.0
317.88586	19.0
227.9753	19.0
318.62485	19.0
199.25745	19.0
225.24077	19.0
210.66844	19.0
318.83813	19.0
162.06769	19.0
158.80553	18.0
125.47902	18.0
201.24046	18.0
260.11765	18.0
181.04485	18.0
173.78902	18.0
240.832	18.0
223.68413	17.0
288.18182	17.0
228.38506	17.0
230.44974	17.0
227.50093	17.0
293.1554	17.0
151.17546	17.0
119.07334	17.0
233.17076	17.0
174.77023	16.0
182.0331	16.0
324.74576	15.0
333.84576	15.0
183.10884	15.0
239.26015	15.0
111.53584	13.0
332.39087	13.0
335.48315	13.0
336.51889	13.0
337.71457	13.0
160.28984	13.0
341.62195	13.0
339.2135	13.0
340.69949	13.0
117.05698	13.0
342.84299	13.0
109.78461	13.0
108.30084	13.0
106.84032	13.0
103.95902	13.0
102.0508	13.0
330.09174	13.0
119.47975	13.0
117.91143	13.0
327.66406	13.0
303.59354	13.0
151.55498	13.0
307.18387	13.0
308.64963	13.0
312.00146	13.0
291.56973	13.0
290.13846	13.0
137.45418	13.0
132.88318	13.0
131.51402	13.0
130.00121	13.0
128.40056	13.0
276.08127	13.0
123.72022	13.0
120.56654	13.0
164.70129	13.0
321.69821	13.0
323.22635	13.0
325.79663	13.0
55.45589	12.0

MSID: 8908
ID: 520
RETENTIONTIME: 32.37978
PRECURSORMZ: 359.1496
AREA: 22460280.0
PRECURSORTYPE: [M-H]-
SMILES: COC1=CC(CCCO)=CC2=C1O[C@H]([C@@H]2CO)C1=CC=C(O)C(OC)=C1
NAME: 4-[(2R,3S)-3-Hydroxymethyl-5-(3-hydroxy-propyl)-7-methoxy-2,3-dihydro-benzofuran-2-yl]-2-methoxy-phenol
FORMULA: C20H24O6
INCHIKEY: SBLZVJIHPWRSQQ-BEFAXECRSA-N
CAS: nan
Molecular Weight: 360.407
Number of References: 45
Class: Neolignans
Superclass: Lignans
Pathway: Shikimates and Phenylpropanoids
ppm: 0.1350000000570617
CMID: CM243
IONMODE: Negative
COLLISIONENERGY: 40±20eV
INSTRUMENTTYPE: AB SCIEX
INSTRUMENT: Q-TOF
Comment:  
Num Peaks: 643
359.15161	146616.0
315.16071	144929.0
232.07423	63205.0
231.10258	28496.0
297.14908	26605.0
287.16504	20059.0
259.09653	19558.0
258.08868	11450.0
230.0587	8235.0
256.1087	7441.0
244.07349	5989.0
217.05083	5095.0
229.04979	4446.0
228.07858	4386.0
243.06633	3782.0
216.07808	3782.0
201.05554	3454.0
279.13867	3330.0
272.10571	3038.0
314.1532	3014.0
203.10748	2985.0
245.08119	2913.0
271.13251	2743.0
246.08945	2720.0
300.13599	2606.0
299.12738	1981.0
241.08562	1942.0
147.04514	1844.0
282.12433	1826.0
269.1528	1722.0
215.07018	1679.0
201.09026	1665.0
187.03998	1645.0
257.07968	1564.0
214.0632	1208.0
198.03163	1165.0
201.06943	1017.0
227.07108	959.0
188.04713	954.0
187.11098	822.0
229.06609	748.0
213.05714	734.0
296.14047	726.0
189.05563	681.0
229.08684	658.0
313.14383	610.0
286.12051	589.0
242.09476	572.0
254.09416	563.0
200.04596	476.0
199.03891	455.0
174.03033	441.0
175.03944	435.0
226.09966	427.0
175.112	425.0
274.12054	397.0
215.03427	396.0
217.0869	386.0
253.16154	367.0
285.11264	361.0
297.13388	332.0
271.12283	328.0
216.0421	327.0
202.02731	314.0
203.03491	306.0
213.09288	290.0
259.08551	287.0
215.05869	286.0
239.07211	281.0
272.13962	279.0
216.06801	264.0
314.13065	262.0
281.11859	260.0
203.06979	257.0
225.0554	255.0
247.09824	248.0
271.09863	247.0
273.11301	244.0
197.09703	241.0
223.07651	238.0
240.07857	234.0
200.08336	233.0
233.08231	223.0
228.11259	218.0
264.11584	214.0
119.05078	211.0
137.02383	201.0
271.1712	196.0
226.06139	186.0
146.03751	184.0
187.07481	184.0
185.05911	178.0
285.14902	168.0
185.02315	159.0
210.07169	159.0
186.03287	155.0
198.06747	154.0
255.10199	153.0
211.07777	152.0
215.10895	141.0
298.12051	137.0
267.10028	135.0
157.06396	133.0
162.03137	133.0
186.0676	131.0
211.04079	127.0
159.04362	126.0
171.04485	125.0
101.0599	125.0
143.05063	124.0
253.11948	123.0
163.04013	121.0
243.09991	119.0
161.02325	117.0
160.05296	116.0
152.04709	110.0
202.0649	109.0
298.15601	108.0
195.04568	108.0
253.08832	104.0
185.09775	104.0
257.11578	103.0
199.0762	103.0
173.02286	103.0
158.03748	103.0
172.05554	103.0
213.07002	101.0
212.04778	98.0
357.9556	97.0
263.10782	96.0
184.05203	92.0
244.05818	91.0
238.13277	89.0
299.10706	88.0
267.13712	86.0
145.02863	86.0
271.15829	86.0
357.97968	85.0
314.10806	85.0
131.05049	84.0
296.12866	83.0
227.10501	82.0
254.13007	80.0
230.09286	78.0
172.08766	78.0
157.02838	77.0
251.14468	77.0
153.05704	76.0
283.16483	74.0
170.07414	74.0
283.09561	73.0
183.04373	73.0
241.16013	72.0
203.05585	72.0
269.11905	69.0
238.14485	68.0
187.05873	67.0
243.05563	67.0
169.06674	67.0
241.1221	64.0
224.08098	64.0
283.13351	64.0
181.06442	64.0
243.17168	64.0
95.05135	63.0
258.06824	63.0
237.0927	63.0
285.10437	62.0
239.10846	60.0
159.0782	60.0
106.04207	59.0
134.03583	59.0
196.05356	59.0
284.10489	59.0
225.08919	58.0
218.09517	58.0
272.0831	57.0
255.13484	57.0
266.09616	56.0
225.13033	55.0
183.08083	55.0
256.08047	55.0
200.06812	54.0
234.08806	54.0
268.11111	54.0
242.0582	53.0
241.05215	53.0
260.10477	53.0
253.11012	53.0
214.09473	51.0
187.09624	51.0
144.05968	50.0
202.09831	50.0
214.04457	49.0
204.04082	49.0
285.13412	49.0
83.05033	49.0
270.12564	48.0
219.06955	48.0
171.08199	48.0
198.00958	48.0
190.02499	47.0
265.12262	45.0
226.08347	45.0
212.08342	45.0
175.03166	44.0
175.07701	44.0
249.08954	43.0
251.11055	43.0
197.06404	42.0
124.05145	42.0
209.09348	42.0
312.13263	42.0
130.04573	41.0
129.03593	41.0
296.17081	40.0
295.13358	40.0
160.01828	40.0
238.10103	40.0
228.04457	40.0
244.10562	39.0
316.16635	39.0
182.06992	38.0
299.08673	38.0
169.10493	38.0
199.06653	38.0
236.082	38.0
331.15088	38.0
232.758	38.0
237.12589	37.0
188.0807	37.0
278.13171	37.0
236.44176	37.0
161.0593	37.0
287.20819	37.0
145.06519	37.0
214.02737	37.0
268.14639	36.0
254.06763	36.0
211.05928	36.0
216.02914	36.0
209.18695	36.0
314.88434	36.0
209.05807	36.0
186.02618	35.0
197.99719	35.0
214.24519	35.0
256.06638	35.0
208.05258	35.0
287.11859	35.0
255.0629	35.0
218.05612	35.0
300.16992	35.0
203.12701	35.0
161.09782	35.0
246.03108	35.0
211.92943	35.0
237.5498	35.0
262.47284	34.0
279.0994	34.0
174.10139	34.0
242.31422	34.0
231.30807	34.0
205.63437	34.0
221.05975	33.0
314.95386	33.0
279.08957	33.0
237.18016	33.0
227.17734	33.0
200.02795	33.0
254.03952	33.0
205.12634	33.0
245.03827	33.0
197.02556	33.0
212.53146	33.0
195.45345	33.0
246.05565	32.0
217.02486	32.0
158.08672	32.0
244.01994	32.0
315.98529	32.0
177.05598	32.0
248.04121	32.0
175.07184	32.0
173.09756	32.0
182.8755	32.0
238.06174	31.0
222.76801	31.0
184.08658	31.0
239.36595	31.0
240.04822	31.0
240.83327	31.0
238.48499	30.0
229.02756	30.0
105.03403	30.0
271.06802	30.0
207.13547	30.0
151.07298	30.0
206.47076	30.0
212.26172	30.0
190.10194	30.0
216.01906	30.0
172.04399	30.0
234.4238	29.0
111.00787	29.0
249.94341	29.0
178.14439	29.0
317.16138	29.0
207.81393	29.0
254.07542	29.0
341.5094	29.0
231.612	29.0
269.09494	29.0
232.90144	28.0
240.15292	28.0
201.03888	27.0
235.17708	27.0
147.02258	27.0
216.11263	27.0
239.61147	27.0
239.0918	27.0
215.28709	27.0
133.06259	27.0
280.11136	26.0
241.02783	26.0
253.0665	26.0
233.11818	26.0
240.99438	26.0
238.01038	26.0
247.86543	26.0
195.08534	26.0
299.16803	26.0
200.21774	26.0
240.7421	26.0
257.05771	26.0
236.89822	26.0
189.0947	26.0
281.10709	26.0
236.11211	26.0
234.84081	26.0
313.10223	26.0
207.95795	26.0
246.87816	26.0
241.91652	26.0
230.34695	26.0
213.03857	26.0
260.34171	26.0
314.08725	26.0
267.26038	26.0
223.06334	26.0
317.29742	26.0
269.90198	26.0
216.37471	26.0
258.67743	26.0
314.19833	26.0
229.26028	26.0
215.78165	25.0
186.59828	25.0
224.06926	25.0
254.4783	25.0
296.10507	25.0
161.37387	25.0
142.04047	25.0
187.72096	25.0
187.02391	25.0
161.48584	25.0
164.63954	25.0
185.96208	25.0
184.84337	25.0
180.65749	25.0
166.13568	25.0
173.81982	25.0
215.01418	25.0
223.03409	25.0
262.34274	25.0
238.8511	25.0
239.0479	25.0
286.2431	25.0
236.59386	25.0
125.06239	25.0
224.93495	25.0
213.22299	25.0
272.05725	25.0
319.07391	25.0
205.43922	25.0
204.66096	25.0
258.1705	25.0
242.85873	25.0
230.03049	25.0
259.05713	25.0
201.84224	25.0
208.87971	25.0
233.45772	25.0
209.13454	25.0
129.88832	25.0
210.99527	25.0
211.60451	25.0
234.2574	25.0
211.95366	25.0
259.73691	25.0
199.40933	25.0
245.14713	25.0
234.94437	25.0
137.00664	25.0
212.7271	25.0
235.47603	25.0
192.52104	25.0
266.73712	25.0
208.26027	24.0
239.94203	24.0
145.82812	24.0
180.05383	24.0
178.56682	24.0
170.15717	24.0
286.09402	24.0
164.19379	24.0
156.058	24.0
155.04793	24.0
143.43153	24.0
203.01677	24.0
305.43365	24.0
306.3414	24.0
311.56543	24.0
133.08179	24.0
130.49728	24.0
83.04319	24.0
358.77499	24.0
199.16464	24.0
199.71783	24.0
226.04813	24.0
272.67947	24.0
234.21544	24.0
233.94725	24.0
257.23987	24.0
257.50851	24.0
232.95674	24.0
230.72163	24.0
230.46141	24.0
246.99049	24.0
225.1656	24.0
267.07788	24.0
213.76529	24.0
213.33455	24.0
212.3188	24.0
210.22499	24.0
296.0899	23.0
258.25076	23.0
268.27951	23.0
257.02316	23.0
226.7318	23.0
202.82565	23.0
168.12454	23.0
233.21538	23.0
219.88632	23.0
234.51826	23.0
234.62776	23.0
219.57133	23.0
219.10434	23.0
237.00525	23.0
239.50839	23.0
240.4368	23.0
240.53398	23.0
65.03527	23.0
198.72679	23.0
188.59004	23.0
188.00685	23.0
232.77443	23.0
130.03903	23.0
66.91799	23.0
241.5648	23.0
165.05446	23.0
142.92885	23.0
150.02884	23.0
244.0383	23.0
136.8909	23.0
144.83646	23.0
132.05463	23.0
166.06247	22.0
134.01202	22.0
221.66585	22.0
263.3223	22.0
222.80016	22.0
261.07855	22.0
224.04874	22.0
304.02847	22.0
269.71698	22.0
215.60907	22.0
214.86774	22.0
211.02087	22.0
210.46928	22.0
208.00032	22.0
206.15288	22.0
146.59424	22.0
246.69971	22.0
156.80144	22.0
160.20538	22.0
179.12471	22.0
246.78123	22.0
56.93871	22.0
247.73747	22.0
242.21667	22.0
243.00679	22.0
255.24121	22.0
248.05818	22.0
252.07358	22.0
251.70369	22.0
236.37851	22.0
241.13579	22.0
285.08124	21.0
252.15288	21.0
190.88316	21.0
280.1474	21.0
291.82364	21.0
258.60812	21.0
209.53835	21.0
163.77493	21.0
231.76851	21.0
151.87085	21.0
156.33949	21.0
210.10432	21.0
248.55507	21.0
141.06877	21.0
244.41478	21.0
245.4861	21.0
118.0432	21.0
314.74533	21.0
316.2865	21.0
91.05292	21.0
348.59451	21.0
358.18909	21.0
246.54591	21.0
209.80067	21.0
198.84415	21.0
210.18524	21.0
235.83231	21.0
217.93178	21.0
213.54199	21.0
227.03566	21.0
233.3141	21.0
218.44385	21.0
257.29797	21.0
235.67593	21.0
235.05244	21.0
234.31136	21.0
220.92873	21.0
212.11765	21.0
297.93115	20.0
217.66731	20.0
296.2045	20.0
233.71664	20.0
229.31219	20.0
170.03839	20.0
209.6702	20.0
229.15503	20.0
248.39453	20.0
67.05665	20.0
132.01862	20.0
223.88899	20.0
226.65808	20.0
342.69577	20.0
232.70122	20.0
97.06686	20.0
167.43069	20.0
154.09099	20.0
209.34561	20.0
200.47694	20.0
236.35443	20.0
182.71928	20.0
252.52312	20.0
240.65854	20.0
177.11072	20.0
238.6665	20.0
237.24503	20.0
199.37614	20.0
170.59816	20.0
149.06003	19.0
233.73909	19.0
240.84999	19.0
195.03612	19.0
274.43356	19.0
213.68082	19.0
252.78462	19.0
81.03599	19.0
207.50911	19.0
176.19313	19.0
171.81157	19.0
214.9754	19.0
210.38689	19.0
170.93855	19.0
166.42358	19.0
286.21661	19.0
208.1331	18.0
261.42517	18.0
233.4278	18.0
135.72586	18.0
221.93129	18.0
248.51801	18.0
249.07253	18.0
251.80313	18.0
177.87263	18.0
241.3898	18.0
237.62074	17.0
198.2191	17.0
107.04782	17.0
294.12335	17.0
207.31873	16.0
353.22641	16.0
322.35336	15.0
125.84225	15.0
135.04221	14.0
340.27811	13.0
343.02579	13.0
338.97333	13.0
349.60999	13.0
345.66434	13.0
347.05307	13.0
334.18369	13.0
357.02057	13.0
351.25253	13.0
353.44363	13.0
355.34244	13.0
336.60837	13.0
139.60243	13.0
332.55838	13.0
328.66251	13.0
147.55263	13.0
138.28421	13.0
302.02209	13.0
307.64371	13.0
310.19275	13.0
122.65711	13.0
121.40011	13.0
119.80525	13.0
116.52876	13.0
115.0031	13.0
113.88634	13.0
112.32727	13.0
109.87994	13.0
108.49955	13.0
102.20607	13.0
323.95532	13.0
327.0206	13.0
292.09305	13.0

MSID: 8909
ID: 334
RETENTIONTIME: 28.8522
PRECURSORMZ: 329.1761
AREA: 20742098.0
PRECURSORTYPE: [M-H]-
SMILES: CC(C)C1=CC2=C(C(O)=C1O)[C@@]1(C)CCCC(C)(C)C1=C(O)C2=O
NAME: 14-deoxycoleon U
FORMULA: C20H26O4
INCHIKEY: QDFALZMZLBCVCD-HXUWFJFHSA-N
CAS: nan
Molecular Weight: 330.424
Number of References: 20
Class: Abeoabietane diterpenoids
Superclass: Diterpenoids
Pathway: Terpenoids
ppm: 0.8150000000455293
CMID: CM243
IONMODE: Negative
COLLISIONENERGY: 40±20eV
INSTRUMENTTYPE: AB SCIEX
INSTRUMENT: Q-TOF
Comment:  
Num Peaks: 535
299.16528	201512.0
329.17468	132139.0
241.1226	74542.0
201.09207	47234.0
283.13409	8601.0
215.10654	3749.0
269.11801	3441.0
242.13031	3294.0
200.08377	2920.0
214.09946	2819.0
57.03493	2579.0
257.15402	2507.0
186.06799	2271.0
217.12343	2187.0
284.14178	2053.0
281.15366	1789.0
202.10013	1385.0
226.09866	1302.0
311.12717	700.0
172.05205	643.0
240.11549	624.0
297.14969	575.0
268.11008	545.0
256.11078	541.0
255.1385	458.0
227.10696	430.0
185.05949	389.0
228.11751	388.0
238.0985	375.0
199.07663	365.0
213.09047	345.0
253.08572	324.0
301.14688	321.0
243.10194	316.0
256.14685	313.0
265.12158	304.0
189.09105	303.0
243.1386	291.0
254.09468	284.0
225.09113	278.0
298.16171	275.0
281.07977	257.0
97.06513	250.0
296.104	250.0
267.10086	231.0
198.06789	229.0
239.10896	202.0
158.03903	194.0
187.0752	191.0
327.16119	185.0
228.07758	185.0
301.17917	183.0
311.16345	174.0
283.12091	166.0
285.11157	165.0
99.08228	153.0
171.11821	149.0
295.09885	148.0
216.11452	145.0
266.13187	144.0
188.0811	139.0
286.11948	136.0
328.08292	130.0
255.10252	123.0
282.12656	122.0
223.0755	121.0
251.10641	120.0
245.08171	120.0
199.03656	113.0
267.13766	108.0
224.08292	102.0
271.17017	98.0
298.18536	95.0
237.09169	92.0
239.14531	92.0
281.12244	92.0
227.07449	92.0
256.13116	89.0
151.07451	87.0
213.05473	86.0
280.14636	86.0
229.12289	83.0
254.12903	82.0
197.09607	81.0
171.0452	79.0
195.0461	79.0
173.06444	78.0
211.07536	78.0
314.11218	77.0
238.06224	75.0
271.09598	74.0
187.11136	74.0
200.05884	73.0
214.08228	72.0
257.12262	69.0
200.43437	68.0
285.1893	68.0
271.13147	68.0
212.08244	68.0
226.06332	67.0
270.16324	67.0
223.11208	66.0
217.10754	65.0
255.17448	64.0
239.0696	63.0
240.33557	62.0
209.09674	61.0
164.08372	60.0
273.07474	59.0
242.10593	55.0
273.15079	55.0
217.08591	55.0
202.08759	54.0
159.11806	53.0
269.15173	53.0
225.05588	52.0
200.04498	50.0
300.13492	50.0
171.10796	49.0
281.09781	48.0
159.04767	47.0
230.09038	46.0
144.05879	46.0
146.03662	46.0
328.11307	46.0
284.10547	45.0
240.08058	45.0
176.08173	44.0
222.06306	44.0
199.06419	44.0
199.1084	44.0
175.07478	44.0
213.12764	43.0
196.0526	43.0
216.05406	43.0
177.09154	43.0
171.07977	43.0
279.14087	43.0
255.12286	42.0
185.09148	42.0
237.05249	42.0
284.12198	41.0
248.06949	41.0
298.13803	41.0
184.05109	41.0
244.10918	41.0
285.14795	41.0
236.08701	41.0
297.11761	40.0
240.32039	38.0
200.44824	37.0
270.17288	37.0
203.10371	36.0
198.05823	36.0
251.14366	36.0
231.06734	36.0
267.08966	36.0
133.06512	35.0
209.05992	35.0
219.18887	35.0
202.5793	35.0
300.57617	35.0
237.12637	35.0
199.37657	34.0
198.10371	34.0
219.10043	34.0
231.13582	33.0
240.14584	33.0
209.70183	33.0
200.42191	33.0
218.72372	33.0
202.67131	33.0
220.87679	33.0
220.43604	33.0
230.05621	33.0
241.63533	33.0
237.16708	33.0
265.11362	33.0
178.06242	33.0
181.06612	33.0
130.04153	33.0
85.02907	33.0
83.04961	32.0
165.09758	32.0
202.12518	32.0
269.08588	31.0
214.06938	31.0
211.11237	31.0
183.04544	31.0
204.50592	31.0
172.02637	31.0
215.51605	31.0
215.0778	31.0
328.13611	31.0
286.08136	31.0
197.81712	31.0
218.07683	30.0
193.06532	30.0
300.24689	30.0
217.28362	30.0
233.0499	30.0
224.12103	30.0
213.31496	30.0
296.14276	29.0
226.8591	29.0
145.02893	29.0
329.13559	28.0
221.24953	28.0
184.08563	28.0
241.09828	28.0
189.05064	28.0
216.81041	27.0
233.09476	27.0
256.07474	27.0
194.07082	27.0
297.10242	27.0
187.04172	27.0
174.0307	27.0
255.08688	27.0
190.09964	27.0
197.13182	27.0
215.13957	26.0
215.45567	26.0
173.09535	26.0
253.0499	26.0
244.73537	26.0
296.07367	26.0
252.14407	26.0
292.27109	26.0
286.33319	26.0
280.77283	26.0
220.48401	26.0
217.72701	26.0
214.79929	26.0
249.0545	26.0
205.17445	26.0
223.33299	26.0
310.11923	26.0
204.73425	26.0
242.06784	26.0
229.08733	26.0
270.11334	26.0
242.08612	26.0
238.74567	26.0
284.07578	26.0
229.88394	26.0
298.75043	26.0
275.90424	26.0
277.11252	26.0
148.79384	25.0
99.0774	25.0
143.04976	25.0
147.07039	25.0
243.02255	25.0
300.62201	25.0
224.37473	25.0
135.29752	25.0
121.06718	25.0
223.56721	25.0
123.08179	25.0
242.15622	25.0
234.55475	25.0
197.56654	25.0
218.60788	25.0
175.4754	25.0
164.36357	25.0
164.42635	25.0
274.08545	25.0
250.10187	25.0
211.91133	25.0
231.7019	25.0
182.67332	25.0
164.07996	25.0
255.63145	25.0
204.57454	25.0
203.49188	25.0
240.06541	25.0
201.79396	25.0
258.04834	25.0
253.06703	25.0
166.33299	25.0
154.16911	25.0
161.88838	25.0
218.1824	25.0
158.67738	25.0
259.09393	25.0
237.42505	25.0
218.05803	25.0
251.07072	25.0
196.36946	24.0
266.05679	24.0
327.19308	24.0
201.73972	24.0
197.53763	24.0
200.70065	24.0
197.97279	24.0
199.58957	24.0
260.0737	24.0
247.92453	24.0
163.4496	24.0
221.72902	24.0
220.46365	24.0
223.47205	24.0
220.76183	24.0
211.15932	24.0
171.40399	24.0
162.5744	24.0
222.88834	24.0
243.07904	24.0
298.49152	24.0
279.10162	24.0
163.00797	24.0
232.37169	23.0
240.00777	23.0
238.03503	23.0
258.08923	23.0
198.89981	23.0
239.86517	23.0
66.33382	23.0
306.46033	23.0
112.53622	23.0
300.06195	23.0
299.14325	23.0
147.08939	23.0
166.95369	23.0
271.71872	23.0
271.0589	23.0
191.30185	23.0
267.2305	23.0
263.48019	23.0
227.04056	23.0
239.7484	23.0
200.12256	23.0
200.87688	23.0
223.19838	23.0
223.03748	23.0
221.3923	23.0
246.38039	23.0
220.1526	23.0
217.2995	23.0
212.20938	23.0
203.91957	23.0
203.61203	23.0
200.94907	23.0
280.10703	22.0
253.00005	22.0
295.13083	22.0
254.2961	22.0
327.12753	22.0
241.81042	22.0
219.85629	22.0
160.31729	22.0
222.93219	22.0
140.75055	22.0
159.56183	22.0
162.72551	22.0
218.9077	22.0
236.98012	22.0
172.09444	22.0
217.36736	22.0
175.03462	22.0
188.94563	22.0
192.95377	22.0
213.44084	22.0
197.42204	22.0
197.62573	22.0
207.02034	22.0
198.23744	22.0
139.73003	22.0
201.36713	22.0
225.13815	22.0
227.14091	22.0
228.94061	22.0
231.03012	22.0
233.91628	22.0
106.85562	22.0
232.07024	22.0
82.86231	22.0
195.4922	21.0
195.81271	21.0
137.09863	21.0
181.51575	21.0
266.05038	21.0
198.04445	21.0
265.0849	21.0
67.86594	21.0
200.00897	21.0
313.10117	21.0
179.71535	21.0
181.13202	21.0
134.42867	21.0
311.07535	21.0
128.31195	21.0
129.85957	21.0
165.08374	21.0
278.13556	21.0
161.64925	21.0
257.08493	21.0
133.32393	21.0
157.10234	21.0
150.9686	21.0
150.06514	21.0
145.57547	21.0
238.1393	21.0
169.76814	21.0
221.84569	21.0
217.82961	21.0
249.99501	21.0
208.41901	21.0
207.97675	21.0
206.29675	21.0
220.81421	21.0
215.9346	21.0
222.38423	21.0
203.41365	21.0
251.69333	21.0
216.07565	21.0
219.91873	21.0
293.16074	20.0
110.08043	20.0
163.07799	20.0
162.27612	20.0
272.58948	20.0
220.96994	20.0
302.30698	20.0
216.79311	20.0
301.26077	20.0
155.08362	20.0
129.11075	20.0
222.09955	20.0
222.2791	20.0
135.08232	20.0
137.06538	20.0
223.04918	20.0
178.91806	20.0
243.05614	20.0
266.11588	20.0
201.96928	20.0
199.66151	20.0
211.03979	20.0
214.62279	20.0
214.98016	20.0
268.07159	20.0
236.12012	20.0
199.83174	20.0
202.02495	19.0
165.40726	19.0
181.91309	19.0
240.30672	19.0
133.35672	19.0
205.40738	19.0
208.90562	19.0
231.28918	19.0
308.38681	19.0
281.18814	19.0
269.31082	19.0
196.93251	19.0
160.01366	19.0
212.90611	19.0
160.91301	19.0
230.38013	19.0
191.10551	19.0
222.58287	19.0
193.85942	19.0
146.82347	18.0
223.24812	18.0
139.1969	18.0
241.55313	18.0
223.45009	18.0
299.74313	18.0
219.62112	18.0
218.58762	18.0
303.90106	18.0
218.45587	18.0
169.9915	18.0
145.40773	18.0
84.56376	17.0
306.94394	17.0
203.34802	17.0
185.91574	17.0
262.75427	17.0
166.17137	17.0
210.03806	17.0
156.30309	17.0
285.71213	17.0
177.01987	17.0
287.50427	17.0
252.57344	17.0
204.6824	17.0
158.54541	17.0
134.12456	16.0
135.75011	16.0
227.57207	16.0
228.41638	16.0
153.33492	16.0
173.44597	16.0
138.23154	16.0
95.65206	14.0
151.79997	14.0
314.29446	13.0
315.3735	13.0
316.5293	13.0
293.52805	13.0
317.85828	13.0
319.72037	13.0
320.64908	13.0
322.63367	13.0
324.44089	13.0
325.65735	13.0
311.86691	13.0
103.01474	13.0
101.05026	13.0
260.30908	13.0
104.80455	13.0
111.02255	13.0
107.52071	13.0
108.78455	13.0
289.86526	13.0
288.43488	13.0
140.95859	13.0
148.90376	13.0
131.7355	13.0
130.75162	13.0
126.78902	13.0
125.81065	13.0
124.52006	13.0
121.6897	13.0
120.05109	13.0
118.35859	13.0
112.76904	13.0
274.44711	13.0
305.04251	13.0
291.18057	13.0
308.50031	13.0
55.05559	13.0

MSID: 8910
ID: 548
RETENTIONTIME: 32.93177
PRECURSORMZ: 331.1919
AREA: 19372856.0
PRECURSORTYPE: [M-H]-
SMILES: [H][C@@]12C[C@@H](O)C3=C(C(=O)C(O)=C(C(C)C)C3=O)[C@@]1(C)CCCC2(C)C
NAME: horminone
FORMULA: C20H28O4
INCHIKEY: YVSUCPNWDPTGKM-JGRMJRGVSA-N
CAS: nan
Molecular Weight: 332.44
Number of References: 52
Class: Abietane diterpenoids
Superclass: Diterpenoids
Pathway: Terpenoids
ppm: 0.9650000000078762
CMID: CM243
IONMODE: Negative
COLLISIONENERGY: 40±20eV
INSTRUMENTTYPE: AB SCIEX
INSTRUMENT: Q-TOF
Comment:  
Num Peaks: 410
331.19189	167141.0
303.19583	148553.0
329.17581	44112.0
285.1871	29730.0
203.10751	6702.0
271.17126	2975.0
301.1803	2922.0
287.16342	2685.0
201.09169	2429.0
229.12393	2390.0
288.17328	1666.0
216.11554	1048.0
215.10611	740.0
189.09203	718.0
269.15445	669.0
231.13835	529.0
245.15329	497.0
202.09973	432.0
177.0912	392.0
255.13957	353.0
247.16908	349.0
270.1611	330.0
217.123	329.0
243.13965	322.0
71.04935	306.0
283.1731	254.0
260.1427	219.0
273.14865	217.0
230.12856	192.0
187.07483	188.0
287.2016	184.0
302.19745	165.0
267.14035	154.0
178.10129	143.0
188.08342	137.0
241.12366	131.0
288.15497	127.0
288.13336	125.0
204.11639	119.0
190.09927	118.0
253.12419	117.0
214.10335	113.0
259.1691	110.0
227.10506	106.0
313.18201	105.0
205.12357	91.0
268.14645	90.0
242.13136	87.0
244.14696	87.0
161.05931	87.0
330.08969	77.0
200.082	76.0
257.15509	75.0
228.11412	74.0
299.1647	73.0
213.12866	70.0
302.20935	70.0
174.06912	69.0
176.08269	69.0
330.11459	63.0
267.17557	63.0
314.14804	60.0
186.06763	60.0
313.16815	59.0
271.13577	58.0
269.14319	58.0
240.11502	57.0
160.05176	56.0
213.09435	56.0
217.08693	56.0
301.16159	55.0
232.14439	54.0
219.10437	54.0
163.07516	53.0
313.14389	51.0
188.07939	47.0
229.09726	46.0
175.07574	46.0
284.17755	45.0
328.09647	45.0
281.15637	44.0
199.07762	43.0
218.53362	42.0
330.06656	41.0
201.07501	41.0
179.0697	40.0
288.12006	39.0
232.89549	38.0
311.16458	38.0
164.08215	37.0
239.10547	36.0
275.19821	36.0
229.1432	36.0
302.22299	36.0
229.16396	35.0
273.1778	35.0
247.15985	35.0
221.81609	35.0
214.2997	34.0
217.09991	34.0
257.11899	33.0
220.93022	33.0
328.07516	33.0
330.13239	33.0
259.12811	33.0
162.06754	32.0
287.12195	32.0
97.0688	32.0
270.1257	32.0
201.24724	32.0
330.9371	32.0
223.03851	31.0
204.93147	31.0
269.11588	31.0
149.09592	31.0
251.14473	30.0
203.0782	30.0
226.97668	30.0
192.11638	30.0
170.07289	30.0
218.32521	30.0
135.08319	30.0
200.42982	30.0
216.08099	30.0
211.11053	30.0
284.22708	29.0
235.9632	29.0
221.66298	29.0
222.1429	29.0
173.06152	29.0
304.13098	28.0
305.61514	28.0
185.05647	28.0
241.58464	28.0
329.13495	28.0
219.1754	28.0
191.10785	28.0
221.08453	28.0
206.57634	27.0
201.61694	27.0
257.20065	26.0
219.39726	26.0
219.85587	26.0
225.40375	26.0
235.71205	26.0
303.71274	26.0
200.83485	26.0
230.27119	26.0
197.73962	26.0
249.1282	26.0
215.07309	26.0
222.01886	26.0
303.9722	26.0
198.09644	26.0
222.6555	25.0
192.21004	25.0
203.82549	25.0
220.63629	25.0
220.33675	25.0
145.03101	25.0
243.07094	25.0
201.12918	25.0
198.59294	25.0
330.29788	25.0
219.29575	25.0
199.67773	25.0
199.94212	25.0
286.6658	25.0
185.09644	25.0
217.87978	25.0
225.76556	25.0
243.17477	25.0
231.42578	25.0
177.68724	25.0
205.22597	25.0
281.15146	25.0
171.04231	25.0
83.00841	25.0
218.79283	25.0
218.83919	25.0
224.11914	25.0
247.13829	24.0
233.17953	24.0
223.11456	24.0
255.17555	24.0
222.34583	24.0
236.42975	24.0
246.10486	24.0
133.51257	24.0
236.76866	24.0
222.62044	24.0
216.36035	24.0
217.85664	24.0
219.08987	24.0
213.83405	24.0
214.81178	24.0
202.42841	24.0
199.15224	24.0
274.15463	24.0
217.04797	24.0
217.18506	24.0
204.86137	24.0
218.0388	24.0
175.69696	24.0
284.13959	24.0
219.48721	24.0
170.80545	24.0
159.04611	24.0
221.85109	24.0
219.81812	24.0
220.06355	24.0
85.06593	23.0
204.18076	23.0
330.20532	23.0
238.64536	23.0
238.50317	23.0
197.09431	23.0
245.57666	23.0
310.8779	23.0
194.93085	23.0
193.45703	23.0
185.76053	23.0
305.0864	23.0
305.97647	23.0
286.15039	23.0
223.50237	23.0
226.10117	23.0
272.13968	23.0
224.2907	23.0
253.11017	23.0
225.20972	23.0
281.98129	23.0
222.87767	22.0
233.11823	22.0
218.16174	22.0
218.67117	22.0
185.13374	22.0
256.10715	22.0
222.7885	22.0
220.30042	22.0
152.10025	22.0
261.14664	22.0
260.16797	22.0
330.24271	22.0
242.05823	22.0
232.69528	22.0
259.83163	22.0
231.66718	22.0
221.96779	22.0
224.79988	22.0
230.88533	22.0
230.51199	22.0
200.11386	22.0
246.16324	22.0
204.24232	22.0
212.24321	22.0
254.56271	21.0
299.14944	21.0
268.10956	21.0
253.78522	21.0
248.94894	21.0
330.89078	21.0
284.25516	21.0
143.658	21.0
240.16206	21.0
219.43063	21.0
222.0816	21.0
221.9357	21.0
221.49242	21.0
184.4269	21.0
186.8606	21.0
221.12967	21.0
220.3949	21.0
219.64973	21.0
187.73172	21.0
191.10107	21.0
224.03705	21.0
218.4077	21.0
217.46223	21.0
217.22113	21.0
215.94139	21.0
213.15726	21.0
137.0571	21.0
207.20879	21.0
206.47079	21.0
205.35085	21.0
223.98282	21.0
221.21269	21.0
203.77795	21.0
230.09885	21.0
229.51395	21.0
230.73209	21.0
165.08971	21.0
231.34534	21.0
228.1792	21.0
229.62375	21.0
227.05341	21.0
237.62984	21.0
231.4973	20.0
212.62859	20.0
242.60092	20.0
230.5685	20.0
226.57851	20.0
271.09546	20.0
329.80328	20.0
136.84624	20.0
136.05237	20.0
244.13319	20.0
215.90685	20.0
216.69609	20.0
276.18845	20.0
301.13101	20.0
216.57935	20.0
314.13934	20.0
220.98409	20.0
315.1312	20.0
158.03381	20.0
224.85275	20.0
304.87775	20.0
224.58118	20.0
224.23643	20.0
252.83447	20.0
222.6745	20.0
227.51254	20.0
145.4984	19.0
182.09372	19.0
125.05803	19.0
218.55099	19.0
275.00333	19.0
274.47415	18.0
238.90562	18.0
162.51416	18.0
184.92995	18.0
154.45834	18.0
216.98883	18.0
202.00368	18.0
260.10953	18.0
196.44731	18.0
204.47891	17.0
302.16168	17.0
182.6743	17.0
289.06665	17.0
172.05429	17.0
138.26236	17.0
169.06294	17.0
212.96143	17.0
225.62286	17.0
250.9756	17.0
223.71469	17.0
221.36273	17.0
219.52493	16.0
243.04498	16.0
318.51971	16.0
254.98317	16.0
180.36148	16.0
209.76241	16.0
240.03006	16.0
226.92505	15.0
248.01195	15.0
309.44815	15.0
296.05121	14.0
181.53519	14.0
322.13895	14.0
312.17938	14.0
127.08006	14.0
150.06604	14.0
319.37665	13.0
325.10736	13.0
107.13702	13.0
320.79578	13.0
316.97833	13.0
323.77914	13.0
165.55559	13.0
327.02774	13.0
134.08121	13.0
127.76984	13.0
129.66077	13.0
156.03845	13.0
154.55937	13.0
131.43756	13.0
152.67688	13.0
150.73257	13.0
146.91219	13.0
145.87308	13.0
315.67557	13.0
289.68634	13.0
166.69659	13.0
297.83655	13.0
279.26959	13.0
138.82947	13.0
299.51373	13.0
278.22812	13.0
276.87076	13.0
195.22765	13.0
112.55158	13.0
193.78543	13.0
121.00985	13.0
140.0448	13.0
108.50977	13.0
294.46274	13.0
265.75925	13.0
264.10315	13.0
262.65216	13.0
261.40622	13.0
292.90204	13.0
291.38724	13.0
307.4411	13.0
111.03265	13.0
142.07199	13.0
93.57349	12.0

MSID: 8911
ID: 93
RETENTIONTIME: 14.70097
PRECURSORMZ: 719.1617
AREA: 18920364.0
PRECURSORTYPE: [2M-H]-
SMILES: [H][C@](CC1=CC=C(O)C(O)=C1)(OC(=O)\C=C\C1=CC=C(O)C(O)=C1)C(O)=O
NAME: (R)-(+)-rosmarinic acid
FORMULA: C18H16O8
INCHIKEY: DOUMFZQKYFQNTF-WUTVXBCWSA-N
CAS: 20283-92-5
Molecular Weight: 360.32
Number of References: 1024
Class: Cinnamic acids and derivatives
Superclass: Phenylpropanoids (C6-C3)
Pathway: Shikimates and Phenylpropanoids
ppm: 0.24250000001302396
CMID: CM243
IONMODE: Negative
COLLISIONENERGY: 40±20eV
INSTRUMENTTYPE: AB SCIEX
INSTRUMENT: Q-TOF
Comment:  
Num Peaks: 356
161.02478	157559.0
359.07617	157445.0
197.04514	48059.0
179.03461	18252.0
133.03006	5895.0
135.04472	4691.0
72.99327	3055.0
719.16052	1745.0
132.0211	913.0
223.02425	908.0
123.04373	422.0
134.03607	266.0
360.08078	222.0
315.08652	134.0
153.05489	130.0
151.03835	114.0
160.49956	101.0
357.88583	99.0
162.02666	93.0
357.89508	83.0
133.01086	78.0
341.06497	67.0
285.0751	66.0
180.03444	62.0
314.07217	52.0
205.01311	51.0
109.03081	47.0
313.07333	45.0
249.03897	44.0
160.01361	41.0
361.07935	38.0
178.02579	38.0
177.01721	37.0
196.39548	36.0
198.04852	36.0
196.40646	36.0
123.0307	35.0
196.38313	35.0
197.02589	33.0
111.09579	32.0
557.12714	32.0
357.06006	32.0
297.077	32.0
152.03891	31.0
234.92827	28.0
161.57449	27.0
248.65895	27.0
359.99158	27.0
719.08698	27.0
236.21184	27.0
197.74269	26.0
368.17194	26.0
360.96027	26.0
539.10968	26.0
233.88475	26.0
235.30365	26.0
239.38606	26.0
237.93073	26.0
259.92361	26.0
239.71649	26.0
278.72699	26.0
237.00717	25.0
239.96368	25.0
264.84253	25.0
111.93653	25.0
146.30179	25.0
470.99338	25.0
270.08588	25.0
252.46132	25.0
248.9787	25.0
109.46069	25.0
244.11676	25.0
199.1498	25.0
199.04892	25.0
118.09342	25.0
205.00049	25.0
118.89931	25.0
89.47887	25.0
132.62827	25.0
161.85594	25.0
358.06924	25.0
161.52222	25.0
219.43823	25.0
357.84879	25.0
163.02916	25.0
162.08026	24.0
246.54327	24.0
261.27682	24.0
255.38405	24.0
359.03534	24.0
242.8439	24.0
360.04733	24.0
238.13922	24.0
218.58029	24.0
237.96547	24.0
235.62823	24.0
71.65579	24.0
90.81215	24.0
156.42549	24.0
90.05318	24.0
109.02672	24.0
89.01446	24.0
138.51486	24.0
135.85048	23.0
117.53857	23.0
357.94327	23.0
119.46593	23.0
263.98743	23.0
287.96429	23.0
259.32245	23.0
234.42871	23.0
129.16412	23.0
163.52217	23.0
247.3096	23.0
162.36963	23.0
248.92772	23.0
201.98453	23.0
257.45554	23.0
161.89581	23.0
88.59641	23.0
297.05676	23.0
237.34953	23.0
132.0031	23.0
162.7467	23.0
232.22684	22.0
122.96988	22.0
129.62083	22.0
258.28113	22.0
257.04089	22.0
107.37958	22.0
251.56743	22.0
234.63867	22.0
96.67571	22.0
89.93706	22.0
238.82277	22.0
162.11143	22.0
162.18501	22.0
162.43828	22.0
125.59871	22.0
89.22987	22.0
107.22742	21.0
360.21274	21.0
113.4762	21.0
74.6254	21.0
236.43765	21.0
360.77609	21.0
257.59695	21.0
315.07086	21.0
112.25794	21.0
359.79468	21.0
117.03269	21.0
242.40002	21.0
275.75616	21.0
72.98239	21.0
178.99791	21.0
120.18092	20.0
116.97126	20.0
249.16879	20.0
228.48735	20.0
114.3217	20.0
244.3203	20.0
110.92863	20.0
206.49083	20.0
282.24326	20.0
200.66591	20.0
164.44388	20.0
198.67883	20.0
358.73666	20.0
238.70172	20.0
110.06293	20.0
178.44284	20.0
293.47427	20.0
109.73339	20.0
362.49683	19.0
174.66034	19.0
240.68327	19.0
266.7312	19.0
259.16949	19.0
199.85384	19.0
115.54477	18.0
240.81699	18.0
144.19276	18.0
117.47913	18.0
105.03322	18.0
246.44334	18.0
89.67443	18.0
131.45462	18.0
388.60391	18.0
87.7853	18.0
233.01694	18.0
263.15912	17.0
124.36053	17.0
150.0291	17.0
151.03233	17.0
161.3754	17.0
196.34334	17.0
157.18945	17.0
160.34204	16.0
134.68649	16.0
104.49397	16.0
90.497	16.0
168.55429	16.0
168.43861	16.0
107.99337	16.0
365.53479	16.0
197.57474	16.0
137.65527	16.0
271.09589	16.0
320.87524	16.0
124.5845	16.0
88.2281	15.0
106.20064	15.0
271.53787	15.0
89.8173	15.0
253.68266	15.0
113.37817	15.0
192.70213	15.0
88.70152	15.0
520.09229	14.0
716.69928	14.0
574.8559	14.0
578.25134	14.0
495.75519	14.0
719.00031	14.0
501.66196	14.0
473.34683	14.0
74.74219	14.0
116.44125	14.0
141.29008	14.0
482.45361	14.0
493.10086	14.0
176.01019	13.0
91.52464	13.0
148.01956	13.0
100.54783	13.0
355.57755	13.0
351.47708	13.0
349.46964	13.0
347.61215	13.0
345.99274	13.0
429.77405	13.0
342.48975	13.0
157.73752	13.0
339.08569	13.0
337.14816	13.0
333.67426	13.0
459.81155	13.0
332.20367	13.0
330.41409	13.0
327.82742	13.0
326.48834	13.0
323.58411	13.0
173.11848	13.0
392.30176	13.0
171.65916	13.0
383.86188	13.0
374.76266	13.0
371.92255	13.0
370.70731	13.0
369.29645	13.0
322.73383	13.0
393.77142	13.0
154.36124	13.0
395.28275	13.0
364.09082	13.0
362.77469	13.0
153.23424	13.0
396.60583	13.0
400.93735	13.0
164.83968	13.0
166.35062	13.0
407.96411	13.0
413.4873	13.0
418.07797	13.0
168.899	13.0
170.33379	13.0
120.29581	13.0
319.26517	13.0
261.4003	13.0
206.83432	13.0
255.51239	13.0
202.25601	13.0
136.00233	13.0
138.97972	13.0
140.05661	13.0
159.15508	13.0
274.6174	13.0
141.60571	13.0
142.97592	13.0
121.61621	13.0
268.98941	13.0
194.19765	13.0
271.99634	13.0
207.91313	13.0
249.71631	13.0
209.22839	13.0
210.71977	13.0
212.35199	13.0
215.04614	13.0
216.71951	13.0
129.96558	13.0
220.09442	13.0
222.49661	13.0
223.68283	13.0
225.33501	13.0
226.49928	13.0
229.61076	13.0
230.9095	13.0
127.14208	13.0
125.66676	13.0
273.46964	13.0
267.20959	13.0
276.05057	13.0
182.07816	13.0
277.72406	13.0
299.52945	13.0
300.83588	13.0
301.81503	13.0
303.22189	13.0
304.50388	13.0
305.71323	13.0
306.94556	13.0
309.05429	13.0
309.82086	13.0
311.96884	13.0
180.60515	13.0
144.7283	13.0
146.70596	13.0
316.13556	13.0
297.67313	13.0
317.64346	13.0
187.0363	13.0
292.04669	13.0
282.92313	13.0
189.38734	13.0
188.00182	13.0
289.33856	13.0
290.38727	13.0
286.63144	13.0
280.49713	13.0
294.17426	13.0
295.70468	13.0
184.45114	13.0
279.32077	13.0
190.92815	13.0
567.7124	12.0
711.35333	12.0
452.13522	12.0
536.79297	12.0
553.65155	12.0
544.82727	12.0
458.16254	12.0
488.95834	12.0
420.64685	12.0
426.33987	12.0
468.93411	12.0

MSID: 8912
ID: 221
RETENTIONTIME: 24.43372
PRECURSORMZ: 389.1967
AREA: 18451978.0
PRECURSORTYPE: [M-H]-
SMILES: [H][C@@]12C[C@@H](OC(C)=O)C3=C(C(=O)C(O)=C(C(C)C)C3=O)[C@@]1(C)CCC[C@]2(C)CO
NAME: 19-hydroxy-7α-acetoxyroyleanone
FORMULA: C22H30O6
INCHIKEY: GRUVGBVSXJLAOU-FDQSAEMMSA-N
CAS: nan
Molecular Weight: 390.477
Number of References: 2
Class: Abeoabietane diterpenoids
Superclass: Diterpenoids
Pathway: Terpenoids
ppm: 0.2850000000194086
CMID: CM243
IONMODE: Negative
COLLISIONENERGY: 40±20eV
INSTRUMENTTYPE: AB SCIEX
INSTRUMENT: Q-TOF
Comment:  
Num Peaks: 319
281.15515	133408.0
329.17627	45215.0
389.19867	39204.0
59.01383	17373.0
265.12305	13714.0
299.16513	13422.0
347.185	11202.0
317.17584	1014.0
184.08952	944.0
212.08234	709.0
217.08723	678.0
311.16501	393.0
226.10002	335.0
213.0918	301.0
299.14987	284.0
284.14163	284.0
266.13171	266.0
243.10335	262.0
215.10498	196.0
279.13745	187.0
256.1091	186.0
185.09537	186.0
251.10939	174.0
283.13394	162.0
238.0999	149.0
250.09865	129.0
230.09175	124.0
297.14954	107.0
298.15817	103.0
201.09196	102.0
216.07986	102.0
235.14742	101.0
280.22327	98.0
231.10146	98.0
269.11948	96.0
225.09248	95.0
237.09006	93.0
217.12332	90.0
237.16396	87.0
280.14621	86.0
255.13681	83.0
317.14969	79.0
263.14319	76.0
200.08366	74.0
214.09935	73.0
341.17523	65.0
202.06244	64.0
295.13403	64.0
299.12787	62.0
271.16681	61.0
253.12143	60.0
217.106	56.0
227.10832	56.0
211.07526	55.0
249.08992	52.0
280.21014	50.0
199.07652	49.0
223.07686	49.0
229.09016	48.0
241.08751	48.0
282.15765	47.0
253.16039	47.0
301.17734	46.0
257.11621	45.0
245.11685	41.0
189.09364	41.0
266.10617	39.0
244.10905	37.0
186.24693	37.0
218.35301	36.0
346.03278	35.0
188.08907	35.0
164.08488	35.0
268.10995	35.0
328.07031	35.0
165.08995	34.0
171.07841	34.0
236.08389	34.0
315.16119	34.0
242.09058	33.0
316.16684	33.0
203.07011	33.0
255.09927	33.0
227.07291	32.0
267.10233	32.0
264.25793	32.0
174.06937	31.0
280.18555	31.0
341.1662	31.0
183.04269	30.0
220.59734	29.0
241.12097	29.0
251.10164	29.0
267.14392	29.0
210.56197	28.0
256.14984	28.0
187.0751	28.0
389.16776	28.0
197.06297	28.0
329.21182	28.0
215.07483	28.0
263.10666	27.0
228.07303	27.0
387.91501	27.0
283.41086	27.0
183.23618	27.0
282.30408	26.0
218.09407	26.0
259.922	26.0
282.72546	26.0
311.13739	26.0
190.93217	26.0
347.13754	26.0
280.61847	25.0
175.3132	25.0
331.33319	25.0
237.08252	25.0
216.7858	25.0
256.05267	25.0
244.0907	25.0
263.98737	25.0
188.65356	25.0
187.67831	25.0
190.03609	25.0
155.46915	25.0
191.78831	25.0
317.13748	25.0
75.55798	25.0
186.09061	25.0
205.54062	25.0
208.76117	25.0
254.093	25.0
253.79962	25.0
261.72336	24.0
239.14821	24.0
271.13779	24.0
156.0668	24.0
260.58392	24.0
273.10696	24.0
233.09763	24.0
281.73343	24.0
232.15964	24.0
151.07564	24.0
220.09148	24.0
186.63603	24.0
207.14566	24.0
222.73474	24.0
364.15616	23.0
157.16978	23.0
282.4884	23.0
156.37524	23.0
194.29042	23.0
192.29993	23.0
190.32104	23.0
265.09274	23.0
296.13754	23.0
216.62721	23.0
330.06525	23.0
264.27066	23.0
313.10446	23.0
188.92804	23.0
345.17166	23.0
182.25523	23.0
252.10818	22.0
232.48056	22.0
154.96162	22.0
210.10466	22.0
249.60332	22.0
176.08553	22.0
236.07635	22.0
212.05951	22.0
216.11584	22.0
201.13086	22.0
262.13541	22.0
346.83292	22.0
239.55121	22.0
174.03061	22.0
204.72993	21.0
387.87643	21.0
199.03922	21.0
267.91595	21.0
196.10461	21.0
283.06476	21.0
58.82441	21.0
279.108	21.0
251.07991	21.0
221.10233	21.0
185.08205	21.0
224.5316	21.0
235.81313	21.0
162.99538	20.0
184.43115	20.0
281.91592	20.0
227.51878	20.0
167.42464	20.0
252.71651	20.0
365.39246	20.0
146.80441	20.0
198.09396	19.0
196.69199	19.0
189.72438	19.0
189.14751	19.0
198.81822	19.0
190.0685	19.0
188.04205	19.0
170.07442	19.0
204.07471	19.0
209.68329	19.0
284.02942	19.0
222.19286	19.0
213.67114	19.0
219.99269	19.0
243.04076	19.0
199.22577	18.0
239.05432	18.0
190.18732	18.0
229.86899	17.0
248.11411	17.0
296.13083	17.0
60.01709	17.0
179.05815	17.0
185.84488	17.0
206.40497	17.0
228.8916	17.0
319.17938	16.0
281.12067	16.0
58.37387	16.0
195.41679	16.0
255.36679	16.0
187.04295	16.0
148.53825	16.0
221.36742	16.0
226.05585	16.0
179.98712	16.0
329.12653	15.0
200.81155	15.0
224.95293	15.0
179.45937	15.0
240.06833	15.0
156.94151	15.0
273.99615	15.0
289.12369	14.0
172.05453	14.0
181.1003	14.0
371.04294	13.0
335.27353	13.0
339.55646	13.0
338.38995	13.0
383.88483	13.0
336.47418	13.0
385.12531	13.0
333.81375	13.0
387.16122	13.0
375.43781	13.0
331.69513	13.0
148.96942	13.0
157.43753	13.0
153.15906	13.0
382.60614	13.0
343.12064	13.0
159.01547	13.0
352.70264	13.0
161.05705	13.0
360.81137	13.0
359.17633	13.0
357.73386	13.0
357.15622	13.0
354.60315	13.0
351.1026	13.0
177.69272	13.0
350.358	13.0
347.55002	13.0
327.08664	13.0
166.36574	13.0
167.85826	13.0
176.45607	13.0
130.04036	13.0
320.3176	13.0
326.21231	13.0
151.9761	13.0
136.1131	13.0
293.77124	13.0
292.76501	13.0
291.63846	13.0
290.02689	13.0
286.61316	13.0
285.46045	13.0
284.34637	13.0
124.7627	13.0
135.07542	13.0
125.43521	13.0
257.28424	13.0
133.27525	13.0
132.59555	13.0
274.94849	13.0
276.12213	13.0
277.78278	13.0
247.02321	13.0
137.51396	13.0
324.65244	13.0
233.42068	13.0
323.64395	13.0
126.56632	13.0
79.98172	13.0
144.90741	13.0
143.56314	13.0
142.55701	13.0
313.78064	13.0
113.42403	13.0
309.47617	13.0
308.12015	13.0
305.58478	13.0
303.73364	13.0
302.52823	13.0
138.70392	13.0
299.84641	13.0
119.43272	13.0
121.89497	13.0
245.81801	13.0

MSID: 8913
ID: 60
RETENTIONTIME: 12.81867
PRECURSORMZ: 479.1195
AREA: 17256846.0
PRECURSORTYPE: [M-H]-
SMILES: COC1=C(O[C@@H]2O[C@H](CO)[C@@H](O)[C@H](O)[C@H]2O)C=C2OC(CC(=O)C2=C1O)C1=CC=C(O)C(O)=C1
NAME: 5,7,3',4'-tetrahydroxy-6-methoxyflavanone-7-O-β-D-glucopyranoside
FORMULA: C22H24O12
INCHIKEY: FXNVAMVSMZPUDG-BNIRWLJWSA-N
CAS: nan
Molecular Weight: 480.425
Number of References: 1
Class: Flavanones
Superclass: Flavonoids
Pathway: Shikimates and Phenylpropanoids
ppm: 0.5450000000450927
CMID: CM243
IONMODE: Negative
COLLISIONENERGY: 40±20eV
INSTRUMENTTYPE: AB SCIEX
INSTRUMENT: Q-TOF
Comment:  
Num Peaks: 391
317.06601	118948.0
181.01466	66337.0
135.04472	38411.0
165.99084	19095.0
164.98305	18395.0
302.04303	18351.0
301.03464	12792.0
166.99791	7686.0
205.01451	2595.0
137.02406	2480.0
180.00554	2461.0
189.99158	2431.0
139.00397	2361.0
464.09262	2126.0
284.03275	2120.0
215.03465	1892.0
479.12109	1872.0
155.03357	1750.0
110.0013	1541.0
134.03606	1201.0
161.02353	978.0
328.04199	960.0
136.9874	886.0
152.01114	788.0
343.06448	755.0
65.00301	712.0
283.02197	701.0
109.02876	662.0
137.99556	619.0
299.05508	597.0
257.04245	594.0
258.05298	591.0
208.00209	517.0
255.02893	478.0
223.0257	475.0
256.03705	461.0
140.01141	450.0
190.99716	442.0
216.04103	399.0
341.06494	387.0
82.00607	382.0
124.01567	374.0
203.03387	357.0
446.08578	354.0
229.05019	341.0
178.99922	325.0
214.02776	324.0
207.02872	301.0
192.00674	287.0
218.05795	286.0
176.04788	280.0
235.02434	268.0
123.01006	254.0
316.05548	252.0
136.99886	251.0
193.01221	240.0
359.07617	237.0
120.99281	231.0
211.04115	223.0
113.02705	198.0
137.00688	198.0
227.03458	197.0
219.99998	194.0
273.0423	191.0
201.0184	190.0
213.05466	189.0
187.04031	188.0
175.03975	181.0
239.03317	179.0
153.01733	178.0
111.00807	174.0
240.04106	170.0
194.02028	167.0
202.06525	166.0
163.0029	165.0
161.9955	155.0
188.04611	153.0
247.02324	150.0
133.03006	147.0
303.0531	142.0
274.04971	142.0
124.98706	141.0
174.03064	140.0
326.04437	139.0
95.01237	133.0
199.03925	131.0
246.05609	130.0
96.99371	128.0
201.0545	126.0
164.01218	119.0
121.99881	116.0
297.09726	114.0
228.04053	111.0
98.0003	110.0
151.00224	110.0
316.02066	109.0
136.01831	109.0
233.04533	101.0
85.02904	100.0
231.99857	99.0
159.0439	95.0
446.0589	95.0
107.05003	95.0
204.99908	94.0
230.05614	90.0
92.99858	89.0
214.06357	89.0
195.02687	87.0
461.10388	87.0
298.04663	84.0
185.05943	83.0
108.99297	80.0
329.05374	79.0
316.03284	78.0
149.02681	78.0
183.04538	76.0
344.05554	71.0
189.98077	70.0
198.03061	70.0
200.04768	69.0
241.04649	65.0
204.04117	64.0
94.0061	64.0
212.04814	64.0
202.99759	64.0
315.04999	61.0
195.04056	60.0
177.01981	59.0
285.03873	56.0
124.01131	56.0
66.01197	56.0
180.42621	56.0
302.01068	55.0
137.98866	55.0
155.02382	55.0
96.02208	55.0
258.02936	54.0
231.06726	54.0
54.0099	54.0
242.02052	53.0
148.01598	53.0
215.02173	51.0
160.052	51.0
162.0329	50.0
270.05209	50.0
184.05103	49.0
180.41701	49.0
255.06647	49.0
171.04514	49.0
325.0549	48.0
134.60468	48.0
297.0365	48.0
176.0141	48.0
185.0248	47.0
182.02135	47.0
243.02858	47.0
189.05463	47.0
108.01881	47.0
383.06989	46.0
160.01608	46.0
148.98737	46.0
204.00621	46.0
464.05466	45.0
245.04944	45.0
283.99811	44.0
79.05522	44.0
247.01863	43.0
273.07626	43.0
308.03253	43.0
67.01828	43.0
197.04651	42.0
217.05121	42.0
316.0015	41.0
99.01012	41.0
68.9976	41.0
443.08972	39.0
233.01395	39.0
479.08893	38.0
147.00859	37.0
299.01782	36.0
179.98058	36.0
89.03848	36.0
231.02707	36.0
149.99551	36.0
168.00549	35.0
127.0041	35.0
464.02933	35.0
165.45255	35.0
216.02519	34.0
268.03784	34.0
217.01514	34.0
119.0136	34.0
83.013	34.0
192.99995	34.0
259.02921	34.0
327.05127	34.0
179.03329	34.0
79.01604	34.0
172.05199	34.0
161.98677	34.0
191.99454	34.0
91.05682	33.0
206.02109	33.0
212.18221	33.0
166.97766	32.0
209.04286	32.0
107.01356	32.0
92.99291	32.0
447.0874	32.0
265.0354	32.0
139.88977	32.0
121.02728	31.0
165.97192	31.0
274.03998	31.0
134.02246	30.0
307.04166	30.0
145.03006	30.0
117.03269	30.0
245.04176	30.0
173.02315	30.0
132.0166	30.0
208.50377	30.0
359.04276	30.0
136.01146	30.0
202.02348	29.0
230.02049	29.0
177.9892	29.0
138.98318	29.0
177.05629	28.0
225.30708	28.0
164.44136	28.0
87.04734	28.0
271.05881	27.0
196.04979	27.0
288.0607	27.0
205.05096	27.0
257.02518	27.0
70.00666	27.0
210.0834	26.0
209.74573	26.0
235.00781	26.0
254.04778	26.0
209.01172	26.0
151.04076	26.0
214.99731	26.0
178.24666	26.0
220.85052	25.0
112.01528	25.0
221.01064	25.0
222.01045	25.0
223.00961	25.0
224.01834	25.0
158.03651	25.0
266.02475	25.0
220.25571	25.0
51.02254	25.0
249.50279	25.0
166.02617	25.0
166.72089	25.0
81.9972	25.0
204.97525	25.0
301.07712	25.0
300.02286	25.0
124.23279	25.0
344.02466	25.0
197.0204	25.0
210.02805	25.0
198.73404	25.0
123.99605	25.0
213.01607	25.0
281.0419	25.0
59.01308	25.0
154.2019	25.0
91.71774	25.0
214.64423	25.0
135.53223	25.0
169.96718	25.0
243.05148	24.0
176.33255	24.0
256.01511	24.0
166.45168	24.0
249.00652	24.0
240.92488	24.0
116.72461	24.0
325.02664	24.0
138.33398	24.0
311.04071	24.0
80.02378	24.0
127.03831	24.0
209.1859	24.0
269.04242	24.0
226.55382	24.0
223.21587	24.0
114.83009	24.0
215.05907	24.0
74.76928	23.0
273.00507	23.0
255.06177	23.0
310.02774	23.0
116.38102	23.0
123.72249	23.0
237.05241	23.0
214.27997	23.0
178.60246	23.0
209.64645	23.0
155.00674	23.0
183.78674	23.0
160.99246	23.0
134.61945	23.0
189.01826	23.0
242.995	23.0
201.03784	22.0
126.99747	22.0
216.10437	22.0
300.06015	22.0
87.04003	22.0
185.85826	22.0
207.67314	22.0
210.26086	22.0
186.0372	22.0
429.078	22.0
131.85463	22.0
75.36149	22.0
151.9894	22.0
223.60374	22.0
224.55219	22.0
446.02579	22.0
94.09822	22.0
93.9985	22.0
151.51892	22.0
267.03033	22.0
234.04202	22.0
189.96863	21.0
97.20698	21.0
257.99948	21.0
216.29732	21.0
124.40858	21.0
112.9854	21.0
346.06741	21.0
343.01913	21.0
240.6149	20.0
78.01211	20.0
75.00996	20.0
125.09218	20.0
140.02531	20.0
100.18581	20.0
200.04076	20.0
199.02959	20.0
99.5331	20.0
148.69586	20.0
119.43703	20.0
142.98997	19.0
479.0332	19.0
166.3885	19.0
371.0675	19.0
157.03233	19.0
204.47504	19.0
204.98927	19.0
110.79872	19.0
188.00986	19.0
90.01044	19.0
139.67905	18.0
352.84799	18.0
239.01955	18.0
105.03322	18.0
266.79996	18.0
164.00339	18.0
217.84543	18.0
211.16351	18.0
374.06534	18.0
53.03913	18.0
205.89601	18.0
209.53729	18.0
180.38281	18.0
60.22363	17.0
164.95033	17.0
327.99588	17.0
461.09128	17.0
96.98889	17.0
270.0376	17.0
215.53755	17.0
64.99433	16.0
211.09521	16.0
349.00113	16.0
176.89735	16.0
61.7208	15.0
263.33548	15.0
145.32504	14.0
295.0466	14.0
401.07657	13.0
467.7092	12.0

MSID: 8914
ID: 51
RETENTIONTIME: 12.56653
PRECURSORMZ: 447.0938
AREA: 15370486.0
PRECURSORTYPE: [M-H]-
SMILES: OC[C@H]1O[C@@H](OC2=C(OC3=C(C(O)=CC(O)=C3)C2=O)C2=CC=C(O)C=C2)[C@H](O)[C@@H](O)[C@@H]1O
NAME: astragalin
FORMULA: C21H20O11
INCHIKEY: JPUKWEQWGBDDQB-QSOFNFLRSA-N
CAS: 480-10-4
Molecular Weight: 448.383
Number of References: 2773
Class: Flavonols
Superclass: Flavonoids
Pathway: Shikimates and Phenylpropanoids
ppm: 1.059999999995398
CMID: CM243
IONMODE: Negative
COLLISIONENERGY: 40±20eV
INSTRUMENTTYPE: AB SCIEX
INSTRUMENT: Q-TOF
Comment:  
Num Peaks: 422
285.04205	145286.0
447.09363	104796.0
284.03278	81961.0
256.03864	3467.0
151.00345	2880.0
327.04953	1934.0
133.02893	1656.0
199.03926	1593.0
175.03975	1112.0
227.03459	1072.0
211.03973	814.0
217.05121	707.0
255.0305	704.0
283.02527	664.0
149.02562	634.0
241.04955	606.0
107.01458	540.0
239.03621	423.0
200.0477	407.0
243.02859	399.0
134.0372	392.0
201.01842	364.0
269.04404	339.0
212.04672	308.0
183.04671	285.0
298.04663	268.0
257.04559	264.0
267.02716	256.0
213.05324	254.0
63.02317	237.0
299.05341	233.0
171.04387	231.0
228.04202	231.0
215.03465	230.0
198.03061	216.0
297.03989	216.0
148.01599	208.0
185.0621	200.0
195.04466	199.0
177.01851	198.0
229.0502	184.0
83.013	179.0
197.06165	178.0
187.04031	167.0
188.05016	166.0
184.05104	165.0
121.02836	163.0
242.01901	157.0
65.00381	157.0
132.0211	150.0
357.05637	149.0
149.99551	142.0
223.04034	141.0
172.052	140.0
240.04259	132.0
216.04248	127.0
226.02792	124.0
214.0249	118.0
109.02774	114.0
163.00415	113.0
157.02866	111.0
174.03064	103.0
169.06577	97.0
191.03642	93.0
309.03708	88.0
182.03589	85.0
189.05598	83.0
143.04971	82.0
146.0354	79.0
173.05794	78.0
224.04913	76.0
135.04472	73.0
167.0498	71.0
156.05705	70.0
147.00859	70.0
197.02315	68.0
105.03423	67.0
173.02444	67.0
283.09448	66.0
268.03305	65.0
186.03053	65.0
311.05453	64.0
196.05118	64.0
253.05138	63.0
158.03899	62.0
210.0309	62.0
189.01694	61.0
225.05875	60.0
217.01659	60.0
135.00717	60.0
445.61847	58.0
159.04637	56.0
94.0061	55.0
241.01306	53.0
307.05881	53.0
65.00065	52.0
283.08295	52.0
145.02652	51.0
163.03792	50.0
215.02748	50.0
266.01837	50.0
339.04965	49.0
132.0166	49.0
256.01514	48.0
281.0452	48.0
136.98625	47.0
176.0128	47.0
170.0387	45.0
269.06171	45.0
145.06308	43.0
193.01357	42.0
357.05267	42.0
429.07599	42.0
123.01006	42.0
151.03716	40.0
387.07266	40.0
161.02727	40.0
229.04575	39.0
158.03284	39.0
160.05078	39.0
283.06152	38.0
175.00089	38.0
199.01991	37.0
188.10522	37.0
445.64124	37.0
125.0221	36.0
184.03642	36.0
121.99881	36.0
175.02162	36.0
255.01173	35.0
241.02826	34.0
155.04822	34.0
257.03619	34.0
219.02936	34.0
195.03783	34.0
238.02893	34.0
173.04892	33.0
157.06671	33.0
191.3018	33.0
191.56871	32.0
59.01309	32.0
200.02415	31.0
154.04021	31.0
190.98904	31.0
237.05392	31.0
391.92557	31.0
286.32483	31.0
294.41785	31.0
294.29184	31.0
446.43539	30.0
300.49628	30.0
227.07443	30.0
188.71951	30.0
285.92395	29.0
286.42093	29.0
142.04071	29.0
286.76245	28.0
253.04515	27.0
369.07254	27.0
191.01747	27.0
292.81369	27.0
288.58615	27.0
297.01794	27.0
211.00987	27.0
257.01892	27.0
289.02716	26.0
305.13821	26.0
304.83893	26.0
285.69385	26.0
293.30655	26.0
255.07117	26.0
299.3024	26.0
290.94824	26.0
291.22226	26.0
214.21548	26.0
287.4079	26.0
271.05722	26.0
199.77078	26.0
375.58588	26.0
193.67943	26.0
193.42874	26.0
446.543	26.0
323.05762	26.0
288.82907	25.0
445.66809	25.0
294.56909	25.0
369.05374	25.0
257.4147	25.0
192.96732	25.0
292.1806	25.0
212.80174	25.0
291.50809	25.0
158.45044	25.0
191.49011	25.0
191.44539	25.0
189.98889	25.0
351.05313	25.0
256.01044	25.0
184.30089	25.0
286.98636	25.0
195.50583	25.0
194.96535	25.0
205.32591	25.0
155.37152	25.0
270.04727	25.0
170.37343	25.0
150.9866	25.0
447.04599	25.0
446.72305	25.0
286.39441	25.0
187.07246	25.0
203.81743	25.0
301.19949	25.0
121.99016	24.0
301.66873	24.0
289.86853	24.0
191.67174	24.0
291.68533	24.0
314.67816	24.0
121.01759	24.0
293.24451	24.0
192.80003	24.0
188.38333	24.0
208.5363	24.0
327.0867	24.0
94.57761	24.0
325.03195	24.0
190.7834	24.0
244.18408	24.0
165.01575	24.0
285.90906	23.0
189.24722	23.0
247.79341	23.0
338.36301	23.0
199.81645	23.0
160.01733	23.0
326.99994	23.0
284.78088	23.0
95.01524	23.0
171.03746	23.0
93.03542	23.0
269.01993	23.0
201.62561	23.0
201.00453	23.0
285.99185	23.0
157.31471	22.0
285.57468	22.0
186.49564	22.0
284.63715	22.0
186.19753	22.0
200.22087	22.0
249.05289	22.0
192.65865	22.0
202.32286	22.0
303.96243	22.0
297.13104	22.0
296.65689	22.0
137.01949	22.0
212.39909	22.0
136.01489	22.0
359.18011	22.0
293.60516	22.0
216.01225	22.0
223.34317	22.0
192.60292	22.0
191.91721	22.0
288.39819	22.0
191.23814	22.0
286.94653	22.0
189.99834	22.0
201.98453	22.0
445.55026	21.0
284.54132	21.0
326.36627	21.0
282.95938	21.0
285.71701	21.0
281.03372	21.0
89.91849	21.0
119.0136	21.0
200.78801	21.0
203.5966	21.0
211.06535	21.0
191.35191	21.0
187.7213	21.0
186.99478	21.0
208.74423	21.0
149.0089	21.0
208.17302	21.0
240.02893	21.0
204.63472	21.0
263.15912	21.0
188.34302	20.0
195.76881	20.0
203.03667	20.0
201.27536	20.0
319.638	20.0
325.96304	20.0
192.92378	20.0
153.07185	20.0
129.03395	20.0
188.19118	20.0
158.62428	20.0
161.92198	20.0
156.02036	20.0
194.73843	19.0
197.00941	19.0
160.31352	19.0
193.06392	19.0
331.29938	19.0
335.6969	19.0
192.05832	19.0
133.00748	19.0
233.45364	19.0
383.95782	19.0
213.9189	19.0
188.01256	19.0
120.01994	19.0
131.04849	19.0
266.99994	18.0
215.00594	18.0
179.03198	18.0
221.79604	18.0
342.78159	18.0
349.3049	18.0
351.03845	18.0
107.00546	17.0
197.53207	17.0
190.8808	17.0
89.04034	17.0
143.03917	17.0
286.03326	17.0
128.32411	17.0
407.798	17.0
226.01172	17.0
231.39636	17.0
211.63338	17.0
128.97499	17.0
162.79543	16.0
60.53028	16.0
218.02325	16.0
130.04039	16.0
141.07018	16.0
230.01308	16.0
234.9628	16.0
207.32755	16.0
320.91208	15.0
84.98932	14.0
92.035	14.0
127.05598	14.0
418.14404	13.0
382.96066	13.0
369.70303	13.0
372.58005	13.0
373.92334	13.0
165.28758	13.0
412.74689	13.0
408.64682	13.0
377.1304	13.0
379.78226	13.0
381.32773	13.0
168.05754	13.0
416.47165	13.0
424.06616	13.0
433.79495	13.0
393.49942	13.0
405.10312	13.0
385.10809	13.0
439.82651	13.0
180.28024	13.0
414.98813	13.0
402.17361	13.0
387.96909	13.0
389.64322	13.0
426.89209	13.0
397.9585	13.0
395.93137	13.0
421.20941	13.0
399.74603	13.0
274.51678	13.0
365.96368	13.0
259.48807	13.0
246.18361	13.0
249.47032	13.0
250.68443	13.0
251.87506	13.0
253.73259	13.0
117.03058	13.0
115.05476	13.0
258.09546	13.0
261.01257	13.0
236.01021	13.0
263.84424	13.0
101.70889	13.0
113.01872	13.0
102.9203	13.0
108.01984	13.0
281.40976	13.0
273.39679	13.0
279.02463	13.0
244.47951	13.0
231.68843	13.0
364.73953	13.0
343.54712	13.0
363.19073	13.0
361.245	13.0
359.7984	13.0
152.00752	13.0
356.04306	13.0
353.22336	13.0
352.24124	13.0
347.99387	13.0
340.92752	13.0
125.76558	13.0
336.4473	13.0
333.85318	13.0
332.20013	13.0
277.21188	13.0
315.33167	13.0
310.08981	13.0
138.70395	13.0
137.45543	13.0
164.0034	13.0

MSID: 8915
ID: 138
RETENTIONTIME: 17.86427
PRECURSORMZ: 317.0661
AREA: 15160159.0
PRECURSORTYPE: [M-H]-
SMILES: COC1=C(O)C=C2O[C@@H](CC(=O)C2=C1O)C1=CC=C(O)C(O)=C1
NAME: 6-methoxyeriodictyol
FORMULA: C16H14O7
INCHIKEY: UZQWHZRLSLEWHW-LBPRGKRZSA-N
CAS: nan
Molecular Weight: 318.283
Number of References: 2
Class: Flavanones
Superclass: Flavonoids
Pathway: Shikimates and Phenylpropanoids
ppm: -0.0299999999811007
CMID: CM243
IONMODE: Negative
COLLISIONENERGY: 40±20eV
INSTRUMENTTYPE: AB SCIEX
INSTRUMENT: Q-TOF
Comment:  
Num Peaks: 268
135.04477	52718.0
181.01474	27114.0
165.99091	23648.0
166.99924	18065.0
302.04315	14340.0
139.00401	13578.0
110.00031	9139.0
317.06787	6718.0
180.00691	5049.0
134.03725	4266.0
65.00304	4175.0
82.00521	4050.0
124.01572	3759.0
284.03287	3450.0
136.98744	3424.0
137.02412	2930.0
152.01118	2813.0
111.00811	2439.0
137.99562	1923.0
95.01336	1708.0
123.00902	1452.0
256.03714	1053.0
258.05307	1036.0
155.03485	1028.0
66.0112	916.0
216.04256	777.0
140.0103	691.0
68.99762	677.0
109.02982	676.0
193.01363	631.0
176.04665	587.0
203.03534	585.0
161.02359	506.0
153.0186	465.0
218.05803	463.0
107.05109	435.0
124.98711	427.0
96.99279	406.0
122.00101	391.0
202.06255	364.0
228.0421	352.0
67.0191	346.0
113.02396	343.0
94.00519	339.0
137.01724	330.0
215.03329	310.0
51.02325	298.0
174.032	296.0
137.00464	260.0
83.01392	254.0
175.04111	250.0
96.02211	244.0
54.00992	242.0
257.04568	233.0
79.05525	232.0
229.05028	231.0
164.98311	226.0
227.03319	222.0
188.04753	214.0
133.03011	209.0
192.00954	208.0
80.02644	203.0
274.04657	199.0
299.05521	187.0
98.00033	180.0
204.04265	176.0
187.04037	176.0
246.05156	174.0
240.04114	173.0
183.04544	168.0
184.0511	151.0
117.03274	149.0
198.03206	149.0
149.02448	147.0
211.03981	146.0
230.05771	141.0
89.04036	139.0
108.02089	138.0
151.0023	138.0
212.04536	135.0
255.03059	134.0
159.04643	132.0
91.05498	126.0
201.01848	124.0
245.04492	124.0
165.01833	123.0
108.99506	121.0
172.05077	120.0
87.04554	116.0
178.99667	115.0
177.05505	111.0
200.04361	111.0
201.05736	109.0
199.04208	105.0
207.03021	104.0
158.03781	99.0
214.06651	99.0
301.03644	93.0
239.03174	90.0
99.00821	88.0
241.05267	85.0
217.04985	85.0
162.03171	84.0
80.99738	82.0
93.03545	80.0
179.99377	79.0
106.04229	76.0
214.0264	75.0
186.03326	75.0
195.04747	74.0
173.05928	73.0
148.98743	72.0
213.05475	70.0
77.00258	68.0
195.03105	67.0
168.0081	64.0
134.02704	64.0
258.03732	63.0
160.05206	62.0
85.02998	60.0
202.02496	58.0
243.02715	57.0
141.01906	57.0
136.01608	54.0
129.03398	54.0
137.98412	54.0
171.04648	53.0
105.03426	51.0
259.02774	50.0
112.01532	50.0
124.97725	50.0
283.02206	49.0
132.02115	48.0
134.60699	48.0
147.04308	47.0
177.01727	47.0
78.01127	45.0
120.99608	45.0
173.02451	45.0
285.03717	45.0
196.05124	44.0
191.99461	43.0
122.99381	43.0
157.02872	42.0
71.01317	42.0
203.02417	41.0
151.98825	41.0
185.06084	40.0
231.03014	39.0
53.00279	39.0
156.0571	38.0
92.99861	37.0
70.00504	36.0
57.03493	36.0
145.03128	34.0
81.03528	34.0
273.06827	34.0
180.42497	34.0
99.00626	34.0
170.03748	33.0
67.99023	33.0
197.02734	33.0
146.03664	33.0
301.02286	32.0
231.06586	32.0
189.05873	32.0
143.05209	32.0
79.9914	32.0
202.05418	32.0
204.03426	32.0
148.01604	30.0
242.02061	30.0
179.97408	30.0
267.02884	29.0
283.99655	29.0
153.00648	28.0
212.03966	27.0
255.06186	27.0
230.02354	27.0
116.34197	27.0
272.02713	26.0
163.00171	26.0
166.453	26.0
273.0343	26.0
123.17308	25.0
146.444	25.0
137.32806	25.0
138.03128	25.0
165.4463	25.0
96.43422	25.0
121.03163	25.0
185.0222	25.0
273.08444	25.0
245.02347	24.0
107.01056	24.0
116.65907	24.0
182.17337	24.0
169.02509	24.0
64.7924	24.0
90.00583	24.0
74.21908	24.0
55.63842	24.0
105.00114	24.0
268.03473	24.0
289.07553	24.0
66.00006	23.0
123.995	23.0
228.02435	23.0
237.054	23.0
283.97345	23.0
80.9868	23.0
111.48013	23.0
164.69519	23.0
174.0152	23.0
182.03198	23.0
105.34662	22.0
180.98444	22.0
75.60995	22.0
109.64011	22.0
134.59108	22.0
75.05833	22.0
215.01607	22.0
229.01323	22.0
122.53593	22.0
121.71239	22.0
266.02325	22.0
223.03894	22.0
201.43245	22.0
178.9888	22.0
232.02997	21.0
271.19113	21.0
299.0264	21.0
86.99438	21.0
109.00631	21.0
127.94947	21.0
302.00909	21.0
93.60968	21.0
165.96693	21.0
176.02196	21.0
255.98544	21.0
217.0383	21.0
97.21956	20.0
91.99276	20.0
256.00424	20.0
225.01622	20.0
130.03931	20.0
186.07066	20.0
82.32388	20.0
151.98343	20.0
149.00894	19.0
61.22943	19.0
124.78902	19.0
91.01667	19.0
135.77977	19.0
136.09947	19.0
95.0	19.0
160.01614	19.0
190.92415	19.0
219.0845	19.0
89.03297	18.0
92.47523	18.0
133.41441	18.0
107.64159	18.0
92.29263	17.0
93.99759	17.0
92.16473	16.0
131.77373	16.0
98.75405	16.0

MSID: 8916
ID: 49
RETENTIONTIME: 12.38967
PRECURSORMZ: 447.0943
AREA: 15145653.0
PRECURSORTYPE: [M-H]-
SMILES: OC[C@H]1O[C@@H](OC2=CC3=C(C(O)=C2)C(=O)C=C(O3)C2=CC=C(O)C(O)=C2)[C@H](O)[C@@H](O)[C@@H]1O
NAME: luteolin 7-O-glucoside
FORMULA: C21H20O11
INCHIKEY: PEFNSGRTCBGNAN-QNDFHXLGSA-N
CAS: nan
Molecular Weight: 448.383
Number of References: 1832
Class: Flavones
Superclass: Flavonoids
Pathway: Shikimates and Phenylpropanoids
ppm: 1.5599999999835745
CMID: CM243
IONMODE: Negative
COLLISIONENERGY: 40±20eV
INSTRUMENTTYPE: AB SCIEX
INSTRUMENT: Q-TOF
Comment:  
Num Peaks: 339
284.03265	91620.0
447.09348	85444.0
285.04028	25896.0
136.98849	5987.0
283.02518	4145.0
227.03452	2889.0
212.04665	2849.0
228.04195	2716.0
200.04901	2010.0
256.03854	1387.0
211.03966	1220.0
65.00378	1206.0
184.05229	985.0
239.03461	978.0
186.0318	963.0
183.04532	937.0
255.03041	777.0
164.01086	734.0
267.03027	610.0
199.03918	606.0
149.99547	533.0
158.03647	458.0
214.02625	418.0
190.9971	388.0
156.05699	382.0
240.04402	379.0
185.02341	303.0
165.98953	288.0
327.04941	279.0
163.0041	253.0
166.99913	251.0
155.04938	223.0
164.98174	211.0
187.04025	208.0
159.04385	206.0
185.05937	203.0
216.04097	195.0
139.00278	194.0
171.04509	178.0
266.02466	174.0
195.04323	165.0
172.05194	164.0
165.0182	155.0
238.02733	146.0
223.04025	141.0
177.99306	139.0
257.04709	133.0
213.05745	131.0
136.97932	131.0
241.04947	129.0
213.01601	127.0
136.01599	126.0
117.03371	121.0
108.99397	120.0
182.03714	119.0
210.0294	112.0
143.04965	106.0
147.00735	101.0
119.01356	96.0
269.04715	95.0
201.05444	90.0
170.0399	89.0
167.04849	87.0
197.02171	85.0
168.0575	84.0
188.04741	83.0
132.01993	79.0
108.02081	79.0
109.99715	79.0
429.08191	78.0
196.05247	78.0
144.05753	78.0
141.03291	77.0
268.03937	77.0
118.0423	75.0
198.03192	74.0
283.09601	74.0
255.01164	73.0
137.02518	73.0
225.019	67.0
132.05594	60.0
215.03314	58.0
123.00785	58.0
229.05011	56.0
135.00826	56.0
137.99551	55.0
119.05202	55.0
200.02686	54.0
153.0197	54.0
197.0602	54.0
160.05196	53.0
227.01534	53.0
297.04315	53.0
243.02393	52.0
299.05328	51.0
177.01976	51.0
445.6142	50.0
121.99986	50.0
192.00534	49.0
145.02882	48.0
296.03134	48.0
216.03665	48.0
169.0657	48.0
95.01234	46.0
217.05113	46.0
166.04126	44.0
254.99445	44.0
283.05975	42.0
256.0166	41.0
146.03772	41.0
194.03931	40.0
240.03188	40.0
283.07458	39.0
82.00426	39.0
130.03922	38.0
284.77747	38.0
190.98763	38.0
157.06665	37.0
253.04973	37.0
154.04016	37.0
183.05592	36.0
239.01341	36.0
142.04416	36.0
282.99057	36.0
237.02368	35.0
173.05917	35.0
265.01617	35.0
111.00597	35.0
212.01242	34.0
151.0022	34.0
217.60838	34.0
138.99585	34.0
164.9679	33.0
191.98634	33.0
211.60625	33.0
131.04732	33.0
357.05807	33.0
281.04675	31.0
201.41563	31.0
94.00702	31.0
207.02583	31.0
369.05923	30.0
209.0074	29.0
298.04993	29.0
256.0025	29.0
123.00025	29.0
200.01022	28.0
60.77965	28.0
201.01695	28.0
446.60284	27.0
309.05765	27.0
222.03227	27.0
93.03444	27.0
376.46115	26.0
207.85799	26.0
285.08493	26.0
299.7226	26.0
334.27545	26.0
156.04353	26.0
201.16554	26.0
309.03525	26.0
266.99985	25.0
239.05429	25.0
302.91324	25.0
339.04953	25.0
194.03522	25.0
355.04028	25.0
297.00433	25.0
209.9173	25.0
289.50006	25.0
214.01909	25.0
283.99802	25.0
283.70764	25.0
292.47351	24.0
257.02823	24.0
104.56802	24.0
149.96909	24.0
301.55298	24.0
241.0145	24.0
176.01144	24.0
211.01691	24.0
204.00334	24.0
181.76639	24.0
195.8633	24.0
213.97897	24.0
446.14355	24.0
186.96393	24.0
401.1843	23.0
206.0168	23.0
289.17859	23.0
164.95784	23.0
311.03543	23.0
292.03656	23.0
129.03168	23.0
163.98328	23.0
255.06795	23.0
184.07356	23.0
325.0336	22.0
215.01878	22.0
293.60168	22.0
200.29008	22.0
282.01782	22.0
171.03868	22.0
271.06033	22.0
234.79312	21.0
288.48459	21.0
291.06174	21.0
161.98921	21.0
290.54907	21.0
295.13062	21.0
187.02284	21.0
226.02931	21.0
185.01009	21.0
94.18085	21.0
67.01987	20.0
304.49353	20.0
64.97221	20.0
124.9903	20.0
318.79807	20.0
305.27496	20.0
289.73672	20.0
165.96429	20.0
218.00583	20.0
263.14951	20.0
133.99748	19.0
294.61102	19.0
116.02312	19.0
154.03287	18.0
286.02322	18.0
304.0921	18.0
162.99159	18.0
189.05186	18.0
321.46304	17.0
88.01296	17.0
170.02841	17.0
75.02689	17.0
243.45615	17.0
207.30492	17.0
247.27719	17.0
178.99916	17.0
173.02696	16.0
221.11685	16.0
91.01754	16.0
445.58939	16.0
59.01382	16.0
212.99886	15.0
136.00685	15.0
287.61035	15.0
117.02206	15.0
306.04196	14.0
233.00789	14.0
152.01109	13.0
139.56792	13.0
383.07742	13.0
381.8613	13.0
379.72678	13.0
218.78008	13.0
374.03683	13.0
373.03372	13.0
370.89764	13.0
366.35519	13.0
367.99896	13.0
365.05927	13.0
363.39966	13.0
360.46915	13.0
357.91907	13.0
148.01593	13.0
356.23141	13.0
127.15308	13.0
352.5426	13.0
386.46204	13.0
394.91083	13.0
388.42429	13.0
423.09659	13.0
204.36436	13.0
271.69595	13.0
443.46277	13.0
436.33783	13.0
434.42526	13.0
431.71082	13.0
430.30191	13.0
276.76196	13.0
417.84158	13.0
391.97971	13.0
414.20435	13.0
408.42896	13.0
405.40659	13.0
403.03806	13.0
278.28891	13.0
399.0531	13.0
397.23978	13.0
349.83026	13.0
351.70099	13.0
348.07959	13.0
253.89474	13.0
101.78392	13.0
180.27361	13.0
120.99169	13.0
307.39856	13.0
173.81361	13.0
262.00223	13.0
113.28431	13.0
241.78894	13.0
112.57043	13.0
102.59765	13.0
345.9635	13.0
260.60443	13.0
244.58356	13.0
105.72681	13.0
245.89935	13.0
259.71677	13.0
247.94595	13.0
249.3094	13.0
251.21333	13.0
235.15939	13.0
313.73721	13.0
314.91608	13.0
330.55286	13.0
344.59512	13.0
342.74884	13.0
339.68274	13.0
126.02375	13.0
337.80829	13.0
336.52081	13.0
335.18024	13.0
223.72377	13.0
332.22501	13.0
329.07141	13.0
316.68066	13.0
133.01082	13.0
327.71918	13.0
229.62256	13.0
230.62827	13.0
323.56287	13.0
322.229	13.0
264.00961	13.0
319.83926	13.0
399.90646	12.0
424.45529	12.0

MSID: 8917
ID: 77
RETENTIONTIME: 13.39243
PRECURSORMZ: 955.2135
AREA: 13264846.0
PRECURSORTYPE: [2M-H]-
SMILES: COC1=CC2=C(C(O)=C1)C(=O)C(O[C@@H]1O[C@H](CO)[C@@H](O)[C@H](O)[C@H]1O)=C(O2)C1=CC(O)=C(O)C=C1
NAME: rhamnetin 3-O-β-D-glucopyranoside
FORMULA: C22H22O12
INCHIKEY: PHEWILLIAJUBQE-LFXZADKFSA-N
CAS: 27875-34-9
Molecular Weight: 478.409
Number of References: 19
Class: Flavonols
Superclass: Flavonoids
Pathway: Shikimates and Phenylpropanoids
ppm: -0.46750000001338776
CMID: CM243
IONMODE: Negative
COLLISIONENERGY: 40±20eV
INSTRUMENTTYPE: AB SCIEX
INSTRUMENT: Q-TOF
Comment:  
Num Peaks: 549
477.1044	305943.0
315.05023	19319.0
955.21307	8616.0
300.02817	3807.0
299.01974	3557.0
478.10809	1502.0
462.08047	1428.0
313.03372	1150.0
314.04291	1070.0
301.03656	592.0
357.06403	552.0
285.04059	246.0
199.04079	227.0
475.51645	218.0
271.02356	181.0
315.03461	136.0
255.02913	119.0
475.54846	118.0
243.02724	113.0
316.06268	94.0
327.04974	86.0
329.02914	77.0
479.10858	77.0
459.09613	68.0
133.02904	65.0
314.01862	62.0
298.04517	60.0
227.0377	56.0
201.01717	56.0
475.49081	51.0
296.03336	48.0
163.00177	47.0
311.02539	43.0
314.12967	42.0
297.0401	41.0
478.06528	41.0
284.03131	41.0
318.74246	41.0
478.05243	40.0
312.78946	40.0
255.02443	39.0
311.81342	39.0
445.07529	38.0
478.258	38.0
326.04285	36.0
479.32724	36.0
320.39325	36.0
313.0701	35.0
320.5668	35.0
328.06354	35.0
328.05289	34.0
318.5152	34.0
314.00821	34.0
459.08563	34.0
315.37885	34.0
272.03369	33.0
316.939	33.0
336.38647	33.0
477.85333	33.0
476.64249	33.0
341.19543	33.0
312.84143	33.0
478.55145	33.0
476.25986	33.0
314.16092	33.0
314.75308	32.0
203.03262	32.0
309.09067	32.0
340.15976	32.0
314.53073	32.0
387.07101	32.0
316.12534	32.0
314.22516	31.0
479.79474	31.0
399.07504	31.0
793.15967	31.0
312.98868	31.0
316.03656	31.0
310.96149	31.0
330.8595	30.0
220.21663	30.0
336.5032	30.0
339.0481	30.0
216.04263	30.0
383.02032	30.0
185.02628	30.0
310.10211	30.0
311.3588	29.0
342.04071	29.0
323.83099	29.0
310.78885	29.0
324.71271	29.0
316.51025	29.0
320.16193	29.0
339.46835	29.0
316.70889	28.0
315.3197	28.0
308.81873	28.0
326.18433	28.0
357.02145	28.0
476.59756	28.0
268.03644	28.0
476.36673	27.0
475.4118	27.0
472.6337	27.0
479.41943	27.0
311.80133	27.0
299.0553	27.0
607.18079	27.0
324.18353	27.0
478.94141	27.0
315.96692	27.0
316.28381	27.0
313.99258	27.0
316.08878	27.0
339.93582	26.0
315.34753	26.0
310.51785	26.0
323.26556	26.0
314.94421	26.0
321.74963	26.0
311.00812	26.0
320.67905	26.0
320.12863	26.0
347.34042	26.0
478.47433	26.0
311.44174	26.0
311.57657	26.0
315.84335	26.0
319.60672	26.0
314.43869	26.0
312.50375	26.0
479.28223	26.0
325.7706	26.0
406.30661	26.0
325.0481	26.0
335.10349	26.0
337.97247	26.0
366.15878	26.0
307.79907	26.0
331.32812	26.0
338.47855	26.0
461.99838	26.0
350.36383	26.0
325.57797	26.0
792.17535	26.0
309.68323	26.0
309.81937	26.0
338.08948	25.0
315.01721	25.0
339.33484	25.0
187.0351	25.0
334.7182	25.0
331.54208	25.0
323.64954	25.0
316.75247	25.0
330.95392	25.0
330.34671	25.0
330.2417	25.0
317.15518	25.0
317.5285	25.0
484.40686	25.0
327.69293	25.0
326.3382	25.0
320.35471	25.0
479.22433	25.0
342.68213	25.0
325.33771	25.0
322.65842	25.0
314.59152	25.0
316.61307	25.0
312.31509	25.0
208.00084	25.0
309.98486	25.0
309.95728	25.0
476.73654	25.0
303.86194	25.0
239.03789	25.0
386.3277	25.0
179.00067	24.0
318.58163	24.0
177.01865	24.0
322.54938	24.0
311.05475	24.0
345.02463	24.0
171.04527	24.0
317.66812	24.0
316.96338	24.0
240.63939	24.0
322.20474	24.0
322.43506	24.0
314.33798	24.0
310.58344	24.0
323.73761	24.0
316.84311	24.0
326.85498	24.0
327.12238	24.0
300.98898	24.0
330.62619	24.0
331.36557	24.0
333.96613	24.0
334.15408	24.0
334.55518	24.0
356.26508	24.0
474.83548	24.0
322.33307	24.0
315.53189	24.0
313.54678	24.0
478.3201	24.0
313.29193	24.0
226.97426	24.0
315.51624	24.0
315.19974	24.0
316.16714	24.0
315.77374	24.0
308.17029	23.0
322.82907	23.0
479.40228	23.0
354.45596	23.0
328.38464	23.0
480.30112	23.0
329.06821	23.0
478.61786	23.0
228.04219	23.0
309.73663	23.0
311.13248	23.0
196.32426	23.0
389.23767	23.0
175.04117	23.0
477.89615	23.0
332.08258	23.0
314.80695	23.0
476.09744	23.0
316.49109	23.0
317.71176	23.0
306.9595	22.0
478.22589	22.0
337.65567	22.0
655.15399	22.0
269.69998	22.0
478.42935	22.0
314.72528	22.0
334.22925	22.0
480.49429	22.0
480.20239	22.0
410.61719	22.0
298.99774	22.0
329.08777	22.0
205.01747	22.0
309.60913	22.0
319.64697	22.0
206.06482	22.0
346.15515	22.0
320.0708	22.0
315.75983	22.0
317.27728	22.0
310.93042	22.0
318.17624	22.0
318.9313	22.0
356.047	21.0
466.17117	21.0
324.44632	21.0
260.05328	21.0
476.68311	21.0
319.5647	21.0
320.47214	21.0
314.6228	21.0
335.84607	21.0
113.78632	21.0
380.29608	21.0
104.24893	21.0
313.1377	21.0
165.99097	21.0
310.72324	21.0
476.77933	21.0
310.2901	21.0
242.16394	21.0
325.17169	21.0
321.90424	21.0
313.97522	21.0
340.96393	20.0
309.05624	20.0
325.54086	20.0
336.84103	20.0
343.73618	20.0
337.17358	20.0
316.67056	20.0
325.38892	20.0
408.45312	20.0
397.48618	20.0
316.98779	20.0
312.26144	20.0
479.06787	20.0
320.90179	20.0
317.93524	20.0
326.44437	20.0
332.436	20.0
332.20572	20.0
216.20819	20.0
410.92484	20.0
311.73734	20.0
143.05215	20.0
328.27463	20.0
328.81778	20.0
344.30832	19.0
360.7001	19.0
396.73682	19.0
329.18015	19.0
309.45407	19.0
215.04199	19.0
276.57983	19.0
315.70587	19.0
317.75366	19.0
478.67786	18.0
269.0426	18.0
371.02817	18.0
319.07471	18.0
320.79828	18.0
321.31241	18.0
178.99673	18.0
341.41977	18.0
382.09714	18.0
341.07968	18.0
281.00928	17.0
415.17398	17.0
339.12201	17.0
478.38223	17.0
478.81711	17.0
478.87711	17.0
336.17816	17.0
482.65402	17.0
380.9877	17.0
481.6348	17.0
361.53006	17.0
365.67737	17.0
351.90524	16.0
614.00464	16.0
218.79768	16.0
475.97354	16.0
217.00809	16.0
330.0264	16.0
479.99213	16.0
312.40857	15.0
517.69238	14.0
520.53491	14.0
525.93561	14.0
523.49725	14.0
514.73547	14.0
513.94702	14.0
524.56433	14.0
511.92657	14.0
733.42798	14.0
528.36835	14.0
531.54474	14.0
537.75574	14.0
473.07025	14.0
538.69635	14.0
470.91934	14.0
546.87311	14.0
551.49274	14.0
557.83966	14.0
561.08246	14.0
532.82117	14.0
508.59961	14.0
823.6015	14.0
511.59869	14.0
483.17911	14.0
484.6763	14.0
485.94913	14.0
487.42032	14.0
951.69336	14.0
488.75085	14.0
946.36273	14.0
849.16315	14.0
489.80576	14.0
491.16125	14.0
492.47733	14.0
493.62106	14.0
844.13678	14.0
495.31305	14.0
497.24808	14.0
498.70349	14.0
500.63199	14.0
507.45184	14.0
565.3866	14.0
562.21265	14.0
574.76715	14.0
568.88708	14.0
664.41058	14.0
412.63977	14.0
639.43317	14.0
642.24933	14.0
643.45105	14.0
646.65204	14.0
647.67841	14.0
652.10461	14.0
659.16559	14.0
662.23901	14.0
667.76184	14.0
635.08234	14.0
673.74219	14.0
681.80096	14.0
684.8446	14.0
687.51245	14.0
788.68707	14.0
765.6087	14.0
691.74792	14.0
707.13678	14.0
710.66449	14.0
715.97119	14.0
638.03235	14.0
632.62183	14.0
631.71576	14.0
579.39679	14.0
580.92993	14.0
586.33337	14.0
587.43646	14.0
591.414	14.0
594.60712	14.0
598.28784	14.0
606.25458	14.0
608.13916	14.0
610.84448	14.0
612.31689	14.0
614.75708	14.0
617.10724	14.0
618.13184	14.0
619.09631	14.0
621.30829	14.0
624.80615	14.0
625.22729	14.0
628.01691	14.0
118.02541	13.0
121.40041	13.0
110.27167	13.0
131.04185	13.0
102.00842	13.0
135.00499	13.0
180.22121	13.0
136.98634	13.0
399.86578	13.0
405.25916	13.0
274.36774	13.0
273.02145	13.0
265.39603	13.0
415.92056	13.0
417.46579	13.0
419.51517	13.0
420.48853	13.0
422.35406	13.0
423.35489	13.0
427.27081	13.0
429.78046	13.0
431.6604	13.0
433.0715	13.0
434.43594	13.0
436.47946	13.0
437.94556	13.0
139.00523	13.0
441.41785	13.0
442.76855	13.0
443.86133	13.0
402.64734	13.0
276.85187	13.0
445.73044	13.0
278.23694	13.0
100.71588	13.0
302.64093	13.0
301.50571	13.0
294.90891	13.0
293.44431	13.0
291.47485	13.0
289.89206	13.0
288.89087	13.0
368.94864	13.0
371.3244	13.0
375.32239	13.0
376.88541	13.0
378.26688	13.0
287.3118	13.0
285.50702	13.0
383.67032	13.0
283.01724	13.0
281.98523	13.0
387.4314	13.0
391.18176	13.0
392.80652	13.0
262.85757	13.0
440.08151	13.0
232.5166	13.0
210.00691	13.0
231.48592	13.0
228.98071	13.0
225.42928	13.0
224.04784	13.0
221.5425	13.0
448.16925	13.0
212.49344	13.0
145.02663	13.0
211.21207	13.0
208.45586	13.0
233.54509	13.0
206.48676	13.0
203.2713	13.0
201.97632	13.0
200.04369	13.0
198.01973	13.0
152.9908	13.0
158.1179	13.0
190.99596	13.0
182.03468	13.0
170.03625	13.0
173.38414	13.0
235.42702	13.0
255.98241	13.0
449.25415	13.0
451.87534	13.0
453.11685	13.0
455.5444	13.0
456.58588	13.0
260.35974	13.0
140.62633	13.0
257.1557	13.0
237.01187	13.0
459.68802	13.0
252.98457	13.0
464.27863	13.0
251.35332	13.0
468.68216	13.0
247.89996	13.0
246.20529	13.0
244.68338	13.0
240.80956	13.0
932.60065	12.0
949.54663	12.0
909.35229	12.0
837.48651	12.0
595.33331	12.0
670.48499	12.0
821.68317	12.0
769.59698	12.0
193.61688	12.0
762.34711	12.0
720.82697	12.0
693.95441	12.0
679.19275	12.0
547.40454	12.0
569.99237	12.0
70.75101	12.0

MSID: 8918
ID: 119
RETENTIONTIME: 16.18663
PRECURSORMZ: 347.1856
AREA: 13103891.0
PRECURSORTYPE: [M-H]-
SMILES: [H][C@@]12CCC3=C(C(O)=C(O)C(=C3)C(C)CO)[C@]1(CCCC2(C)C)C(O)=O
NAME: 16-hydroxycarnosic acid
FORMULA: C20H28O5
INCHIKEY: GUNGXQJKXNQLMP-QTFOPDDFSA-N
CAS: 128286-67-9
Molecular Weight: 348.439
Number of References: 3
Class: Abietane diterpenoids
Superclass: Diterpenoids
Pathway: Terpenoids
ppm: -0.24999999993724487
CMID: CM243
IONMODE: Negative
COLLISIONENERGY: 40±20eV
INSTRUMENTTYPE: AB SCIEX
INSTRUMENT: Q-TOF
Comment:  
Num Peaks: 344
347.18726	122357.0
299.1655	77001.0
281.15549	44648.0
317.17447	27882.0
265.12335	11053.0
217.08751	8389.0
255.13869	3966.0
215.10669	3451.0
231.10324	3255.0
214.09962	2008.0
315.15985	1719.0
216.07869	1623.0
297.14822	1598.0
284.142	586.0
257.11652	573.0
230.095	534.0
184.08975	415.0
212.08401	397.0
201.09082	383.0
243.10213	381.0
316.1655	373.0
329.17313	320.0
319.19028	289.0
174.03212	287.0
200.08391	285.0
213.09349	282.0
258.12402	255.0
241.12582	223.0
226.09735	217.0
233.11734	209.0
274.12296	197.0
202.06407	195.0
215.07079	193.0
283.13266	192.0
251.10815	186.0
279.13617	180.0
266.12885	176.0
219.1006	174.0
191.10699	173.0
204.07776	166.0
256.10785	155.0
165.09142	151.0
189.09387	148.0
301.1777	147.0
298.15515	146.0
218.09435	140.0
185.09827	132.0
199.07401	131.0
215.08371	131.0
269.1214	126.0
229.086	126.0
240.11566	123.0
201.05333	122.0
271.16714	117.0
242.09544	115.0
238.09566	111.0
228.07922	108.0
250.0974	108.0
188.04901	107.0
267.13947	102.0
271.13165	101.0
225.09129	99.0
261.11411	98.0
346.04776	97.0
175.04123	96.0
239.11064	91.0
186.06946	90.0
259.13351	85.0
187.07533	82.0
244.11548	80.0
164.08383	74.0
190.10114	74.0
232.10919	74.0
253.12173	73.0
203.07037	69.0
257.15265	67.0
241.08629	64.0
302.15399	63.0
253.15758	63.0
301.14542	63.0
273.151	63.0
217.06876	63.0
237.16273	62.0
346.02954	60.0
298.18558	60.0
191.07045	58.0
172.05345	58.0
263.14349	57.0
298.17377	57.0
171.0799	55.0
315.14246	55.0
188.08661	55.0
214.07812	52.0
345.16846	51.0
269.15195	49.0
185.06096	49.0
173.05812	48.0
187.04051	48.0
280.23508	47.0
200.0479	47.0
346.02045	47.0
210.10492	46.0
289.18063	45.0
264.1134	44.0
130.04387	44.0
198.06802	42.0
255.10583	42.0
211.07695	41.0
231.13599	41.0
173.02205	40.0
186.03072	39.0
163.07434	39.0
316.13589	39.0
298.14838	38.0
171.11705	38.0
249.08868	37.0
287.16583	37.0
260.10233	37.0
285.14816	36.0
282.15472	36.0
315.19113	36.0
213.05347	36.0
297.11444	36.0
252.11472	35.0
282.12018	35.0
202.0947	35.0
254.09331	35.0
214.05521	35.0
176.08185	34.0
280.21539	34.0
159.0416	34.0
165.08386	34.0
227.10565	33.0
251.08798	33.0
197.06047	32.0
284.12878	31.0
251.14229	31.0
151.07703	30.0
311.16711	30.0
243.13724	30.0
264.25665	30.0
227.07172	30.0
315.11639	29.0
206.18579	29.0
223.0742	28.0
257.07568	27.0
217.11636	27.0
295.13272	27.0
233.1039	27.0
147.75058	26.0
280.10721	26.0
230.7803	26.0
240.1369	26.0
57.03423	26.0
232.21066	26.0
179.10556	26.0
176.04677	26.0
320.944	26.0
184.07912	26.0
213.37376	26.0
187.96442	26.0
196.62631	26.0
160.04846	25.0
236.11728	25.0
174.06828	25.0
177.09558	25.0
253.54881	25.0
316.20206	25.0
199.72946	25.0
241.14407	25.0
198.03357	25.0
245.15242	25.0
195.04076	25.0
222.50853	25.0
222.74524	25.0
243.08533	25.0
279.10507	25.0
218.13628	25.0
265.90366	24.0
149.09871	24.0
238.75493	24.0
246.94194	24.0
270.12479	24.0
239.14699	24.0
267.10263	24.0
239.07127	24.0
248.10207	24.0
238.83058	24.0
258.84198	24.0
263.03391	24.0
254.12608	24.0
237.07227	24.0
211.88725	24.0
194.07095	24.0
229.8752	24.0
230.08014	24.0
281.80118	24.0
230.34908	24.0
211.14809	24.0
200.9381	24.0
224.07869	24.0
255.07925	23.0
200.66612	23.0
297.49268	23.0
208.53651	23.0
207.43494	23.0
329.87354	23.0
191.95132	23.0
313.13779	23.0
310.27295	23.0
264.72009	23.0
167.8369	23.0
299.14346	23.0
161.02495	23.0
235.1432	23.0
240.61516	23.0
226.23874	23.0
268.11029	23.0
226.53636	23.0
233.80563	23.0
293.76993	23.0
229.57539	23.0
233.74873	23.0
153.09381	23.0
178.29262	23.0
232.85278	23.0
233.58109	23.0
147.08118	22.0
317.12216	22.0
280.14493	22.0
155.86032	22.0
296.13287	22.0
133.15674	22.0
297.28326	22.0
202.81367	22.0
212.10541	22.0
249.03459	22.0
232.96037	22.0
232.61076	22.0
245.11255	22.0
183.04027	22.0
222.06615	22.0
217.59569	22.0
217.36317	22.0
216.75867	22.0
234.22809	22.0
135.08469	21.0
175.07492	21.0
225.7029	21.0
218.7094	21.0
219.06436	21.0
227.92101	21.0
206.91905	21.0
182.03474	21.0
289.77881	21.0
230.39961	21.0
298.20251	21.0
185.51817	21.0
307.22733	21.0
229.77574	21.0
247.11432	21.0
249.71657	21.0
155.40829	21.0
165.94308	21.0
251.73701	20.0
301.86127	20.0
263.20865	20.0
206.01709	20.0
185.91321	20.0
229.46115	20.0
245.31956	20.0
164.33231	20.0
226.3448	20.0
273.11053	20.0
148.05188	20.0
171.04147	20.0
136.05273	20.0
298.8353	19.0
298.94702	19.0
150.23924	19.0
141.15059	19.0
302.8063	19.0
218.50235	19.0
280.74677	19.0
232.75267	19.0
272.142	19.0
213.03201	19.0
231.06006	18.0
346.60724	18.0
97.06424	18.0
83.05235	17.0
329.14825	17.0
162.06673	17.0
336.38477	17.0
297.07901	17.0
148.9696	17.0
146.04028	17.0
164.93542	16.0
205.06941	16.0
261.96613	16.0
242.74191	16.0
299.60434	16.0
163.0656	15.0
180.00441	15.0
285.79178	14.0
107.0471	13.0
338.34534	13.0
321.64261	13.0
319.60681	13.0
340.73264	13.0
343.14645	13.0
323.74829	13.0
324.97934	13.0
326.78604	13.0
327.51224	13.0
332.2558	13.0
330.43579	13.0
104.37498	13.0
111.57535	13.0
117.09745	13.0
137.04256	13.0
118.85139	13.0
287.74695	13.0
157.06441	13.0
156.02419	13.0
153.37747	13.0
168.12628	13.0
170.07079	13.0
275.13235	13.0
276.61411	13.0
144.02011	13.0
142.06537	13.0
139.07109	13.0
120.83895	13.0
291.99512	13.0
181.00565	13.0
133.39188	13.0
131.54234	13.0
127.89086	13.0
126.45744	13.0
304.53839	13.0
124.57698	13.0
122.81368	13.0
51.68998	12.0

MSID: 8919
ID: 142
RETENTIONTIME: 18.31322
PRECURSORMZ: 285.0404
AREA: 12819809.0
PRECURSORTYPE: [M-H]-
SMILES: OC1=CC=C(C=C1)C1=C(O)C(=O)C2=C(O)C=C(O)C=C2O1
NAME: kaempferol
FORMULA: C15H10O6
INCHIKEY: IYRMWMYZSQPJKC-UHFFFAOYSA-N
CAS: 520-18-3
Molecular Weight: 286.241
Number of References: 26283
Class: Flavonols
Superclass: Flavonoids
Pathway: Shikimates and Phenylpropanoids
ppm: 0.48500000002604793
CMID: CM243
IONMODE: Negative
COLLISIONENERGY: 40±20eV
INSTRUMENTTYPE: AB SCIEX
INSTRUMENT: Q-TOF
Comment:  
Num Peaks: 193
285.0405	53890.0
133.03012	29374.0
151.00351	5924.0
175.03981	4114.0
132.02228	3983.0
65.00304	3582.0
199.03934	2934.0
107.0136	2136.0
149.02449	1929.0
217.0513	1639.0
63.02398	1043.0
241.04964	1022.0
201.01711	1011.0
83.01392	939.0
243.02715	793.0
198.03069	647.0
105.03426	606.0
213.05475	596.0
121.02733	586.0
145.02893	554.0
215.03329	521.0
257.04254	498.0
174.0307	476.0
171.04649	449.0
185.05951	433.0
267.02884	371.0
143.04976	362.0
77.03868	359.0
211.03697	344.0
223.03749	325.0
197.05896	310.0
104.02605	288.0
173.02322	287.0
239.03326	265.0
229.05028	245.0
195.04474	234.0
212.04965	228.0
115.0191	226.0
147.04546	226.0
240.04266	210.0
183.04413	199.0
187.0377	191.0
189.0547	189.0
214.02641	183.0
157.06676	179.0
226.028	175.0
242.0191	169.0
148.01604	157.0
173.06058	156.0
93.03451	155.0
170.03748	153.0
167.04987	152.0
169.02763	149.0
157.02872	147.0
197.0246	145.0
169.06837	144.0
79.01782	143.0
89.03944	141.0
146.03664	130.0
154.04269	125.0
81.03352	120.0
196.04987	107.0
109.02983	101.0
177.01727	99.0
227.03467	98.0
153.03314	98.0
150.99147	98.0
182.03462	97.0
155.0507	96.0
159.0452	92.0
161.06088	88.0
51.02396	87.0
284.03452	85.0
108.99404	85.0
213.01759	84.0
119.04569	79.0
141.07024	79.0
145.06432	78.0
115.05376	75.0
283.02701	73.0
222.03098	69.0
158.04028	67.0
224.05215	67.0
168.05634	66.0
129.03621	65.0
131.04854	57.0
89.00249	54.0
256.03714	51.0
225.01622	51.0
189.0197	51.0
132.5945	51.0
145.02187	50.0
201.0546	48.0
242.00996	48.0
131.0463	47.0
135.04477	46.0
125.02434	45.0
186.03059	44.0
67.01751	43.0
141.03418	43.0
175.01779	43.0
250.02754	43.0
217.03398	42.0
117.03168	42.0
142.04077	41.0
266.02167	41.0
115.01385	40.0
284.09064	40.0
202.02776	38.0
147.00864	38.0
201.00461	38.0
199.00755	37.0
255.02747	36.0
172.05206	35.0
197.03835	35.0
184.05376	35.0
133.00752	35.0
185.02354	34.0
166.04138	34.0
149.06154	34.0
156.05711	34.0
176.00768	34.0
267.00964	33.0
139.05598	33.0
84.99386	33.0
87.02544	33.0
214.01637	33.0
108.02089	32.0
241.01923	31.0
228.0421	31.0
210.03239	30.0
268.03635	29.0
127.05492	29.0
91.01854	28.0
153.06949	28.0
216.04256	27.0
131.99977	27.0
180.05817	27.0
173.04512	27.0
238.93335	26.0
238.0275	26.0
101.04043	26.0
189.25403	25.0
164.01099	25.0
119.01257	25.0
198.99236	25.0
177.00034	25.0
137.72772	25.0
163.00546	25.0
133.15326	25.0
161.02608	25.0
191.82912	25.0
135.00494	24.0
181.02528	24.0
81.02559	24.0
130.04266	24.0
91.05405	24.0
129.07181	24.0
217.09457	23.0
188.04887	23.0
79.01173	23.0
159.01556	22.0
150.51534	22.0
196.21719	22.0
123.00577	22.0
73.85928	21.0
138.11298	21.0
284.12531	21.0
206.62743	21.0
194.52675	21.0
179.04778	21.0
192.26746	21.0
64.78925	20.0
171.02216	20.0
69.00006	20.0
144.02119	20.0
63.99558	20.0
195.49495	20.0
270.02002	20.0
215.01463	20.0
118.65069	19.0
256.02774	19.0
133.36012	19.0
207.93439	18.0
224.0199	18.0
64.99357	18.0
121.01117	18.0
57.03345	17.0
255.0134	17.0
270.01196	16.0
187.00423	16.0
91.98901	16.0
74.45718	16.0

MSID: 8920
ID: 146
RETENTIONTIME: 18.60665
PRECURSORMZ: 345.17
AREA: 12647596.0
PRECURSORTYPE: [M-H]-
SMILES: [H][C@]12CCC=C3C(=O)OC[C@@]13C[C@@H](O)[C@@H](C)[C@]2(C)CCC1=CC(=O)OC1
NAME: 7α-Hydroxy-neo-clerodan-3,13-dien-18,19:15,16-diolide
FORMULA: C20H26O5
INCHIKEY: UYSLZZGPQSCREY-ACLXAEORSA-N
CAS: 63640-89-1
Molecular Weight: 346.423
Number of References: 7
Class: Colensane and Clerodane diterpenoids
Superclass: Diterpenoids
Pathway: Terpenoids
ppm: -0.1999999999497959
CMID: CM243
IONMODE: Negative
COLLISIONENERGY: 40±20eV
INSTRUMENTTYPE: AB SCIEX
INSTRUMENT: Q-TOF
Comment:  
Num Peaks: 347
297.14963	78756.0
345.16995	78728.0
315.15958	18757.0
281.11911	10626.0
257.11786	10242.0
217.08586	7891.0
254.13054	4817.0
267.10242	4107.0
216.07849	3472.0
241.08607	3008.0
253.12308	2919.0
213.09186	1564.0
255.13846	1558.0
215.10649	1391.0
282.12485	1342.0
231.10153	526.0
239.07106	448.0
174.03195	442.0
279.13919	404.0
230.09628	394.0
201.05592	383.0
215.07059	331.0
327.15936	330.0
256.1076	295.0
214.09943	269.0
202.0625	267.0
200.08235	258.0
258.12537	245.0
239.10588	244.0
240.11392	243.0
266.09506	226.0
254.09932	221.0
317.17593	221.0
214.06503	218.0
269.15329	215.0
229.0858	208.0
264.11475	197.0
242.09674	190.0
201.09065	181.0
313.1427	176.0
236.12007	172.0
252.07718	156.0
296.14102	153.0
272.103	153.0
57.03344	144.0
226.06328	139.0
226.09421	139.0
188.04749	135.0
280.14795	134.0
199.07521	129.0
241.12256	128.0
238.09998	122.0
198.06784	122.0
225.09256	121.0
243.10037	115.0
251.14206	115.0
282.1084	104.0
300.13486	103.0
265.1279	100.0
237.12633	99.0
171.08102	98.0
299.12796	95.0
299.16522	95.0
189.09236	93.0
172.05202	92.0
233.11565	91.0
165.09251	91.0
253.15579	91.0
219.10185	88.0
283.13074	87.0
238.06219	80.0
229.11989	79.0
97.06704	77.0
191.06892	77.0
314.14859	76.0
123.08069	75.0
216.05978	70.0
211.07533	70.0
255.10091	69.0
210.06641	69.0
197.09604	66.0
186.03189	66.0
163.07295	66.0
259.13327	65.0
169.10017	65.0
158.03654	64.0
187.07382	63.0
185.09677	63.0
239.09074	63.0
204.08037	63.0
173.06053	62.0
191.10547	62.0
240.07751	61.0
212.0824	61.0
296.18146	61.0
265.11197	60.0
244.11067	60.0
236.08095	59.0
200.04771	59.0
257.09274	58.0
187.04169	58.0
298.14981	55.0
269.11636	55.0
301.14514	55.0
228.07755	54.0
130.04041	54.0
302.18265	53.0
267.07361	53.0
273.14914	52.0
211.03693	52.0
235.10995	51.0
285.14459	50.0
263.10513	49.0
224.04477	48.0
287.16394	48.0
344.02652	48.0
214.05644	47.0
173.0219	47.0
284.11203	46.0
213.07042	45.0
225.12488	45.0
282.09689	45.0
249.12711	44.0
186.07062	44.0
268.14532	44.0
211.11943	44.0
211.15074	44.0
151.07568	43.0
221.09802	43.0
218.09125	41.0
285.11154	41.0
238.13472	40.0
224.08287	40.0
171.1169	39.0
213.05756	38.0
170.07446	38.0
183.07985	37.0
146.03897	37.0
184.05504	37.0
294.1239	36.0
271.13626	36.0
175.04495	36.0
214.09084	36.0
177.0889	36.0
239.05592	36.0
239.05289	36.0
239.02261	36.0
237.09013	35.0
270.82996	35.0
235.07391	35.0
227.10397	35.0
85.02995	35.0
145.03008	35.0
267.14081	34.0
164.08243	34.0
266.0791	34.0
222.10097	34.0
135.07889	33.0
203.07019	33.0
249.08846	33.0
315.12653	33.0
189.05331	33.0
253.08723	32.0
208.89426	32.0
159.04393	32.0
268.10681	32.0
241.15755	32.0
251.06912	32.0
344.04831	32.0
296.47311	32.0
278.12735	31.0
295.1358	31.0
209.09671	31.0
215.03038	31.0
199.03651	30.0
143.04738	30.0
213.11331	30.0
171.0426	30.0
251.10481	29.0
184.09091	28.0
255.09622	28.0
227.13644	28.0
212.04817	27.0
179.74158	27.0
231.08516	27.0
205.08466	27.0
254.07434	27.0
179.06738	26.0
312.13669	26.0
286.15585	26.0
261.10751	26.0
299.89059	26.0
297.9892	26.0
296.12585	26.0
220.08864	26.0
187.11133	25.0
182.07951	25.0
217.04402	25.0
181.09244	25.0
218.06377	25.0
157.27544	25.0
153.09247	25.0
71.7943	25.0
188.08241	25.0
259.64743	25.0
223.07254	25.0
218.74541	25.0
223.74878	25.0
233.65271	25.0
203.62457	25.0
236.99666	25.0
213.42078	25.0
229.21773	25.0
200.47871	25.0
231.13577	25.0
200.03664	25.0
216.36217	25.0
203.27817	24.0
212.58469	24.0
254.31479	24.0
255.19164	24.0
212.52187	24.0
298.12784	24.0
301.17743	24.0
244.04947	24.0
280.80725	24.0
250.14363	24.0
229.36157	24.0
199.04205	24.0
209.05281	24.0
228.98058	24.0
226.44037	24.0
249.57399	24.0
228.116	23.0
228.58362	23.0
207.80727	23.0
165.12019	23.0
282.06235	23.0
154.07791	23.0
272.8595	23.0
147.65642	23.0
255.06494	23.0
309.1456	23.0
231.49025	23.0
196.08958	23.0
218.19394	23.0
200.61461	23.0
220.35458	23.0
198.02925	22.0
197.05617	22.0
264.67047	22.0
270.12134	22.0
164.0448	22.0
252.06163	22.0
297.85397	22.0
297.10913	22.0
207.58852	22.0
283.1011	22.0
226.29008	22.0
281.07806	21.0
279.10648	21.0
311.13058	21.0
219.68495	21.0
81.03262	21.0
139.07558	21.0
345.12994	21.0
197.17578	21.0
176.08688	21.0
210.09621	21.0
202.90973	21.0
243.76959	20.0
122.03885	20.0
174.01775	20.0
119.13116	20.0
301.10434	20.0
142.03606	20.0
231.06432	20.0
211.82863	20.0
215.04044	20.0
162.66304	20.0
197.65323	20.0
257.08176	19.0
253.07477	19.0
196.05257	19.0
203.91812	19.0
246.09299	19.0
187.11937	19.0
169.06325	18.0
343.14798	18.0
261.98807	18.0
252.32756	18.0
174.4068	17.0
147.28064	17.0
221.71732	17.0
234.86226	17.0
284.09387	17.0
173.87567	16.0
337.75085	16.0
271.61536	16.0
248.03244	15.0
149.49702	15.0
160.05327	15.0
180.21716	14.0
128.96722	13.0
327.52789	13.0
100.99316	13.0
166.75758	13.0
143.42828	13.0
318.88214	13.0
320.95245	13.0
322.36102	13.0
325.07791	13.0
328.81937	13.0
127.10898	13.0
330.69009	13.0
332.13593	13.0
336.13306	13.0
276.37286	13.0
341.43405	13.0
275.04602	13.0
273.95572	13.0
189.33212	13.0
154.9507	13.0
107.05511	13.0
139.90833	13.0
137.09402	13.0
135.30432	13.0
125.88863	13.0
177.94481	13.0
293.43573	13.0
125.23024	13.0
151.75652	13.0
292.53561	13.0
290.09369	13.0
288.59949	13.0
120.85284	13.0
119.69617	13.0
131.13147	13.0
132.25076	13.0
133.6407	13.0
114.56791	13.0
111.0731	13.0
302.50278	13.0
303.99149	13.0
305.53522	13.0
83.04692	12.0
55.45157	12.0

MSID: 8921
ID: 251
RETENTIONTIME: 26.10165
PRECURSORMZ: 691.3467
AREA: 11748252.0
PRECURSORTYPE: [2M-H]-
SMILES: [H][C@@]12CCC3=C(C(=O)C(O)=C(C(C)C)C3=O)[C@]1(CCCC2(C)C)C(O)=O
NAME: royleanonic acid
FORMULA: C20H26O5
INCHIKEY: TWZMQZBMHUHORI-FKIZINRSSA-N
CAS: nan
Molecular Weight: 346.423
Number of References: 5
Class: Abietane diterpenoids
Superclass: Diterpenoids
Pathway: Terpenoids
ppm: -0.7624999999507054
CMID: CM243
IONMODE: Negative
COLLISIONENERGY: 40±20eV
INSTRUMENTTYPE: AB SCIEX
INSTRUMENT: Q-TOF
Comment:  
Num Peaks: 403
345.17004	176283.0
301.18091	144795.0
283.17038	52281.0
691.34857	2965.0
267.13928	437.0
258.12701	387.0
346.17325	252.0
227.10698	236.0
302.18103	219.0
268.14859	198.0
217.08592	175.0
300.18073	152.0
344.03024	139.0
284.17154	113.0
300.18921	101.0
253.12003	97.0
243.10196	97.0
299.16531	96.0
286.15427	92.0
273.18481	89.0
229.08289	82.0
204.07903	82.0
164.08247	75.0
230.09337	74.0
240.11702	73.0
285.14798	70.0
165.08879	70.0
344.05023	67.0
344.01752	64.0
259.16174	57.0
257.11951	55.0
215.10512	54.0
201.09348	49.0
282.23187	47.0
215.06776	42.0
255.1745	42.0
300.20789	42.0
301.15543	42.0
214.09805	40.0
271.16696	36.0
202.05838	36.0
202.20735	35.0
347.11038	35.0
228.07317	35.0
691.28162	35.0
255.14165	35.0
226.67627	34.0
300.14511	33.0
175.03723	33.0
201.05321	33.0
203.35641	32.0
257.19174	32.0
251.10643	31.0
345.79254	31.0
189.05202	31.0
244.10768	30.0
283.86292	30.0
216.1131	30.0
231.33092	30.0
215.36803	29.0
258.16162	29.0
231.17752	29.0
237.84926	29.0
200.08379	28.0
233.53752	27.0
229.3201	26.0
346.32449	26.0
282.16605	26.0
283.116	26.0
250.70468	26.0
243.02411	26.0
210.06645	26.0
233.87436	26.0
227.17931	26.0
232.25677	26.0
326.3381	26.0
220.52475	26.0
225.92349	26.0
318.5658	26.0
229.80824	26.0
251.64674	26.0
201.88858	26.0
190.09695	26.0
199.0421	26.0
202.50406	25.0
303.68774	25.0
213.71994	25.0
300.91415	25.0
228.97322	25.0
228.94655	25.0
199.51073	25.0
216.07278	25.0
216.81187	25.0
228.42824	25.0
192.05704	25.0
228.26102	25.0
228.02141	25.0
346.21332	25.0
260.59515	25.0
169.70308	25.0
259.12704	25.0
192.40054	25.0
302.15378	25.0
213.14624	25.0
229.20741	25.0
252.1161	25.0
207.30084	25.0
247.02643	25.0
247.57466	25.0
235.9035	25.0
188.08649	25.0
232.48816	25.0
206.88792	25.0
231.99866	25.0
230.13051	25.0
209.96286	25.0
180.73027	25.0
344.72263	25.0
249.17972	24.0
227.60016	24.0
337.41989	24.0
308.86337	24.0
302.53351	24.0
236.02835	24.0
233.97621	24.0
253.3382	24.0
192.33943	24.0
188.36057	24.0
302.42279	24.0
253.93863	24.0
230.55112	24.0
193.84035	24.0
226.63646	24.0
269.28674	24.0
197.72075	24.0
212.08246	24.0
271.99969	24.0
206.35585	24.0
212.6033	24.0
268.12933	24.0
200.16275	24.0
205.57445	24.0
204.48213	24.0
293.25635	24.0
221.55701	24.0
223.92319	24.0
286.13107	24.0
226.18115	24.0
134.41505	23.0
209.6593	23.0
232.89896	23.0
165.08249	23.0
165.37956	23.0
239.13017	23.0
242.00235	23.0
203.06885	23.0
250.2924	23.0
269.78192	23.0
230.90216	23.0
241.51358	23.0
200.47322	23.0
266.16382	23.0
256.72238	23.0
225.78073	23.0
174.02812	23.0
226.74261	23.0
265.15988	23.0
198.09409	23.0
347.64334	23.0
212.72612	23.0
177.09286	23.0
252.27629	23.0
344.81717	23.0
248.14047	22.0
261.81223	22.0
314.46637	22.0
292.25604	22.0
299.25507	22.0
156.15988	22.0
302.01764	22.0
243.79565	22.0
167.65669	22.0
173.05156	22.0
241.8409	22.0
231.89575	22.0
241.32796	22.0
200.29578	22.0
226.8429	22.0
239.83789	22.0
219.59067	22.0
231.69894	22.0
349.88364	22.0
199.80269	22.0
284.01968	22.0
238.69728	22.0
209.19589	22.0
207.69864	22.0
205.07489	22.0
227.41257	22.0
299.43805	21.0
227.32693	21.0
301.84406	21.0
295.27722	21.0
261.48752	21.0
223.11063	21.0
225.0177	21.0
202.73407	21.0
173.77631	21.0
226.92108	21.0
255.90712	21.0
226.09573	21.0
284.14676	21.0
239.76056	21.0
230.38907	21.0
230.03989	21.0
191.10687	21.0
234.28938	21.0
233.24281	21.0
137.09636	21.0
192.22264	21.0
287.27353	20.0
281.15366	20.0
317.02954	20.0
210.1644	20.0
203.19864	20.0
228.47264	20.0
214.49084	20.0
350.15295	20.0
187.07521	20.0
264.95261	20.0
228.69473	20.0
230.24193	20.0
346.19693	20.0
225.99414	20.0
263.86343	20.0
229.53073	20.0
242.1852	19.0
254.41325	19.0
202.42325	19.0
203.80493	19.0
133.71886	19.0
320.95255	19.0
205.73875	19.0
177.55318	19.0
210.86772	19.0
315.31439	19.0
255.53911	19.0
352.16052	18.0
297.69351	18.0
62.18021	18.0
185.05818	18.0
204.45273	18.0
247.23734	18.0
248.00937	18.0
190.51305	18.0
257.6301	17.0
218.09276	17.0
208.1505	17.0
470.8533	17.0
475.7384	17.0
255.77867	17.0
152.76917	17.0
189.43326	17.0
343.99573	17.0
691.20697	17.0
184.00063	17.0
348.08353	17.0
132.90703	16.0
187.41826	16.0
196.14998	16.0
267.03046	16.0
277.89557	16.0
221.89238	16.0
270.77203	15.0
335.43689	15.0
494.88364	14.0
157.44623	14.0
553.52502	14.0
530.11414	14.0
518.9162	14.0
506.74603	14.0
505.32956	14.0
136.4184	14.0
489.86411	14.0
476.81552	14.0
482.11615	14.0
359.49582	13.0
390.2757	13.0
388.61182	13.0
363.16101	13.0
382.93588	13.0
381.37759	13.0
392.39697	13.0
379.49237	13.0
365.89264	13.0
378.54868	13.0
376.38165	13.0
373.78336	13.0
369.88208	13.0
361.78137	13.0
369.01624	13.0
367.5072	13.0
360.26865	13.0
410.46628	13.0
396.18292	13.0
398.50778	13.0
125.30042	13.0
467.40448	13.0
466.67224	13.0
460.15201	13.0
459.81384	13.0
457.0127	13.0
451.23633	13.0
450.01193	13.0
445.52148	13.0
444.47003	13.0
442.8364	13.0
440.87469	13.0
436.49976	13.0
434.71957	13.0
432.52744	13.0
428.49823	13.0
425.35388	13.0
422.96799	13.0
421.9978	13.0
419.56918	13.0
415.33148	13.0
413.14108	13.0
354.97964	13.0
409.5997	13.0
405.21762	13.0
403.58505	13.0
400.84534	13.0
356.81229	13.0
158.06737	13.0
352.67526	13.0
305.37613	13.0
175.15256	13.0
139.62125	13.0
350.29041	13.0
169.98257	13.0
262.00082	13.0
142.57698	13.0
147.4364	13.0
148.48941	13.0
150.23674	13.0
151.0685	13.0
168.60013	13.0
153.35434	13.0
297.90308	13.0
165.94928	13.0
295.73343	13.0
273.51025	13.0
293.76132	13.0
274.64996	13.0
276.09137	13.0
290.11377	13.0
288.81088	13.0
287.59561	13.0
278.48029	13.0
154.49516	13.0
279.68927	13.0
162.45706	13.0
160.91426	13.0
304.08377	13.0
171.04137	13.0
307.04349	13.0
330.70624	13.0
218.49498	13.0
160.09048	13.0
127.80663	13.0
129.8808	13.0
194.2373	13.0
134.62064	13.0
342.49713	13.0
341.5047	13.0
340.1506	13.0
339.03537	13.0
333.57779	13.0
332.13065	13.0
185.51939	13.0
329.13385	13.0
137.27299	13.0
309.14224	13.0
310.77148	13.0
311.71475	13.0
312.94006	13.0
181.93423	13.0
315.90588	13.0
319.32306	13.0
321.61078	13.0
323.05246	13.0
327.2179	13.0
126.1305	13.0
496.09778	12.0
511.77576	12.0
462.11188	12.0
527.5874	12.0
549.96655	12.0
572.74963	12.0
587.05426	12.0
688.95862	12.0
119.72085	12.0

MSID: 8922
ID: 411
RETENTIONTIME: 30.73343
PRECURSORMZ: 333.2073
AREA: 11383076.0
PRECURSORTYPE: [M-H]-
SMILES: [H][C@]12C[C@H](CC[C@]1(O)[C@@]1(C)CCC[C@@](C)(C(O)=O)[C@]1([H])CC2=O)C(C)=C
NAME: wiedemannic acid
FORMULA: C20H30O4
INCHIKEY: BFOYQQLRIXKEKK-XVPBKVKESA-N
CAS: 129385-69-9
Molecular Weight: 334.456
Number of References: 2
Class: Abietane diterpenoids
Superclass: Diterpenoids
Pathway: Terpenoids
ppm: 0.7150000000137879
CMID: CM243
IONMODE: Negative
COLLISIONENERGY: 40±20eV
INSTRUMENTTYPE: AB SCIEX
INSTRUMENT: Q-TOF
Comment:  
Num Peaks: 333
303.19617	145884.0
333.20917	127006.0
285.18576	45214.0
203.10773	21703.0
301.18063	3496.0
243.1384	3167.0
260.14142	2470.0
215.10779	2210.0
216.11578	1936.0
283.17175	1628.0
331.19049	1598.0
267.13904	1367.0
259.16779	1038.0
269.15472	1030.0
201.0919	978.0
255.13672	776.0
188.08229	705.0
229.12123	686.0
270.16141	657.0
271.16833	538.0
287.16376	470.0
315.19586	443.0
288.17194	404.0
189.09088	374.0
217.1218	326.0
253.12291	322.0
231.13861	271.0
57.03414	268.0
227.10678	202.0
244.14723	200.0
175.07465	192.0
187.07504	189.0
214.09785	154.0
287.1571	146.0
302.18585	144.0
164.08234	142.0
241.12393	142.0
281.15176	141.0
161.05824	131.0
202.10135	130.0
200.08221	123.0
299.16333	119.0
245.15356	114.0
242.13164	112.0
275.19528	111.0
191.1067	111.0
331.1709	107.0
239.10573	105.0
251.14345	100.0
284.17786	95.0
268.14673	95.0
172.05063	92.0
271.13284	91.0
160.05316	87.0
297.18658	86.0
267.17905	82.0
185.09532	81.0
245.18883	76.0
219.13795	75.0
204.11243	73.0
218.13016	68.0
245.11984	66.0
159.04506	66.0
253.11668	66.0
257.15067	66.0
176.08417	63.0
259.13153	61.0
185.06067	60.0
286.16064	60.0
332.09109	55.0
165.09116	52.0
186.06516	50.0
288.16196	49.0
190.09949	48.0
145.02881	48.0
177.0914	46.0
231.10139	46.0
261.1485	45.0
213.09172	45.0
228.11584	45.0
192.11523	45.0
283.13715	44.0
230.12881	44.0
243.10938	44.0
265.15964	44.0
270.14047	44.0
287.1853	43.0
259.20248	43.0
301.14325	42.0
225.08948	41.0
173.05914	40.0
171.07964	38.0
240.1153	38.0
284.2373	38.0
283.11411	36.0
302.17053	36.0
260.11142	36.0
273.15381	35.0
204.03548	34.0
162.06897	34.0
259.15518	34.0
213.1246	34.0
217.0136	34.0
251.1062	34.0
149.09608	33.0
201.95241	33.0
222.89107	33.0
281.14355	33.0
199.07784	33.0
233.15587	33.0
202.61398	32.0
209.22829	32.0
223.10896	32.0
253.72934	31.0
216.09851	31.0
269.12582	31.0
315.1698	30.0
244.58505	30.0
284.27032	30.0
201.12801	30.0
199.15936	30.0
255.11795	29.0
304.01349	29.0
237.57425	29.0
289.17355	29.0
218.2126	28.0
267.08621	28.0
211.10649	28.0
205.00459	28.0
275.16443	28.0
304.19965	28.0
332.05182	28.0
223.91418	28.0
205.4437	28.0
222.10083	27.0
236.25537	27.0
221.4883	27.0
221.31053	27.0
241.1954	27.0
197.09592	27.0
218.60336	27.0
174.06543	27.0
332.14282	26.0
331.15308	26.0
225.90709	26.0
223.13237	26.0
302.1467	26.0
287.12891	26.0
219.89386	26.0
284.15311	26.0
286.93146	26.0
270.12277	26.0
215.092	26.0
215.99776	26.0
201.07663	26.0
202.42584	26.0
188.74362	26.0
224.3056	26.0
278.35095	25.0
282.151	25.0
232.10735	25.0
233.83821	25.0
249.77036	25.0
257.75717	25.0
138.0956	25.0
256.10901	25.0
255.10544	25.0
224.75021	25.0
151.07919	25.0
218.09111	25.0
221.06586	25.0
203.66916	25.0
205.34686	25.0
200.6131	25.0
207.33026	25.0
199.47321	25.0
199.28101	25.0
198.06496	25.0
197.78667	25.0
196.31717	25.0
194.20438	25.0
215.52019	25.0
178.91267	25.0
203.05888	25.0
220.06671	25.0
202.44536	25.0
171.75403	25.0
169.1026	25.0
229.43262	24.0
164.00833	24.0
201.84109	24.0
205.16307	24.0
223.78964	24.0
199.97696	24.0
226.62741	24.0
248.3331	24.0
285.1312	24.0
215.7661	24.0
288.13867	24.0
299.03461	24.0
292.56558	24.0
232.26105	24.0
233.2097	24.0
233.60017	24.0
150.06981	23.0
202.07768	23.0
203.51965	23.0
232.7538	23.0
225.12915	23.0
167.46387	23.0
218.74382	23.0
234.63405	23.0
221.71571	23.0
218.9278	23.0
223.3416	23.0
173.13515	23.0
240.80014	23.0
243.17503	23.0
218.50636	23.0
288.19354	23.0
215.85242	23.0
205.80458	22.0
202.05124	22.0
238.10133	22.0
201.54765	22.0
222.3344	22.0
254.12726	22.0
289.96341	22.0
219.09592	22.0
111.54208	22.0
226.02927	22.0
219.44392	22.0
188.06886	22.0
247.68231	22.0
242.50206	22.0
267.81171	21.0
170.2187	21.0
293.6973	21.0
301.11435	21.0
224.10912	21.0
146.04361	21.0
221.12555	21.0
219.28874	21.0
207.52208	21.0
234.08836	21.0
220.0144	21.0
210.2494	21.0
226.10143	21.0
242.89413	21.0
203.43584	21.0
301.21463	20.0
190.41151	20.0
250.73082	20.0
235.04825	20.0
199.55481	20.0
243.68994	20.0
171.04378	20.0
251.8221	20.0
314.89343	20.0
283.86264	20.0
206.87366	20.0
162.56802	20.0
253.90875	20.0
192.9985	20.0
288.54108	19.0
222.05267	19.0
213.08173	19.0
274.10468	19.0
281.6561	19.0
250.47813	19.0
83.05222	19.0
173.98276	19.0
204.17679	19.0
210.79359	18.0
200.1404	18.0
135.08221	18.0
152.41096	18.0
177.08488	17.0
115.04315	17.0
269.1001	17.0
191.09317	17.0
168.0892	17.0
212.08369	17.0
201.31694	17.0
199.75269	17.0
195.98526	17.0
157.25691	16.0
229.80952	16.0
225.76581	16.0
183.71762	16.0
188.44507	16.0
147.90274	15.0
165.63895	14.0
311.43274	13.0
308.89578	13.0
153.21234	13.0
155.00911	13.0
318.62494	13.0
110.72343	13.0
310.23798	13.0
324.83762	13.0
317.54382	13.0
326.38556	13.0
312.92419	13.0
329.13708	13.0
320.2912	13.0
327.6553	13.0
315.66373	13.0
321.41559	13.0
132.73875	13.0
112.77934	13.0
120.10464	13.0
146.67268	13.0
262.97949	13.0
265.78348	13.0
130.10622	13.0
136.65285	13.0
128.76593	13.0
127.09785	13.0
125.11841	13.0
276.08459	13.0
117.47906	13.0
113.89902	13.0
181.75844	13.0
116.00517	13.0
180.25911	13.0
131.29741	13.0
291.23044	13.0
294.02966	13.0
295.74158	13.0
139.15288	13.0
140.39748	13.0
142.92551	13.0

MSID: 8923
ID: 463
RETENTIONTIME: 31.35477
PRECURSORMZ: 747.4105
AREA: 11336532.0
PRECURSORTYPE: [2M-H]-
SMILES: [H][C@@]12[C@@H]3OC(=O)[C@@]1(CCCC2(C)C)C1=C(C=C(C(C)C)C(O)=C1O)[C@@H]3OCC
NAME: 7-ethoxyrosmanol
FORMULA: C22H30O5
INCHIKEY: HEUIVINVBVPWCU-WEMPKCCASA-N
CAS: 111200-01-2
Molecular Weight: 374.477
Number of References: 9
Class: Abietane diterpenoids
Superclass: Diterpenoids
Pathway: Terpenoids
ppm: -0.16249999998763087
CMID: CM243
IONMODE: Negative
COLLISIONENERGY: 40±20eV
INSTRUMENTTYPE: AB SCIEX
INSTRUMENT: Q-TOF
Comment:  
Num Peaks: 465
373.20123	247699.0
313.1817	59467.0
283.16953	45485.0
331.19159	18662.0
59.01368	4127.0
747.41486	2969.0
267.13849	1455.0
301.17999	530.0
374.20456	383.0
201.09149	266.0
268.14618	161.0
281.15448	132.0
371.96124	132.0
371.97256	116.0
314.18243	110.0
343.19058	100.0
282.16193	94.0
371.98956	80.0
312.13928	76.0
253.12238	70.0
227.10631	65.0
282.23596	56.0
284.17398	54.0
747.34259	48.0
240.11327	47.0
244.78827	42.0
255.23006	40.0
747.5246	40.0
282.25568	38.0
747.35596	38.0
371.93668	38.0
249.17589	37.0
251.09482	37.0
249.71411	37.0
374.65933	36.0
264.97574	36.0
207.99449	36.0
332.19568	35.0
279.69989	35.0
329.17371	35.0
747.47107	34.0
245.73605	34.0
247.31358	33.0
251.83711	32.0
747.30243	32.0
250.7551	32.0
282.15698	32.0
265.12082	31.0
248.09344	31.0
246.87025	30.0
374.30496	29.0
204.73926	29.0
243.81021	29.0
251.13206	29.0
242.37347	28.0
245.79439	28.0
359.1402	28.0
371.19296	27.0
269.68622	27.0
215.10735	27.0
257.25848	27.0
243.88972	27.0
208.55132	27.0
374.2576	27.0
246.0063	27.0
290.69031	26.0
265.77655	26.0
249.91533	26.0
262.62177	26.0
279.29715	26.0
217.22813	26.0
218.02847	26.0
248.0441	26.0
226.50607	26.0
371.91592	26.0
261.66095	26.0
378.44656	26.0
242.87074	26.0
283.96436	26.0
245.91261	26.0
372.19168	26.0
243.91115	26.0
372.92886	26.0
250.25603	26.0
245.59637	26.0
256.84088	26.0
327.22046	26.0
255.82961	26.0
252.67232	26.0
207.46663	26.0
374.34854	26.0
330.08401	26.0
297.73993	26.0
258.62994	26.0
244.0381	25.0
241.62093	25.0
240.52922	25.0
304.85352	25.0
253.90511	25.0
246.2475	25.0
284.15912	25.0
158.9447	25.0
247.23196	25.0
312.1687	25.0
269.40967	25.0
380.17068	25.0
285.33401	25.0
247.82822	25.0
331.85129	25.0
206.48044	25.0
208.44809	25.0
213.9341	25.0
245.0488	25.0
297.03741	25.0
271.28711	25.0
272.48523	25.0
292.33218	25.0
164.1924	25.0
329.12573	25.0
252.47	25.0
207.69801	25.0
257.95163	25.0
288.24448	25.0
244.66725	25.0
303.47525	25.0
228.08727	25.0
75.6455	24.0
255.1315	24.0
254.6234	24.0
267.90732	24.0
250.60626	24.0
247.98857	24.0
248.4823	24.0
252.52913	24.0
258.06018	24.0
260.811	24.0
270.70837	24.0
372.71143	24.0
687.32019	24.0
229.1326	24.0
165.86932	24.0
182.38702	24.0
319.27136	24.0
374.53992	24.0
305.78265	24.0
207.04791	24.0
207.24664	24.0
301.13412	24.0
223.64711	24.0
287.14819	24.0
209.23918	24.0
243.06459	24.0
239.55972	24.0
381.10303	24.0
242.67848	24.0
245.951	23.0
375.46915	23.0
252.85292	23.0
246.07082	23.0
254.18449	23.0
254.94383	23.0
309.49438	23.0
255.7419	23.0
280.5899	23.0
210.64105	23.0
326.45566	23.0
260.4537	23.0
260.58646	23.0
261.15744	23.0
177.09102	23.0
266.569	23.0
373.89774	23.0
383.35068	23.0
251.11964	23.0
241.96049	23.0
276.68152	23.0
237.09251	23.0
247.93922	23.0
219.13025	23.0
277.42316	23.0
220.3002	23.0
286.52628	23.0
230.21449	23.0
246.89488	23.0
214.05156	22.0
311.95938	22.0
225.09195	22.0
314.14774	22.0
140.58405	22.0
191.88008	22.0
248.14281	22.0
375.90381	22.0
189.45155	22.0
259.65619	22.0
255.98468	22.0
261.08148	22.0
337.85074	22.0
285.19177	22.0
256.36398	22.0
199.89346	22.0
250.41406	22.0
247.00259	22.0
212.94406	22.0
211.38075	22.0
281.24643	22.0
249.76518	22.0
252.18845	22.0
302.12906	22.0
248.82974	22.0
207.50049	22.0
284.39194	22.0
222.05075	22.0
271.04037	22.0
249.47432	22.0
246.52112	22.0
202.10092	22.0
254.77187	22.0
249.12334	22.0
77.40073	22.0
296.56671	21.0
374.04733	21.0
347.38672	21.0
286.18985	21.0
331.45718	21.0
58.82351	21.0
217.83765	21.0
248.74788	21.0
235.32108	21.0
244.485	21.0
183.24767	21.0
188.76207	21.0
245.47821	21.0
246.13687	21.0
258.36386	21.0
242.91805	21.0
249.81781	21.0
217.12279	21.0
207.07329	21.0
251.38664	21.0
207.938	21.0
258.26944	21.0
316.59283	20.0
204.22954	20.0
289.86108	20.0
192.57253	20.0
333.2442	20.0
275.4628	20.0
374.16287	20.0
209.05791	20.0
491.27466	20.0
250.12282	20.0
245.04114	20.0
245.68846	20.0
253.03047	19.0
249.24545	19.0
203.27342	19.0
199.10506	19.0
591.46924	19.0
222.82043	19.0
164.84177	19.0
246.96259	19.0
375.34012	19.0
375.08026	19.0
284.8132	19.0
208.03687	19.0
318.46872	18.0
419.16486	18.0
186.6396	18.0
85.89972	18.0
268.59857	18.0
248.33568	18.0
274.43658	18.0
217.46347	18.0
244.54779	18.0
283.54044	18.0
249.05687	17.0
293.32925	17.0
404.87936	17.0
163.86128	17.0
82.75157	17.0
245.19292	16.0
227.49902	16.0
194.18213	16.0
330.69812	16.0
302.50195	16.0
366.12573	15.0
209.60197	15.0
509.10822	14.0
505.58124	14.0
501.40408	14.0
499.22681	14.0
494.80591	14.0
493.31924	14.0
485.55252	14.0
477.38092	14.0
488.57605	14.0
487.18091	14.0
484.1962	14.0
481.04022	14.0
479.96048	14.0
478.68054	14.0
515.14929	14.0
475.21167	14.0
469.84521	14.0
510.66272	14.0
513.43927	14.0
522.32214	14.0
586.60889	14.0
295.6113	14.0
308.38245	14.0
740.33441	14.0
729.35236	14.0
675.31177	14.0
643.27258	14.0
631.20917	14.0
625.05872	14.0
603.00665	14.0
701.27441	14.0
547.36145	14.0
545.72913	14.0
539.20831	14.0
185.44283	14.0
526.18542	14.0
526.30896	14.0
532.10529	14.0
531.67847	14.0
565.84821	14.0
398.82727	13.0
393.51782	13.0
417.16434	13.0
415.79538	13.0
413.74118	13.0
412.26648	13.0
411.08029	13.0
405.91452	13.0
394.77374	13.0
410.04453	13.0
407.21179	13.0
402.9939	13.0
401.94678	13.0
400.05637	13.0
422.40097	13.0
396.76474	13.0
420.36264	13.0
299.27451	13.0
423.90979	13.0
426.10022	13.0
106.55286	13.0
117.30375	13.0
126.38871	13.0
298.08475	13.0
467.44754	13.0
466.32608	13.0
461.22467	13.0
457.21024	13.0
454.08517	13.0
451.3598	13.0
447.85892	13.0
441.96588	13.0
440.79935	13.0
438.03223	13.0
436.36957	13.0
433.8999	13.0
431.88687	13.0
428.98358	13.0
427.00226	13.0
391.51559	13.0
390.03662	13.0
388.28061	13.0
183.64424	13.0
180.47179	13.0
179.27138	13.0
233.86319	13.0
333.69128	13.0
334.92853	13.0
336.17883	13.0
177.92342	13.0
338.52786	13.0
339.62421	13.0
340.98813	13.0
341.99973	13.0
387.22968	13.0
343.80765	13.0
345.16537	13.0
346.44556	13.0
173.80676	13.0
348.58142	13.0
232.79216	13.0
230.52217	13.0
351.90408	13.0
186.90459	13.0
306.29144	13.0
200.07487	13.0
309.99417	13.0
293.68997	13.0
197.64168	13.0
195.96292	13.0
194.51114	13.0
192.90424	13.0
316.99545	13.0
290.81387	13.0
223.85657	13.0
320.1889	13.0
321.44827	13.0
322.96701	13.0
324.13135	13.0
189.9668	13.0
327.96133	13.0
349.6152	13.0
174.93048	13.0
353.52066	13.0
141.21873	13.0
238.39558	13.0
154.18448	13.0
354.63919	13.0
149.76135	13.0
147.48352	13.0
145.37543	13.0
144.12773	13.0
139.40916	13.0
156.77556	13.0
138.72896	13.0
378.82578	13.0
136.82204	13.0
135.61168	13.0
381.43573	13.0
384.55957	13.0
385.33386	13.0
237.23276	13.0
155.56036	13.0
159.20409	13.0
168.70135	13.0
363.64343	13.0
367.20956	13.0
368.31192	13.0
360.49808	13.0
370.35196	13.0
171.89616	13.0
172.62619	13.0
170.64919	13.0
167.51674	13.0
166.23653	13.0
357.16461	13.0
356.07907	13.0
235.52542	13.0
162.58017	13.0
161.57906	13.0
364.81149	13.0
128.98578	12.0
727.18536	12.0
124.29578	12.0
744.46478	12.0
736.78687	12.0
667.26123	12.0
708.9715	12.0
697.07965	12.0
684.25818	12.0
543.18597	12.0
653.013	12.0
639.78766	12.0
627.43335	12.0
599.31866	12.0
582.26703	12.0
570.32019	12.0
151.26791	12.0

MSID: 8924
ID: 278
RETENTIONTIME: 27.40953
PRECURSORMZ: 403.1758
AREA: 10645608.0
PRECURSORTYPE: [M-H]-
SMILES: [H][C@]12C[C@H](OC(C)=O)C=C3C(=O)OC[C@@]13C[C@@H](O)[C@@H](C)[C@]2(C)CCC1=CCOC1=O
NAME: 2β-Acetoxy-7α-hydroxy-neo-clerodan-3,13-dien-18,19:16,15-diolide
FORMULA: C22H28O7
INCHIKEY: PNENIROCKNMKOU-ANIUOEKKSA-N
CAS: nan
Molecular Weight: 404.46
Number of References: 3
Class: Colensane and Clerodane diterpenoids
Superclass: Diterpenoids
Pathway: Terpenoids
ppm: 0.11999999998124622
CMID: CM243
IONMODE: Negative
COLLISIONENERGY: 40±20eV
INSTRUMENTTYPE: AB SCIEX
INSTRUMENT: Q-TOF
Comment:  
Num Peaks: 383
343.15506	133120.0
403.17569	14872.0
325.14487	13016.0
281.11899	10084.0
315.15942	7863.0
310.12076	7062.0
59.01382	6449.0
330.14703	5889.0
297.1478	3941.0
299.12952	3558.0
328.13058	2663.0
285.11139	2594.0
331.15491	2466.0
272.10611	2285.0
309.11102	2269.0
312.13654	1989.0
313.10788	1642.0
282.12637	1494.0
257.08163	1308.0
253.12296	1257.0
267.10068	1225.0
259.09692	1206.0
231.10143	1143.0
300.13641	1042.0
311.12869	1034.0
230.09618	798.0
264.11462	791.0
301.14331	726.0
254.09453	719.0
295.09531	637.0
238.0636	627.0
293.11865	613.0
271.13452	611.0
287.16547	608.0
229.08717	564.0
239.06943	549.0
283.13391	542.0
216.07838	521.0
258.08908	473.0
314.15366	466.0
265.12299	443.0
255.13834	414.0
297.11237	406.0
256.11218	376.0
313.14429	366.0
241.08444	360.0
292.11188	347.0
268.10831	284.0
269.08249	284.0
268.14517	282.0
313.13388	271.0
296.13919	271.0
271.09741	270.0
299.15662	251.0
269.1564	251.0
327.12201	246.0
257.11774	236.0
188.04607	235.0
269.11621	234.0
213.0932	232.0
243.06667	231.0
218.05789	229.0
279.13577	224.0
280.11176	222.0
228.07892	213.0
244.07384	208.0
255.10236	203.0
307.13251	203.0
341.14081	188.0
282.08853	187.0
266.09335	184.0
244.10902	183.0
284.10529	174.0
203.10777	170.0
300.09909	169.0
285.09485	168.0
243.13997	165.0
283.09766	165.0
253.08868	164.0
217.08577	162.0
298.15811	160.0
373.16614	158.0
243.10179	148.0
215.06761	147.0
263.10818	144.0
232.07457	139.0
272.14001	139.0
331.14243	138.0
254.12886	137.0
228.11589	134.0
266.12848	132.0
296.10211	130.0
267.07187	130.0
251.10936	128.0
190.06442	122.0
226.09999	121.0
215.10638	120.0
285.07834	119.0
285.14777	118.0
249.09299	117.0
214.10075	116.0
295.13229	116.0
271.1716	115.0
242.09358	114.0
165.0547	114.0
268.10349	110.0
214.06207	108.0
227.10535	103.0
201.05583	102.0
269.09695	102.0
270.09064	102.0
237.05685	98.0
200.08087	97.0
329.13538	96.0
268.07465	95.0
254.06018	94.0
238.09683	93.0
286.11761	92.0
202.061	91.0
287.12564	90.0
283.10754	89.0
270.12604	89.0
216.04384	86.0
239.10728	86.0
159.04262	85.0
164.08362	84.0
280.14288	83.0
175.03709	81.0
296.13416	80.0
226.06465	78.0
299.10919	77.0
211.07666	77.0
277.08624	77.0
256.0683	76.0
224.04613	74.0
287.09079	73.0
326.15036	73.0
251.07056	73.0
342.02222	73.0
198.06638	70.0
210.10321	70.0
203.07149	69.0
227.0714	69.0
241.04947	69.0
253.04817	68.0
237.12773	66.0
252.08173	66.0
229.05161	66.0
256.14041	66.0
272.07864	65.0
240.07588	65.0
185.09668	65.0
202.0986	64.0
278.13049	64.0
273.1474	64.0
252.11436	64.0
267.13589	63.0
269.1355	63.0
199.03918	62.0
165.09119	62.0
219.06406	62.0
137.05843	61.0
291.09683	60.0
241.12549	60.0
213.05745	60.0
259.07169	59.0
223.07683	58.0
211.03824	58.0
237.09154	58.0
273.10855	57.0
200.0504	57.0
258.07962	57.0
341.13177	56.0
265.09113	56.0
229.12126	56.0
284.1416	55.0
215.03314	55.0
225.12772	55.0
189.09093	54.0
296.11728	53.0
151.07802	53.0
294.09018	53.0
256.09338	53.0
187.03891	52.0
247.09705	52.0
342.01498	52.0
201.09332	52.0
160.05319	51.0
209.05838	51.0
293.10187	51.0
225.05132	51.0
315.12119	50.0
255.12895	48.0
187.11124	48.0
231.0657	48.0
222.06876	48.0
253.16191	48.0
236.11845	47.0
312.16251	47.0
210.06772	46.0
264.08441	46.0
314.13281	45.0
281.14853	45.0
283.17181	45.0
212.08087	45.0
212.11795	45.0
280.07407	44.0
283.08777	44.0
230.05756	44.0
325.11661	44.0
301.11441	44.0
342.00412	43.0
292.0918	43.0
224.08278	43.0
311.09933	42.0
157.06543	42.0
240.07436	41.0
221.05861	41.0
195.08289	40.0
331.11749	40.0
249.13008	39.0
240.11382	38.0
226.0249	38.0
281.07794	38.0
248.08476	36.0
235.11284	36.0
150.06863	36.0
299.08887	36.0
293.08511	35.0
223.11192	35.0
245.08461	35.0
225.08804	35.0
232.06264	35.0
313.07324	35.0
328.08978	34.0
83.04778	34.0
251.1404	34.0
266.12531	33.0
203.03799	33.0
330.11856	32.0
190.05902	32.0
238.04697	32.0
188.08232	32.0
309.0697	32.0
266.05661	31.0
174.028	31.0
231.05379	31.0
185.06071	30.0
257.05338	30.0
243.05598	30.0
227.04042	30.0
228.10257	30.0
228.51689	29.0
122.03555	29.0
186.10661	29.0
172.04936	29.0
298.12262	29.0
226.23106	28.0
222.88672	28.0
273.07941	27.0
309.14029	27.0
257.16486	27.0
193.06248	27.0
261.11533	27.0
163.07288	27.0
264.45532	26.0
299.07025	26.0
255.06482	26.0
346.55573	26.0
229.15833	26.0
225.99986	26.0
199.07512	26.0
267.78931	26.0
303.15872	26.0
243.79547	26.0
344.15717	26.0
272.0657	26.0
330.09366	26.0
186.0318	26.0
311.07343	25.0
173.02438	25.0
345.1698	25.0
172.09047	25.0
182.96318	25.0
217.04681	25.0
239.05429	25.0
228.25642	25.0
233.55382	25.0
284.17297	25.0
240.33844	25.0
231.6496	25.0
208.52492	25.0
208.08818	25.0
253.8027	25.0
229.65965	25.0
202.0457	25.0
279.06543	25.0
323.12088	24.0
310.08282	24.0
302.15869	24.0
231.49312	24.0
308.14417	24.0
230.36511	24.0
234.98073	24.0
147.08572	23.0
344.28433	23.0
187.03221	23.0
161.06325	23.0
149.36647	23.0
286.08118	23.0
248.11716	23.0
189.05188	23.0
184.08951	23.0
361.1611	23.0
313.0611	23.0
197.66553	23.0
228.42067	23.0
227.51283	23.0
261.04727	23.0
225.96307	23.0
149.0208	22.0
192.52403	22.0
286.89005	22.0
242.58751	22.0
222.70547	22.0
312.07944	22.0
341.16974	22.0
198.03192	22.0
144.65758	22.0
401.84558	22.0
224.25432	22.0
224.46555	22.0
226.38426	22.0
230.31905	21.0
326.39093	21.0
228.04047	21.0
229.4371	21.0
237.64676	21.0
131.04956	21.0
58.8289	21.0
213.15181	21.0
239.14969	21.0
278.09131	21.0
175.11226	21.0
251.0954	21.0
205.08456	20.0
220.27599	20.0
192.07184	20.0
269.04233	20.0
218.73372	20.0
239.02855	20.0
259.0307	20.0
204.07608	20.0
297.08365	20.0
285.03699	20.0
310.05695	20.0
246.09288	20.0
324.13385	20.0
159.07967	20.0
242.96439	20.0
316.12848	20.0
213.44643	19.0
219.04958	19.0
343.90466	19.0
190.30075	19.0
271.26999	19.0
191.07425	19.0
192.07861	19.0
322.17102	19.0
255.05701	18.0
121.06171	18.0
181.10553	18.0
242.2475	18.0
222.36656	18.0
272.806	18.0
330.04919	18.0
360.11224	18.0
81.02818	18.0
206.33319	18.0
297.95187	17.0
137.05269	17.0
283.33829	17.0
133.0639	15.0

MSID: 8925
ID: 184
RETENTIONTIME: 21.1171
PRECURSORMZ: 269.0457
AREA: 10400347.0
PRECURSORTYPE: [M-H]-
SMILES: OC1=CC=C(C=C1)C1=CC(=O)C2=C(O)C=C(O)C=C2O1
NAME: 5,7-dihydroxy-2-(4-hydroxyphenyl)-4H-1-benzopyran-4-one
FORMULA: C15H10O5
INCHIKEY: KZNIFHPLKGYRTM-UHFFFAOYSA-N
CAS: 520-36-5
Molecular Weight: 270.241
Number of References: 20935
Class: Flavones
Superclass: Flavonoids
Pathway: Shikimates and Phenylpropanoids
ppm: 0.7000000000516593
CMID: CM243
IONMODE: Negative
COLLISIONENERGY: 40±20eV
INSTRUMENTTYPE: AB SCIEX
INSTRUMENT: Q-TOF
Comment:  
Num Peaks: 144
269.04547	45202.0
117.03474	21867.0
151.00336	6645.0
149.02434	5182.0
65.00298	4794.0
107.0135	3269.0
225.05418	3031.0
63.02391	1742.0
227.03444	1643.0
201.05438	1535.0
159.04504	1412.0
183.04395	1193.0
181.06595	1160.0
83.01384	1081.0
121.02828	932.0
197.06013	473.0
180.05798	424.0
105.03416	376.0
185.02469	343.0
196.05241	341.0
169.06439	329.0
224.04753	317.0
155.04933	293.0
79.01861	284.0
89.03935	271.0
182.03577	264.0
93.03252	262.0
141.03403	251.0
157.06415	222.0
77.04032	200.0
213.05597	190.0
241.04636	188.0
195.04591	177.0
167.0497	177.0
171.04248	167.0
199.04051	141.0
209.02292	136.0
158.03642	132.0
129.03386	126.0
116.02731	120.0
154.04134	113.0
156.0545	112.0
81.03432	111.0
130.0403	106.0
161.02467	104.0
148.01947	102.0
168.05743	92.0
51.0239	88.0
198.03186	86.0
131.04953	85.0
223.03873	84.0
226.02777	79.0
145.02879	73.0
183.02539	70.0
143.0508	67.0
251.03481	66.0
153.06932	61.0
135.04463	56.0
147.00612	55.0
67.01904	54.0
108.99189	54.0
173.05911	48.0
91.9908	48.0
158.03273	48.0
181.02774	46.0
210.03076	46.0
267.02859	44.0
207.04269	43.0
268.15793	42.0
268.03928	42.0
53.03768	41.0
89.0024	36.0
89.03566	34.0
157.02856	33.0
227.00493	33.0
214.02618	33.0
153.03299	32.0
63.99395	32.0
254.02109	31.0
179.0489	31.0
165.03452	30.0
141.07126	28.0
133.06387	28.0
225.01747	27.0
95.01231	27.0
101.03737	27.0
253.01695	26.0
185.05933	26.0
150.98772	26.0
197.02715	26.0
182.00273	25.0
83.51156	25.0
198.02773	25.0
206.03642	25.0
176.00099	25.0
186.98798	25.0
55.01849	25.0
119.01566	25.0
181.59738	24.0
175.00337	24.0
87.77148	24.0
135.00822	24.0
116.64944	24.0
268.19803	24.0
81.02639	24.0
67.01504	23.0
137.02399	23.0
184.83159	23.0
170.03348	23.0
121.01212	23.0
57.03265	22.0
132.0199	22.0
226.99165	22.0
135.03667	22.0
180.03696	22.0
119.05092	22.0
59.65573	22.0
268.64084	22.0
183.66585	21.0
253.00916	21.0
133.03224	21.0
61.98956	20.0
151.05389	20.0
64.98876	20.0
148.00636	20.0
225.00278	19.0
239.02696	19.0
166.03995	19.0
127.05258	19.0
240.0394	19.0
191.1324	19.0
63.01303	18.0
175.70361	18.0
118.29031	18.0
82.33447	18.0
201.02522	17.0
105.02412	17.0
120.022	17.0
189.47888	16.0
65.0393	16.0
93.02308	16.0
160.01474	16.0
234.67453	15.0
211.04672	13.0

MSID: 8926
ID: 445
RETENTIONTIME: 31.12403
PRECURSORMZ: 299.1648
AREA: 9644630.0
PRECURSORTYPE: [M-H]-
SMILES: CC(C)C1=CC2=C(C(O)=C1O)C1=C(CC2)C(C)(C)CCC1=O
NAME: sageone
FORMULA: C19H24O3
INCHIKEY: NPQAMUFQEFLLCY-UHFFFAOYSA-N
CAS: 142546-15-4
Molecular Weight: 300.398
Number of References: 16
Class: Icetexane diterpenoids
Superclass: Diterpenoids
Pathway: Terpenoids
ppm: 0.08000000002539309
CMID: CM243
IONMODE: Negative
COLLISIONENERGY: 40±20eV
INSTRUMENTTYPE: AB SCIEX
INSTRUMENT: Q-TOF
Comment:  
Num Peaks: 221
299.16495	56882.0
243.10167	5330.0
284.1398	5153.0
283.13214	4325.0
256.10892	3400.0
228.0788	2880.0
229.08707	2649.0
230.09308	1835.0
199.07501	1709.0
269.11609	1643.0
281.15332	1604.0
298.15628	1553.0
241.08736	1450.0
227.06981	1436.0
216.07829	1364.0
242.09346	1152.0
266.12997	1110.0
200.08354	991.0
215.10773	918.0
185.06195	866.0
215.07037	842.0
231.1028	738.0
213.05449	721.0
271.16986	680.0
265.12445	632.0
226.09988	627.0
255.13821	620.0
241.12233	576.0
267.10214	572.0
213.09023	411.0
268.10657	404.0
214.0634	376.0
201.05574	357.0
251.10768	333.0
255.10379	316.0
238.09673	313.0
184.05089	309.0
200.04614	309.0
201.09045	303.0
282.16077	299.0
241.10408	291.0
185.09526	290.0
256.14655	264.0
253.08699	262.0
187.07498	261.0
188.04597	258.0
240.0788	257.0
280.14441	255.0
211.07655	253.0
183.04259	249.0
281.11719	248.0
172.05185	224.0
253.12283	221.0
225.09235	218.0
297.14597	204.0
187.0415	190.0
282.12131	185.0
254.09128	184.0
250.10004	183.0
226.06306	183.0
258.12512	178.0
210.06905	177.0
186.07045	172.0
253.15555	167.0
171.045	162.0
269.10645	160.0
199.04047	155.0
267.13895	154.0
227.10522	148.0
237.09142	140.0
264.1145	132.0
239.07083	131.0
214.09636	131.0
159.04378	129.0
238.13298	126.0
222.06865	125.0
173.05908	124.0
198.06766	118.0
257.11761	118.0
223.07379	118.0
182.03705	115.0
197.0986	114.0
212.08362	105.0
195.04314	101.0
224.08266	100.0
225.05562	100.0
202.06369	97.0
239.10414	94.0
209.05685	93.0
212.1207	91.0
256.09012	87.0
197.0601	86.0
236.08223	82.0
228.10246	81.0
143.04842	80.0
171.08087	77.0
271.13275	76.0
158.03394	74.0
244.1089	73.0
186.03171	73.0
183.07968	72.0
169.06435	71.0
217.08855	68.0
240.11522	68.0
223.11475	67.0
228.1143	67.0
172.08781	59.0
212.04654	58.0
235.0782	58.0
201.07657	57.0
188.08357	57.0
252.11736	56.0
211.03957	55.0
266.09802	54.0
156.05569	54.0
270.15808	53.0
252.07693	53.0
144.05745	52.0
249.08823	51.0
238.06046	50.0
196.05101	48.0
208.05276	47.0
214.05194	46.0
230.0708	45.0
284.10846	45.0
229.11967	45.0
243.07266	45.0
210.10027	44.0
167.05093	44.0
198.03183	44.0
185.0473	43.0
227.05063	43.0
157.06535	42.0
241.06911	41.0
198.10074	41.0
229.06186	40.0
235.11273	40.0
257.1553	40.0
203.10487	39.0
170.07303	38.0
217.12462	37.0
199.03494	37.0
226.04982	36.0
207.08069	35.0
195.03493	35.0
191.59566	35.0
155.05052	35.0
225.04533	35.0
251.08907	34.0
185.08459	34.0
242.07062	34.0
270.11948	34.0
173.04878	32.0
281.18945	32.0
241.04022	31.0
266.08844	31.0
298.18335	31.0
189.08948	30.0
254.12874	30.0
284.18109	29.0
145.02876	29.0
199.36943	28.0
225.12466	27.0
249.12532	26.0
248.12012	26.0
211.11212	26.0
297.12909	26.0
159.0833	26.0
283.08435	26.0
220.73393	26.0
190.05893	26.0
202.09988	26.0
196.08665	26.0
200.10847	26.0
273.79663	25.0
183.32622	25.0
197.09172	25.0
174.06796	25.0
182.91673	25.0
150.28458	25.0
201.11267	25.0
206.09262	25.0
173.01915	25.0
281.086	25.0
221.05559	24.0
242.13309	24.0
224.05042	24.0
222.44531	24.0
243.1322	24.0
216.05382	23.0
130.0414	23.0
227.84666	23.0
142.08379	23.0
158.07579	23.0
221.1051	23.0
198.99489	23.0
213.13026	23.0
200.42168	22.0
174.02921	22.0
279.134	22.0
255.17105	22.0
144.02103	22.0
223.06209	22.0
215.03017	21.0
183.02669	21.0
238.12392	21.0
170.03471	21.0
160.11259	20.0
147.61107	20.0
149.65497	20.0
280.11325	20.0
164.50403	20.0
184.03627	20.0
226.01889	20.0
228.04922	20.0
83.04862	20.0
181.06592	19.0
113.57211	19.0
154.90424	17.0
149.90785	17.0
188.03255	15.0

MSID: 8927
ID: 580
RETENTIONTIME: 33.8293
PRECURSORMZ: 375.2173
AREA: 9459826.0
PRECURSORTYPE: [M-H]-
SMILES: [H][C@@]12CC[C@@H]3[C@@H](O)[C@@]1([C@H](O)C[C@]1([H])C(C)(C)[C@H](CC[C@@]21C)OC(C)=O)C(=O)C3=C
NAME: leukamenin E
FORMULA: C22H32O5
INCHIKEY: FWHAVXHOWGXALS-OACISFLYSA-N
CAS: 79498-30-9
Molecular Weight: 376.493
Number of References: 10
Class: Kaurane and Phyllocladane diterpenoids
Superclass: Diterpenoids
Pathway: Terpenoids
ppm: 0.15000000007603376
CMID: CM243
IONMODE: Negative
COLLISIONENERGY: 40±20eV
INSTRUMENTTYPE: AB SCIEX
INSTRUMENT: Q-TOF
Comment:  
Num Peaks: 313
285.18555	138132.0
375.21732	81649.0
315.19565	31496.0
59.01376	20448.0
203.10759	10195.0
215.10764	1965.0
345.20767	1588.0
216.11418	1557.0
283.16992	1520.0
284.17767	1339.0
267.13885	1017.0
303.19595	943.0
269.15613	711.0
229.12254	612.0
333.20712	585.0
231.13844	557.0
255.13811	543.0
201.09175	540.0
270.16119	474.0
242.12842	468.0
313.17691	401.0
188.0835	392.0
297.18466	207.0
241.12375	186.0
287.19672	147.0
189.0894	137.0
373.19983	134.0
253.12273	111.0
281.1532	107.0
187.07491	104.0
227.10661	103.0
257.15833	101.0
202.09842	100.0
230.12865	95.0
284.25031	93.0
214.09914	93.0
243.13974	81.0
315.17651	80.0
244.14859	75.0
303.17551	73.0
268.14334	71.0
201.07925	68.0
267.17725	68.0
284.15619	67.0
373.9967	67.0
284.23544	64.0
231.09973	59.0
160.05305	59.0
240.11208	50.0
373.97211	48.0
345.1713	48.0
282.15903	45.0
177.09258	45.0
186.06636	43.0
239.10707	42.0
213.09013	42.0
373.93613	41.0
286.19025	41.0
251.14172	41.0
173.05772	40.0
217.12598	40.0
299.15973	38.0
228.11272	37.0
255.11621	36.0
176.08405	36.0
314.14468	36.0
216.0782	35.0
232.10568	35.0
164.08221	35.0
201.77417	34.0
300.17175	34.0
203.08665	34.0
193.00653	33.0
269.10153	32.0
284.27176	32.0
185.13515	32.0
286.63773	31.0
255.10213	30.0
267.10684	29.0
248.71269	29.0
285.17233	28.0
226.08948	28.0
211.10919	28.0
212.75006	27.0
251.8763	27.0
191.28937	27.0
373.94937	27.0
228.97581	26.0
251.24104	26.0
276.22272	26.0
283.19464	26.0
287.65991	26.0
208.08659	26.0
205.31725	26.0
375.14716	26.0
269.35541	26.0
162.06636	26.0
190.10069	26.0
250.61125	25.0
191.43973	25.0
262.13989	25.0
268.13693	25.0
256.14801	25.0
191.61049	25.0
189.5327	25.0
185.06055	25.0
192.388	25.0
143.0472	25.0
286.90802	25.0
289.8298	25.0
261.12775	25.0
165.13507	25.0
315.14349	25.0
249.23341	25.0
202.42848	25.0
171.01547	25.0
284.64502	24.0
274.59595	24.0
194.32161	24.0
254.08493	24.0
333.5683	24.0
204.59103	24.0
189.34938	24.0
168.00021	24.0
286.50012	24.0
233.26636	24.0
247.60199	24.0
263.14133	24.0
186.57564	24.0
188.4046	23.0
174.80769	23.0
231.09526	23.0
192.30652	23.0
265.15942	23.0
262.52374	23.0
140.83632	23.0
245.41872	23.0
190.15875	23.0
202.79927	23.0
186.17323	23.0
215.61205	23.0
156.71326	23.0
286.11075	23.0
251.73645	23.0
172.05179	23.0
163.07898	23.0
292.25391	23.0
155.89664	23.0
243.38718	22.0
258.02277	22.0
245.15492	22.0
201.00012	22.0
192.54697	22.0
222.04959	22.0
60.16201	22.0
158.07326	22.0
303.15674	22.0
211.02525	22.0
288.79044	22.0
217.08557	22.0
277.22131	22.0
223.936	22.0
272.13977	22.0
193.39581	22.0
270.13867	22.0
268.36789	22.0
273.59241	22.0
259.30795	21.0
190.83591	21.0
284.802	21.0
271.16492	21.0
62.59082	21.0
187.53996	21.0
249.82434	21.0
229.09882	21.0
200.717	21.0
202.45078	21.0
204.2634	21.0
209.19414	21.0
212.60582	21.0
197.00778	21.0
213.98595	21.0
216.51025	21.0
222.75204	21.0
58.82209	21.0
247.96423	21.0
249.12831	20.0
159.11534	20.0
273.01282	20.0
256.08218	20.0
287.43741	20.0
266.81723	20.0
192.42061	20.0
192.759	20.0
259.1676	20.0
246.12953	20.0
244.87901	19.0
246.82751	19.0
311.24762	19.0
219.49019	19.0
275.91846	19.0
225.23773	19.0
205.54602	19.0
247.35858	19.0
316.51312	19.0
260.13647	19.0
255.78139	18.0
194.05142	18.0
315.15567	18.0
188.95207	18.0
284.74915	18.0
283.09247	18.0
175.60228	18.0
159.04248	18.0
199.07079	17.0
195.00613	17.0
157.65125	17.0
373.18094	17.0
242.49884	17.0
263.6626	17.0
210.54044	17.0
159.93291	17.0
337.09381	17.0
151.07547	17.0
186.90082	17.0
345.14581	16.0
290.82928	16.0
198.85254	16.0
275.47781	16.0
200.0793	15.0
167.49162	15.0
59.29244	15.0
285.84576	15.0
289.21497	15.0
199.73178	15.0
206.92421	15.0
196.14143	15.0
126.56399	14.0
301.17191	14.0
141.66731	14.0
217.88853	14.0
320.52585	13.0
334.39334	13.0
332.34607	13.0
322.39224	13.0
165.34656	13.0
326.38535	13.0
327.51328	13.0
331.09045	13.0
335.71619	13.0
324.23581	13.0
367.63803	13.0
168.82372	13.0
352.72986	13.0
366.62857	13.0
362.06583	13.0
369.87018	13.0
359.83322	13.0
358.66019	13.0
357.20398	13.0
354.0719	13.0
350.60147	13.0
341.07178	13.0
348.27298	13.0
347.38721	13.0
345.24591	13.0
371.12177	13.0
319.13181	13.0
343.39243	13.0
342.27368	13.0
146.03403	13.0
292.80661	13.0
317.81589	13.0
134.88869	13.0
278.90979	13.0
277.7319	13.0
219.97649	13.0
160.50061	13.0
144.53264	13.0
153.04379	13.0
135.80238	13.0
136.99295	13.0
151.7744	13.0
138.71416	13.0
149.56148	13.0
263.92505	13.0
233.51021	13.0
234.74489	13.0
236.00841	13.0
237.04759	13.0
148.12424	13.0
280.14099	13.0
133.75148	13.0
177.62727	13.0
128.06006	13.0
173.57985	13.0
106.04616	13.0
309.74466	13.0
308.20749	13.0
307.19058	13.0
305.54849	13.0
303.44495	13.0
112.15822	13.0
178.90468	13.0
120.04446	13.0
294.09662	13.0
123.07074	13.0
180.62335	13.0
181.67514	13.0
182.86104	13.0
184.0229	13.0
127.01829	13.0
81.45354	12.0

MSID: 8928
ID: 245
RETENTIONTIME: 26.10165
PRECURSORMZ: 301.1809
AREA: 9168393.0
PRECURSORTYPE: [M-H]-
SMILES: [H][C@@]12CCC3=C(C=C(O)C(=O)C(C)=C3)[C@@]1(CO)CCCC2(C)C
NAME: isograndifoliol
FORMULA: C19H26O3
INCHIKEY: LZLHHGFIKUAWST-LPHOPBHVSA-N
CAS: 1445475-53-5
Molecular Weight: 302.414
Number of References: 2
Class: Podocarpane diterpenoids
Superclass: Diterpenoids
Pathway: Terpenoids
ppm: 0.5300000000261207
CMID: CM243
IONMODE: Negative
COLLISIONENERGY: 40±20eV
INSTRUMENTTYPE: AB SCIEX
INSTRUMENT: Q-TOF
Comment:  
Num Peaks: 144
301.18106	32866.0
283.17053	1791.0
217.08748	1452.0
258.12717	915.0
273.18497	498.0
267.13943	474.0
229.08746	474.0
285.14813	464.0
300.17242	415.0
164.08382	326.0
215.07076	320.0
230.09349	313.0
240.11412	240.0
299.16714	238.0
201.09081	236.0
257.11807	233.0
243.10057	209.0
204.07915	202.0
286.16107	190.0
268.14874	183.0
227.10564	166.0
163.07683	162.0
175.03732	154.0
201.05748	154.0
189.09251	149.0
257.15417	146.0
174.03209	140.0
215.10522	137.0
189.05345	131.0
271.17032	127.0
202.06267	123.0
259.16974	120.0
216.07722	120.0
255.17619	115.0
253.12016	108.0
187.07397	99.0
243.13722	98.0
187.0405	96.0
184.05254	93.0
258.16333	89.0
165.09265	82.0
188.08391	79.0
159.04405	77.0
229.12303	77.0
200.0825	77.0
203.07314	77.0
177.09164	70.0
203.10524	63.0
214.09816	60.0
189.08847	58.0
271.13324	58.0
225.0898	53.0
185.06094	52.0
243.13263	51.0
230.13211	51.0
190.09976	50.0
137.09644	49.0
214.06091	49.0
226.0988	48.0
284.13867	47.0
251.10657	47.0
200.05066	46.0
256.11096	46.0
283.14581	45.0
199.07536	45.0
241.12579	45.0
186.06944	44.0
212.11823	44.0
190.06195	42.0
272.17752	41.0
149.09988	41.0
256.14542	40.0
218.09576	40.0
171.07988	39.0
219.10057	37.0
255.14178	37.0
191.07043	36.0
158.03914	36.0
173.05939	36.0
228.11914	36.0
229.10674	36.0
231.17319	35.0
231.10321	35.0
201.07414	35.0
159.07986	33.0
211.07408	33.0
244.10933	32.0
228.07625	32.0
146.03554	32.0
173.02203	32.0
149.05804	31.0
175.07619	31.0
216.11754	31.0
281.1571	31.0
252.11469	30.0
213.05344	30.0
172.04831	29.0
143.0475	28.0
162.06796	28.0
178.10175	28.0
192.07886	27.0
265.12335	26.0
268.12469	26.0
300.14188	26.0
205.08482	26.0
174.07214	26.0
245.11713	25.0
145.02902	25.0
213.10204	25.0
164.06752	25.0
266.13522	24.0
157.06317	24.0
258.08783	24.0
269.12781	24.0
240.10197	24.0
227.06726	24.0
130.03938	24.0
257.09921	23.0
273.1445	23.0
197.78419	23.0
135.08012	23.0
239.14545	23.0
187.03514	22.0
238.10016	22.0
239.10759	22.0
200.62448	22.0
241.08018	22.0
161.06221	21.0
122.03786	21.0
243.17845	21.0
148.05305	21.0
259.15399	20.0
214.54115	20.0
237.08128	20.0
202.10303	20.0
151.0746	20.0
197.09482	19.0
175.02437	18.0
201.03665	18.0
156.05475	18.0
243.07462	17.0
286.65494	13.0
124.49282	12.0
54.73855	12.0

MSID: 8929
ID: 264
RETENTIONTIME: 27.13252
PRECURSORMZ: 345.1696
AREA: 9132158.0
PRECURSORTYPE: [M-H]-
SMILES: CC(C)C1=CC2=C(C(O)=C1O)[C@@]13CCCC(C)(C)C1[C@H](OC3=O)[C@H]2O
NAME: rosmanol
FORMULA: C20H26O5
INCHIKEY: LCAZOMIGFDQMNC-FSTFFMDFSA-N
CAS: nan
Molecular Weight: 346.423
Number of References: 5
Class: Abietane diterpenoids
Superclass: Diterpenoids
Pathway: Terpenoids
ppm: -0.5999999999630745
CMID: CM243
IONMODE: Negative
COLLISIONENERGY: 40±20eV
INSTRUMENTTYPE: AB SCIEX
INSTRUMENT: Q-TOF
Comment:  
Num Peaks: 293
301.18082	145045.0
283.17029	33501.0
267.1376	18688.0
201.09203	13727.0
217.12338	5216.0
281.15359	4692.0
215.10793	4004.0
345.16995	3962.0
241.12256	2861.0
257.15396	1855.0
299.16351	1814.0
265.12311	1364.0
242.13026	1007.0
286.1575	988.0
243.13855	931.0
200.08235	673.0
268.14691	455.0
253.12306	420.0
186.06795	402.0
227.10692	367.0
240.11392	271.0
252.11449	263.0
214.09943	260.0
285.15121	229.0
202.09869	225.0
330.06711	196.0
213.09186	192.0
164.08243	183.0
187.07649	180.0
216.11592	178.0
269.15491	165.0
203.10646	149.0
239.10588	149.0
251.10791	147.0
300.18573	142.0
57.03492	137.0
199.0752	133.0
245.12	131.0
255.14001	122.0
226.10156	108.0
315.03613	107.0
188.0824	106.0
225.09402	99.0
228.116	99.0
266.13181	96.0
300.0195	91.0
282.15939	89.0
172.05458	88.0
345.13358	87.0
258.12537	77.0
185.06079	75.0
212.08525	75.0
189.08966	75.0
300.17047	75.0
271.13141	70.0
272.01898	70.0
165.09126	69.0
238.09845	65.0
57.0327	64.0
237.09164	63.0
327.15759	59.0
265.155	57.0
229.12433	56.0
300.19931	55.0
345.1463	53.0
184.09091	52.0
158.03654	52.0
79.05437	47.0
171.07974	47.0
191.10277	46.0
243.10342	46.0
97.06318	45.0
287.03781	45.0
173.06183	42.0
266.25482	42.0
282.23013	41.0
317.17593	40.0
252.10049	40.0
211.0739	39.0
159.04393	38.0
224.08287	38.0
273.18472	38.0
174.06683	37.0
215.07489	37.0
216.10297	37.0
329.05914	37.0
257.12885	37.0
268.13248	36.0
210.11182	36.0
253.0997	36.0
177.0928	35.0
190.09825	35.0
221.09657	34.0
198.06647	34.0
279.14081	34.0
300.16031	34.0
282.23837	34.0
243.11565	33.0
229.08728	33.0
150.0675	32.0
302.18094	32.0
199.1125	32.0
239.17706	32.0
284.14008	31.0
239.14374	31.0
258.16156	31.0
314.03577	30.0
223.1091	30.0
299.0145	29.0
222.10535	29.0
197.09741	29.0
200.41216	28.0
214.08939	28.0
242.10588	27.0
209.05989	27.0
203.28375	27.0
265.08963	26.0
283.1225	26.0
183.0825	26.0
286.12106	26.0
280.14139	26.0
223.677	26.0
303.55115	26.0
257.11472	26.0
244.42136	26.0
291.20557	26.0
241.09518	26.0
199.26178	26.0
209.70746	26.0
204.7132	26.0
208.98061	26.0
227.18661	25.0
250.14207	25.0
219.50935	25.0
60.50591	25.0
268.10681	25.0
217.17389	25.0
302.02606	25.0
297.15131	25.0
163.0717	25.0
165.24228	25.0
169.14601	25.0
283.87604	25.0
199.80679	25.0
249.14874	25.0
201.12259	25.0
249.12401	25.0
202.61133	25.0
216.53937	25.0
208.80368	25.0
204.95145	25.0
217.08298	24.0
138.99937	24.0
244.14586	24.0
141.14813	24.0
144.05641	24.0
152.74492	24.0
167.18149	24.0
186.78328	24.0
203.61758	24.0
231.03157	24.0
269.11795	24.0
225.45854	24.0
223.36369	24.0
196.49432	24.0
271.0137	24.0
188.11464	23.0
251.0862	23.0
300.28247	23.0
299.19571	23.0
151.07327	23.0
233.11713	23.0
288.41818	23.0
224.53313	23.0
203.36613	23.0
234.62669	23.0
289.62018	22.0
166.88533	22.0
149.05792	22.0
192.2769	22.0
255.09309	22.0
186.04791	22.0
302.25244	22.0
198.9122	22.0
267.1088	21.0
254.12741	21.0
224.04916	21.0
197.17027	21.0
218.74396	21.0
108.71101	21.0
243.02403	21.0
202.53049	21.0
236.11856	21.0
208.59007	21.0
200.9879	21.0
200.43434	21.0
200.04771	21.0
204.59831	20.0
259.01035	20.0
217.90184	20.0
203.08553	20.0
202.69078	20.0
185.97713	20.0
253.42073	20.0
282.15118	20.0
165.66678	20.0
146.03423	20.0
276.77512	19.0
197.3257	19.0
191.56602	19.0
281.11255	19.0
201.60339	19.0
267.98178	19.0
250.10027	19.0
175.07864	19.0
230.08885	19.0
226.66736	19.0
203.91393	19.0
221.2422	19.0
286.04486	18.0
170.38367	18.0
143.6958	18.0
210.06639	18.0
255.48738	18.0
184.07895	18.0
169.06578	18.0
185.04082	17.0
236.38649	17.0
195.05836	16.0
248.1188	16.0
156.19656	16.0
297.07874	16.0
72.03181	16.0
202.85812	16.0
301.15363	15.0
232.85704	15.0
202.34657	15.0
194.63188	15.0
210.42422	15.0
156.93788	14.0
309.87607	13.0
128.48169	13.0
127.55762	13.0
126.28668	13.0
123.50694	13.0
339.64859	13.0
120.9282	13.0
306.06952	13.0
333.64032	13.0
331.70059	13.0
307.92603	13.0
245.92096	13.0
313.02658	13.0
323.71451	13.0
117.86687	13.0
114.94871	13.0
316.18958	13.0
112.92506	13.0
110.49486	13.0
325.81281	13.0
131.3884	13.0
320.25284	13.0
321.44916	13.0
318.15158	13.0
154.12897	13.0
132.94765	13.0
167.77713	13.0
264.10681	13.0
262.5574	13.0
260.8718	13.0
259.63638	13.0
269.62906	13.0
220.01601	13.0
274.44543	13.0
180.63939	13.0
178.97435	13.0
177.60141	13.0
134.84338	13.0
175.81281	13.0
233.64073	13.0
162.06035	13.0
160.7776	13.0
292.4368	13.0
294.17261	13.0
295.46057	13.0
298.07709	13.0
146.92194	13.0
145.02654	13.0
141.76309	13.0
137.05618	13.0
95.4826	12.0
84.72771	12.0
55.04831	12.0

MSID: 8930
ID: 206
RETENTIONTIME: 22.86095
PRECURSORMZ: 329.0658
AREA: 8914922.0
PRECURSORTYPE: [M-H]-
SMILES: COC1=C(OC)C(O)=C2C(=O)C=C(OC2=C1)C1=CC=C(O)C(O)=C1
NAME: cirsiliol
FORMULA: C17H14O7
INCHIKEY: IMEYGBIXGJLUIS-UHFFFAOYSA-N
CAS: 34334-69-5
Molecular Weight: 330.294
Number of References: 339
Class: Flavones
Superclass: Flavonoids
Pathway: Shikimates and Phenylpropanoids
ppm: -0.32999999996263796
CMID: CM243
IONMODE: Negative
COLLISIONENERGY: 40±20eV
INSTRUMENTTYPE: AB SCIEX
INSTRUMENT: Q-TOF
Comment:  
Num Peaks: 284
299.01917	46631.0
329.0658	20895.0
314.0423	19433.0
199.04041	13271.0
133.02991	13126.0
313.03485	12441.0
271.02463	5246.0
285.03839	3348.0
243.02982	3316.0
227.03432	2740.0
201.01956	2320.0
163.00272	1998.0
164.98285	1980.0
255.0302	1728.0
135.00928	979.0
65.00294	880.0
132.02095	726.0
171.04366	689.0
151.00327	615.0
175.03824	580.0
136.98723	563.0
178.9977	514.0
201.11259	507.0
198.03313	409.0
215.03296	393.0
159.04619	392.0
284.03241	322.0
203.03503	321.0
226.02765	320.0
143.04837	301.0
183.04384	298.0
311.01788	285.0
149.02306	281.0
297.03784	277.0
185.02325	274.0
211.03949	260.0
145.0287	256.0
187.04008	253.0
135.04228	253.0
123.00883	249.0
253.01524	237.0
173.02295	221.0
213.01868	219.0
296.03445	211.0
281.00711	209.0
91.01933	209.0
282.01593	206.0
197.02292	196.0
241.05229	191.0
177.98898	185.0
134.0359	182.0
107.01344	176.0
152.01337	174.0
157.02847	173.0
268.03754	172.0
149.99414	169.0
177.0183	164.0
161.02335	162.0
242.02177	161.0
63.02465	156.0
257.04684	152.0
283.02493	150.0
225.02028	136.0
239.03592	136.0
267.02844	131.0
182.03566	125.0
269.04532	123.0
231.02977	122.0
155.05168	118.0
79.01769	114.0
169.02736	114.0
298.01077	113.0
95.01512	112.0
96.99264	108.0
240.03926	108.0
212.0479	106.0
171.10257	104.0
213.05441	104.0
180.00664	104.0
135.03546	103.0
92.99847	102.0
229.01138	102.0
257.0076	101.0
153.03532	99.0
311.22516	98.0
329.23282	97.0
270.01636	94.0
67.0182	93.0
184.01759	92.0
212.01082	89.0
237.01746	89.0
127.11433	88.0
286.04947	88.0
297.00238	86.0
209.02138	80.0
170.03593	80.0
210.03064	79.0
165.99316	77.0
203.02248	74.0
192.00517	74.0
195.04443	72.0
68.99751	69.0
270.99722	69.0
148.01462	68.0
136.01701	67.0
174.03302	66.0
295.02103	65.0
196.05505	64.0
214.02893	64.0
146.03641	63.0
293.2106	63.0
129.03267	63.0
240.0074	62.0
229.04993	61.0
105.03108	60.0
241.01277	60.0
224.04446	59.0
205.01286	59.0
176.98312	59.0
120.99374	59.0
184.05347	58.0
109.99911	58.0
225.05847	57.0
175.00456	56.0
242.05681	56.0
155.10535	56.0
135.02521	55.0
125.09641	54.0
230.02022	54.0
119.01131	53.0
135.00131	52.0
223.04007	51.0
141.03163	51.0
167.04961	50.0
51.02317	50.0
185.06055	48.0
147.0464	48.0
131.05057	47.0
176.01259	47.0
269.01157	46.0
298.02261	46.0
202.03021	45.0
165.02058	45.0
154.04124	45.0
181.02763	44.0
164.01073	44.0
177.98376	43.0
311.00925	43.0
108.02072	42.0
115.05463	41.0
275.19995	41.0
122.00191	41.0
131.01247	40.0
201.10287	40.0
253.04951	40.0
255.05678	39.0
156.02139	39.0
147.00841	38.0
169.06302	37.0
256.04459	37.0
217.04807	36.0
115.02206	36.0
77.04028	36.0
256.03519	36.0
258.05582	36.0
298.0412	35.0
121.02714	35.0
266.01804	35.0
297.01926	35.0
284.99872	34.0
83.0129	34.0
200.01144	33.0
285.08469	33.0
160.01218	32.0
66.01269	32.0
89.00142	32.0
312.98288	32.0
104.02789	32.0
254.02406	32.0
111.00897	31.0
242.01414	31.0
197.05728	31.0
242.99165	31.0
149.01349	31.0
199.01277	31.0
124.01771	30.0
132.00632	30.0
200.99734	30.0
133.04684	30.0
58.0048	29.0
210.41542	29.0
137.09613	29.0
200.04745	29.0
109.0317	29.0
162.98645	29.0
327.98663	28.0
312.99673	28.0
217.45511	28.0
216.03934	28.0
129.03046	27.0
78.01115	27.0
178.02689	27.0
329.04626	26.0
139.11121	26.0
211.64024	26.0
182.02509	26.0
125.02195	26.0
227.0594	26.0
165.09103	26.0
226.01439	26.0
220.68147	26.0
218.89143	26.0
89.04115	26.0
218.16039	26.0
162.02896	25.0
157.05792	25.0
256.99506	25.0
200.98207	25.0
206.74396	25.0
136.90013	25.0
239.00563	25.0
224.99971	25.0
149.98215	25.0
176.19452	25.0
212.39313	25.0
143.03548	25.0
310.98682	25.0
215.01573	25.0
158.03387	25.0
282.04059	24.0
132.5864	24.0
270.98111	24.0
189.01805	24.0
219.02328	24.0
263.2001	24.0
178.97806	24.0
254.99423	24.0
251.03	24.0
130.04022	24.0
134.28772	24.0
214.52635	24.0
150.98161	24.0
284.9888	23.0
165.6111	23.0
108.98774	23.0
311.99442	23.0
125.04276	23.0
279.02429	23.0
127.0503	23.0
186.03297	23.0
204.00317	23.0
185.00061	23.0
183.10081	23.0
224.04153	23.0
226.98563	23.0
181.02368	23.0
238.02411	23.0
225.23039	23.0
201.05011	22.0
201.7561	22.0
67.01339	22.0
172.01582	22.0
299.71893	22.0
189.98596	21.0
153.01715	21.0
270.65558	21.0
134.98311	20.0
187.05348	20.0
270.05499	20.0
270.00348	20.0
82.00597	20.0
249.7516	20.0
283.99448	20.0
183.01469	19.0
93.90253	19.0
297.74374	19.0
134.00076	18.0
230.06032	18.0
162.96271	18.0
230.29951	17.0
282.99857	16.0
137.5276	16.0
117.03574	15.0
262.13199	14.0

MSID: 8931
ID: 85
RETENTIONTIME: 14.43392
PRECURSORMZ: 431.0981
AREA: 8771888.0
PRECURSORTYPE: [M-H]-
SMILES: OC[C@H]1O[C@H]([C@H](O)[C@@H](O)[C@@H]1O)C1=C(O)C=C(O)C2=C1OC(=CC2=O)C1=CC=C(O)C=C1
NAME: vitexin
FORMULA: C21H20O10
INCHIKEY: SGEWCQFRYRRZDC-VPRICQMDSA-N
CAS: nan
Molecular Weight: 432.384
Number of References: 3541
Class: Flavones
Superclass: Flavonoids
Pathway: Shikimates and Phenylpropanoids
ppm: 0.27499999998781277
CMID: CM243
IONMODE: Negative
COLLISIONENERGY: 40±20eV
INSTRUMENTTYPE: AB SCIEX
INSTRUMENT: Q-TOF
Comment:  
Num Peaks: 226
268.03778	49964.0
431.09662	43647.0
269.04559	15150.0
240.04405	1646.0
239.03313	1065.0
267.0303	727.0
211.03969	691.0
151.00101	608.0
311.05618	570.0
149.0244	403.0
212.04526	286.0
183.04535	269.0
196.05251	264.0
283.05981	253.0
172.05196	250.0
200.04765	223.0
171.0451	205.0
107.01354	174.0
184.05232	173.0
148.01596	163.0
195.04462	162.0
201.05586	142.0
341.06488	142.0
117.03267	141.0
225.05429	141.0
281.04514	131.0
149.99429	128.0
199.03922	127.0
224.04762	125.0
168.05624	118.0
227.03455	116.0
282.05075	113.0
323.05402	92.0
167.04851	91.0
159.04387	80.0
185.02344	78.0
63.02238	74.0
156.05824	72.0
267.15994	59.0
198.03195	58.0
161.02475	55.0
65.003	54.0
180.05937	49.0
83.01388	49.0
191.03368	48.0
155.05305	48.0
182.03848	45.0
158.03772	45.0
267.0639	45.0
181.06471	45.0
311.03375	43.0
223.03737	40.0
191.03096	40.0
130.03925	40.0
429.69073	37.0
293.04324	36.0
267.0079	35.0
269.01184	35.0
429.67044	34.0
431.0661	34.0
143.04851	34.0
197.05885	32.0
325.06897	32.0
295.05832	32.0
251.03491	31.0
323.03644	30.0
253.04353	29.0
210.02943	29.0
193.01353	29.0
203.03662	28.0
239.06644	28.0
241.04797	28.0
150.99258	28.0
71.01231	28.0
190.69139	27.0
268.70837	26.0
267.14072	26.0
271.24905	26.0
252.04134	26.0
278.49811	26.0
170.03865	26.0
305.71661	26.0
226.0264	26.0
147.00618	26.0
198.87622	26.0
214.02486	25.0
211.00839	25.0
267.75729	25.0
186.30038	25.0
197.02312	25.0
196.03331	25.0
120.02206	24.0
267.99933	24.0
240.0668	24.0
298.49136	24.0
431.03766	24.0
306.36932	24.0
365.06305	24.0
194.99266	24.0
275.06543	23.0
237.05086	23.0
188.90785	23.0
214.63559	23.0
117.0189	23.0
122.00311	23.0
307.06046	23.0
135.04584	22.0
335.05121	22.0
194.04207	22.0
163.03789	22.0
213.05319	22.0
353.06873	22.0
207.81143	22.0
179.03458	22.0
123.0057	22.0
121.02941	22.0
190.36697	21.0
173.06049	21.0
291.2272	21.0
174.99956	21.0
169.02881	21.0
148.53227	21.0
337.35672	21.0
180.40382	20.0
86.94138	20.0
154.04262	20.0
216.5148	20.0
309.03876	19.0
238.94986	19.0
241.9763	19.0
239.98792	19.0
191.49007	19.0
353.05768	19.0
332.40533	18.0
357.21915	18.0
429.64407	18.0
247.10941	18.0
311.50021	18.0
205.17435	18.0
202.02484	18.0
287.0394	18.0
341.03055	17.0
80.65838	16.0
280.05444	16.0
166.04129	16.0
222.02792	16.0
324.36664	15.0
185.55263	15.0
73.0284	14.0
176.78925	14.0
339.03156	13.0
118.09978	13.0
217.005	13.0
350.40933	13.0
348.62433	13.0
346.28601	13.0
341.50995	13.0
218.91628	13.0
220.82719	13.0
272.72354	13.0
163.99709	13.0
334.18777	13.0
227.92812	13.0
329.89267	13.0
327.8504	13.0
325.86575	13.0
232.96606	13.0
118.98473	13.0
359.19672	13.0
123.64079	13.0
366.02167	13.0
175.41954	13.0
205.95921	13.0
141.02945	13.0
206.75401	13.0
208.58575	13.0
426.15582	13.0
417.27335	13.0
416.21582	13.0
413.0831	13.0
408.54379	13.0
404.46271	13.0
400.216	13.0
377.63065	13.0
372.06226	13.0
367.97647	13.0
235.8026	13.0
151.33453	13.0
110.78324	13.0
160.05942	13.0
125.60966	13.0
293.26791	13.0
258.98978	13.0
292.05502	13.0
265.04172	13.0
289.30521	13.0
288.19861	13.0
285.04861	13.0
322.21326	13.0
102.10725	13.0
134.03604	13.0
157.01881	13.0
187.91719	13.0
186.87827	13.0
276.72617	13.0
152.88045	13.0
295.73999	13.0
297.36395	13.0
255.04765	13.0
299.1702	13.0
320.0267	13.0
318.93799	13.0
316.33054	13.0
315.10208	13.0
313.24484	13.0
105.03119	13.0
173.90919	13.0
145.02531	13.0
244.4718	13.0
249.25223	13.0
132.01883	13.0
127.4658	13.0
302.59805	13.0
301.35071	13.0
139.00626	13.0
68.01119	12.0

MSID: 8932
ID: 243
RETENTIONTIME: 26.10165
PRECURSORMZ: 283.1687
AREA: 8666725.0
PRECURSORTYPE: [M-H]-
SMILES: [H][C@]12CCC3=C(C=C(O)C(=C3)C(C)C)C=C1C(=O)CC2(C)C
NAME: salvimultine
FORMULA: C19H24O2
INCHIKEY: AKCVZZQZSFNKEB-INIZCTEOSA-N
CAS: nan
Molecular Weight: 284.398
Number of References: 1
Class: Icetexane diterpenoids
Superclass: Diterpenoids
Pathway: Terpenoids
ppm: -1.1049999999954707
CMID: CM243
IONMODE: Negative
COLLISIONENERGY: 40±20eV
INSTRUMENTTYPE: AB SCIEX
INSTRUMENT: Q-TOF
Comment:  
Num Peaks: 58
283.17047	29685.0
267.13937	11880.0
268.14548	2004.0
253.12323	1826.0
227.10854	834.0
251.10652	687.0
265.1217	493.0
252.11465	142.0
237.09029	140.0
226.1017	99.0
238.09709	98.0
212.08253	81.0
184.08705	81.0
214.09813	73.0
255.13548	71.0
239.10754	64.0
268.12143	51.0
240.11256	48.0
252.10687	44.0
249.12726	42.0
199.07533	42.0
225.09416	37.0
179.00592	37.0
266.25659	34.0
251.14221	33.0
198.06935	29.0
268.16794	28.0
283.13257	27.0
211.07404	27.0
236.11722	26.0
253.09052	26.0
201.08939	26.0
222.06609	26.0
190.39824	25.0
281.15048	25.0
254.13071	25.0
282.24841	24.0
213.08914	24.0
282.23691	23.0
185.09688	23.0
171.08113	22.0
187.52156	22.0
268.10861	21.0
282.15628	21.0
210.06227	21.0
186.43826	21.0
266.12399	21.0
253.07649	21.0
247.66566	21.0
191.97162	21.0
169.06844	20.0
224.08156	20.0
182.85478	19.0
251.08635	19.0
163.00053	19.0
170.06947	18.0
265.09299	17.0
200.08525	17.0

MSID: 8933
ID: 482
RETENTIONTIME: 31.55625
PRECURSORMZ: 659.359
AREA: 8552784.0
PRECURSORTYPE: [2M-H]-
SMILES: [H][C@@]12CC(=O)C3=C(C(=O)C(O)=C(C(C)C)C3=O)[C@@]1(C)CCCC2(C)C
NAME: 7-oxoroyleanon
FORMULA: C20H26O4
INCHIKEY: OUFALIMUAGMGPU-YUNKPMOVSA-N
CAS: 57685-32-2
Molecular Weight: 330.424
Number of References: 16
Class: nan
Superclass: nan
Pathway: nan
ppm: 0.3025000000320688
CMID: CM243
IONMODE: Negative
COLLISIONENERGY: 40±20eV
INSTRUMENTTYPE: AB SCIEX
INSTRUMENT: Q-TOF
Comment:  
Num Peaks: 463
285.18576	271820.0
329.17618	170130.0
659.3584	1703.0
201.09052	1135.0
270.16141	397.0
286.18713	291.0
284.24887	235.0
214.10072	173.0
269.15314	156.0
659.41119	106.0
330.17902	93.0
255.13985	87.0
241.12241	85.0
284.23401	84.0
328.08264	80.0
283.1701	76.0
328.10391	76.0
257.15225	70.0
227.1053	68.0
215.10492	66.0
203.10773	66.0
229.12271	63.0
200.08221	60.0
659.28546	52.0
331.18869	50.0
202.09717	50.0
216.11578	48.0
328.90085	46.0
267.13904	44.0
659.43884	44.0
192.38815	43.0
192.94952	43.0
346.17474	42.0
186.0665	41.0
221.27119	40.0
191.54694	39.0
287.29984	38.0
330.14163	36.0
191.35588	35.0
242.13164	35.0
330.2146	35.0
224.17656	35.0
299.16504	34.0
286.27661	34.0
201.65749	34.0
158.3801	34.0
205.17288	33.0
208.3849	32.0
213.17751	32.0
220.12192	32.0
261.18015	32.0
213.70399	31.0
218.38768	31.0
199.57141	31.0
190.85905	30.0
252.9718	30.0
659.20752	30.0
190.25343	30.0
289.18686	30.0
187.12996	29.0
199.66689	29.0
222.41179	29.0
195.00763	29.0
192.91417	29.0
207.79584	29.0
213.09315	29.0
207.69986	28.0
194.68231	28.0
202.76038	28.0
641.39758	28.0
195.46329	27.0
188.82167	27.0
210.41272	27.0
191.31253	27.0
223.64024	27.0
213.21611	27.0
284.87	27.0
217.50725	26.0
331.56128	26.0
212.78592	26.0
288.2085	26.0
329.9566	26.0
211.04248	26.0
337.13541	26.0
287.92761	26.0
159.02654	26.0
303.14502	26.0
207.25836	26.0
212.1008	26.0
200.58397	26.0
248.15721	26.0
227.47588	26.0
256.83356	26.0
254.48175	26.0
330.58841	26.0
245.61377	26.0
253.11667	26.0
167.72629	25.0
287.65182	25.0
330.89471	25.0
210.20538	25.0
293.7359	25.0
615.34644	25.0
281.15176	25.0
188.76784	25.0
188.69923	25.0
214.8235	25.0
196.75235	25.0
217.76729	25.0
218.24876	25.0
274.98901	25.0
219.64272	25.0
219.71094	25.0
219.96213	25.0
221.41544	25.0
268.14835	25.0
158.46022	25.0
222.91008	25.0
223.26843	25.0
69.53139	25.0
252.11433	25.0
199.07507	25.0
209.10789	25.0
186.76576	25.0
192.23198	25.0
193.5349	25.0
190.79817	25.0
190.59804	25.0
286.51361	25.0
193.67523	25.0
192.27678	25.0
286.86014	25.0
192.44385	25.0
187.5629	25.0
192.12473	24.0
191.84793	24.0
217.59969	24.0
216.53348	24.0
286.1507	24.0
186.81662	24.0
216.96022	24.0
185.25256	24.0
187.74132	24.0
221.90968	24.0
157.90598	24.0
224.9558	24.0
189.53418	24.0
227.75954	24.0
228.77153	24.0
189.46947	24.0
238.4989	24.0
286.93811	24.0
164.25171	24.0
247.07237	24.0
194.29036	24.0
196.65622	24.0
199.16075	24.0
194.19345	24.0
330.34451	24.0
202.56102	24.0
128.1067	24.0
200.98915	24.0
203.44701	24.0
216.75688	23.0
217.24879	23.0
286.62799	23.0
188.29185	23.0
216.48016	23.0
284.92618	23.0
194.23985	23.0
191.68248	23.0
286.2468	23.0
190.4953	23.0
146.58612	23.0
188.08632	23.0
219.05243	23.0
221.07458	23.0
191.09723	23.0
328.8902	23.0
301.17722	23.0
287.41605	23.0
286.40753	23.0
196.12923	23.0
202.15703	23.0
237.05531	23.0
286.07947	23.0
239.10422	23.0
177.70572	23.0
237.56973	23.0
156.87767	23.0
238.0303	23.0
220.72964	22.0
184.78369	22.0
327.16446	22.0
189.15688	22.0
159.5518	22.0
189.32661	22.0
286.45889	22.0
190.39259	22.0
222.06435	22.0
235.1969	22.0
234.09435	22.0
196.30206	22.0
307.18222	22.0
283.26572	22.0
220.0638	22.0
200.63806	22.0
167.24469	22.0
212.66881	22.0
212.48891	22.0
214.25264	22.0
191.76384	22.0
192.83257	22.0
216.43262	22.0
191.92525	22.0
291.42099	22.0
193.04068	22.0
193.3483	22.0
345.16974	22.0
206.44992	22.0
204.01729	22.0
184.40051	21.0
193.55804	21.0
193.47495	21.0
206.6906	21.0
189.42903	21.0
234.71655	21.0
255.59523	21.0
128.6104	21.0
208.72856	21.0
288.3548	21.0
277.05524	21.0
296.10712	21.0
301.73831	21.0
200.2083	21.0
186.20544	21.0
217.47546	21.0
216.34763	21.0
287.17868	21.0
144.71881	21.0
284.97083	21.0
262.98108	21.0
313.14423	21.0
155.96768	21.0
182.95918	21.0
258.25424	20.0
273.64282	20.0
270.11633	20.0
290.49893	20.0
271.50546	20.0
260.98712	20.0
220.33409	20.0
223.81015	20.0
204.79013	20.0
186.59183	20.0
219.58467	20.0
188.23811	20.0
220.78493	20.0
221.66031	20.0
221.96512	20.0
194.7151	20.0
184.29147	20.0
209.69031	20.0
194.04883	20.0
328.04361	20.0
205.23041	20.0
62.0937	20.0
190.41826	20.0
200.37321	20.0
188.86203	20.0
333.13049	20.0
190.02658	20.0
69.03255	20.0
190.10623	20.0
238.24339	20.0
234.55905	20.0
254.89276	19.0
388.23123	19.0
193.92336	19.0
220.88535	19.0
328.69131	19.0
327.71381	19.0
127.35854	19.0
243.20863	19.0
359.48993	19.0
243.78166	18.0
187.91579	18.0
218.47597	18.0
193.19037	18.0
230.28482	18.0
236.63031	18.0
250.54167	18.0
203.85927	18.0
195.1362	17.0
284.8584	17.0
292.53375	17.0
220.21346	17.0
127.73235	17.0
283.61026	17.0
211.59196	17.0
218.97417	17.0
125.37924	17.0
165.52301	17.0
304.05276	17.0
264.10345	17.0
225.27022	17.0
227.05661	17.0
259.60309	17.0
629.39117	17.0
321.98819	17.0
238.59872	17.0
248.91522	17.0
245.43423	16.0
290.89465	16.0
188.59029	16.0
198.99632	16.0
199.49533	16.0
283.81314	16.0
302.38336	16.0
316.4332	16.0
231.85529	16.0
216.84052	15.0
278.08472	15.0
56.53603	14.0
497.21909	14.0
583.28247	14.0
585.27081	14.0
589.55481	14.0
592.24713	14.0
597.25275	14.0
498.83408	14.0
613.30035	14.0
615.25659	14.0
623.39136	14.0
529.30225	14.0
472.25851	14.0
525.25696	14.0
627.28503	14.0
658.36298	14.0
66.99741	14.0
487.30731	14.0
579.31592	14.0
376.0546	13.0
372.97504	13.0
376.73474	13.0
368.27887	13.0
370.04373	13.0
366.81635	13.0
366.33261	13.0
362.85284	13.0
361.08661	13.0
360.15866	13.0
356.91556	13.0
356.15744	13.0
353.01157	13.0
432.81219	13.0
436.19458	13.0
378.12357	13.0
431.16968	13.0
437.10107	13.0
423.64456	13.0
422.4884	13.0
441.26917	13.0
421.1268	13.0
443.37814	13.0
447.0354	13.0
448.6394	13.0
450.34396	13.0
453.57709	13.0
415.6944	13.0
454.80841	13.0
409.27438	13.0
408.6189	13.0
406.06927	13.0
404.24402	13.0
400.63132	13.0
463.26367	13.0
395.42081	13.0
466.07968	13.0
393.03506	13.0
467.31726	13.0
386.69495	13.0
383.62189	13.0
354.45737	13.0
147.22707	13.0
351.26947	13.0
253.38472	13.0
142.38397	13.0
140.78412	13.0
139.33084	13.0
138.1071	13.0
148.98849	13.0
249.04039	13.0
135.03099	13.0
271.81213	13.0
133.64627	13.0
261.40967	13.0
264.78183	13.0
348.51816	13.0
130.31294	13.0
128.76593	13.0
143.85893	13.0
145.42651	13.0
180.78935	13.0
179.64694	13.0
178.69661	13.0
176.0153	13.0
173.61224	13.0
171.55902	13.0
168.67882	13.0
165.86462	13.0
162.84908	13.0
161.55948	13.0
160.19691	13.0
154.62529	13.0
152.98576	13.0
151.50198	13.0
150.57167	13.0
270.29501	13.0
132.32275	13.0
275.43738	13.0
333.33072	13.0
320.0564	13.0
323.0997	13.0
324.5994	13.0
123.50359	13.0
120.7236	13.0
118.01994	13.0
334.75897	13.0
279.44012	13.0
337.76144	13.0
338.93948	13.0
340.0257	13.0
342.08194	13.0
342.93008	13.0
347.30167	13.0
318.42395	13.0
317.12515	13.0
135.96001	13.0
304.85074	13.0
281.30942	13.0
314.30981	13.0
312.03268	13.0
125.98635	13.0
311.05264	13.0
309.8345	13.0
294.02463	13.0
296.62973	13.0
308.65659	13.0
307.57367	13.0
297.67465	13.0
299.58691	13.0
631.87494	12.0
553.27112	12.0
470.76788	12.0
106.6916	12.0
619.3587	12.0
572.26178	12.0
606.75061	12.0
491.52097	12.0
506.54056	12.0
575.69885	12.0
110.23451	12.0

MSID: 8934
ID: 363
RETENTIONTIME: 29.68842
PRECURSORMZ: 345.17
AREA: 8343732.5
PRECURSORTYPE: [M-H]-
SMILES: [H][C@@]12C[C@@H]3OC(=O)[C@@]1(CCCC2(C)C)C1=C(O)C(O)=C(C=C31)[C@@H](C)CO
NAME: 16-hydroxycarnosol
FORMULA: C20H26O5
INCHIKEY: MWLHJCBZAWPKEY-UEHSGRLWSA-N
CAS: 149697-32-5
Molecular Weight: 346.423
Number of References: 5
Class: Abietane diterpenoids
Superclass: Diterpenoids
Pathway: Terpenoids
ppm: -0.1999999999497959
CMID: CM243
IONMODE: Negative
COLLISIONENERGY: 40±20eV
INSTRUMENTTYPE: AB SCIEX
INSTRUMENT: Q-TOF
Comment:  
Num Peaks: 274
301.18262	167548.0
345.17188	20389.0
285.14966	8775.0
299.16531	7356.0
317.17603	4386.0
217.08594	2262.0
215.07208	1654.0
286.15759	1136.0
229.08734	991.0
216.07855	764.0
230.09486	744.0
203.07164	667.0
257.11792	634.0
258.12546	431.0
243.1035	392.0
271.1347	358.0
343.1517	345.0
201.05737	246.0
174.03329	234.0
218.09421	224.0
202.06395	212.0
283.16708	205.0
259.13336	203.0
245.12006	190.0
283.13248	171.0
269.11642	151.0
187.03906	145.0
189.05606	129.0
273.1832	121.0
345.14276	117.0
200.05194	115.0
257.19016	112.0
259.16962	105.0
231.10458	104.0
257.11008	103.0
241.12263	103.0
312.10391	97.0
330.10635	96.0
267.1377	92.0
284.13852	91.0
214.06796	91.0
215.10799	88.0
300.1994	88.0
300.17734	81.0
213.09335	79.0
243.13861	76.0
164.08749	72.0
302.15381	68.0
300.16547	67.0
204.07764	63.0
227.10699	63.0
257.15091	59.0
256.10925	57.0
213.0519	55.0
187.07521	54.0
242.09682	52.0
297.14804	51.0
241.08614	49.0
269.15338	49.0
244.11073	48.0
150.06995	48.0
230.12753	47.0
200.08379	46.0
192.07877	45.0
199.03796	44.0
201.08931	43.0
219.10481	43.0
271.09763	42.0
271.17181	42.0
211.07681	42.0
260.14166	40.0
255.10411	40.0
173.02452	39.0
281.11755	38.0
315.08664	37.0
205.08612	37.0
270.12463	37.0
315.15793	37.0
214.43491	36.0
199.22176	36.0
258.16006	35.0
257.13834	35.0
268.14056	35.0
286.12115	35.0
186.06934	34.0
225.09116	34.0
300.21637	33.0
302.14017	32.0
177.09416	32.0
343.12631	32.0
202.5403	32.0
266.13028	32.0
198.16852	32.0
190.06456	31.0
217.12056	31.0
214.2858	29.0
203.88882	29.0
309.20251	29.0
189.09511	28.0
212.08531	28.0
203.05908	27.0
201.86215	27.0
302.51648	27.0
230.07109	27.0
163.078	27.0
229.11847	26.0
228.68733	26.0
313.10468	26.0
254.09158	26.0
205.60393	26.0
203.18329	26.0
203.10931	26.0
274.01901	26.0
197.60922	26.0
187.02432	25.0
317.12546	25.0
168.01318	25.0
226.94469	25.0
227.0701	25.0
299.1145	25.0
232.14487	25.0
297.8287	25.0
232.10458	25.0
148.98505	25.0
303.14191	25.0
233.07234	25.0
200.92688	25.0
272.17255	25.0
211.35719	25.0
270.086	25.0
259.09552	25.0
202.18507	25.0
202.66714	25.0
202.98653	25.0
204.1378	25.0
204.32393	25.0
269.07947	24.0
287.08932	24.0
330.14374	24.0
245.07867	24.0
229.94336	24.0
161.09569	24.0
185.06218	24.0
172.05078	24.0
202.58908	23.0
201.28238	23.0
164.05363	23.0
198.57126	23.0
197.12909	23.0
196.60284	23.0
186.0266	23.0
302.82315	23.0
210.39729	23.0
301.1571	23.0
175.03983	23.0
158.03905	23.0
159.04645	23.0
300.1485	23.0
160.01491	23.0
255.1745	23.0
198.8791	23.0
239.90918	23.0
223.44865	23.0
221.44916	23.0
219.84906	23.0
217.70247	23.0
212.198	22.0
202.09596	22.0
237.02989	22.0
301.7522	22.0
273.1557	22.0
190.10101	22.0
200.69652	22.0
200.98796	22.0
230.93193	22.0
216.10159	22.0
302.79248	21.0
247.82126	21.0
200.87968	21.0
229.06067	21.0
145.02658	21.0
184.04712	21.0
151.07452	21.0
239.10596	21.0
212.98187	21.0
193.19736	21.0
344.03207	20.0
327.15945	20.0
302.37173	20.0
186.70572	20.0
188.04755	20.0
316.15659	20.0
285.18271	20.0
150.06516	20.0
168.60394	20.0
263.29587	20.0
231.12691	20.0
233.51509	19.0
224.67409	19.0
229.507	19.0
300.11459	19.0
201.67436	19.0
182.03331	19.0
304.58093	19.0
203.46536	19.0
307.09497	19.0
238.9046	18.0
311.08575	18.0
201.48528	18.0
282.08383	18.0
129.80826	17.0
155.08363	17.0
165.60255	17.0
204.85899	17.0
134.35716	17.0
305.70309	17.0
171.04393	16.0
234.16051	16.0
247.09877	16.0
216.36943	16.0
202.26723	16.0
283.11105	15.0
253.08575	15.0
246.17603	15.0
161.76881	13.0
329.03082	13.0
139.94196	13.0
137.09636	13.0
135.1734	13.0
251.82077	13.0
317.76752	13.0
319.03439	13.0
321.76535	13.0
323.82385	13.0
248.63589	13.0
132.68472	13.0
294.86005	13.0
130.31529	13.0
330.67239	13.0
333.94455	13.0
335.38312	13.0
337.53323	13.0
338.98669	13.0
341.06149	13.0
125.859	13.0
237.3979	13.0
123.07638	13.0
314.0723	13.0
141.56149	13.0
261.04114	13.0
152.47639	13.0
293.1524	13.0
291.79251	13.0
290.69788	13.0
288.15225	13.0
164.47409	13.0
156.05222	13.0
169.7605	13.0
121.01333	13.0
153.63702	13.0
175.74405	13.0
279.13763	13.0
263.64716	13.0
277.12723	13.0
275.15817	13.0
177.72285	13.0
179.49095	13.0
147.88264	13.0
190.54008	13.0
194.21138	13.0
264.88089	13.0
146.44757	13.0
309.22488	13.0
117.70536	12.0

MSID: 8935
ID: 514
RETENTIONTIME: 32.17417
PRECURSORMZ: 313.1441
AREA: 8314092.0
PRECURSORTYPE: [M-H]-
SMILES: CC(CO)C1=C(O)C(=O)C2=C(C=CC3=C2CCCC3(C)C)C1=O
NAME: neocryptotanshione
FORMULA: C19H22O4
INCHIKEY: PKEGICXVZMKJPR-UHFFFAOYSA-N
CAS: 120924-86-9
Molecular Weight: 314.381
Number of References: 6
Class: Abeoabietane diterpenoids
Superclass: Diterpenoids
Pathway: Terpenoids
ppm: 0.11499999999387
CMID: CM243
IONMODE: Negative
COLLISIONENERGY: 40±20eV
INSTRUMENTTYPE: AB SCIEX
INSTRUMENT: Q-TOF
Comment:  
Num Peaks: 311
313.14587	132897.0
298.12079	26144.0
297.11392	20189.0
283.09589	19248.0
282.09006	3632.0
255.10223	3515.0
296.10535	2230.0
279.10129	1957.0
254.05695	1851.0
243.06656	1833.0
268.07291	1750.0
285.14929	1605.0
295.13217	1512.0
225.05562	1372.0
269.11771	1203.0
240.0788	1147.0
280.10999	1142.0
281.08109	989.0
281.11557	963.0
312.13467	934.0
227.06982	878.0
270.08728	877.0
269.08398	796.0
270.12592	796.0
251.10614	777.0
267.06534	757.0
255.08504	731.0
265.0878	626.0
239.07083	606.0
255.06627	591.0
295.09683	563.0
242.05843	562.0
240.04239	543.0
253.04962	502.0
241.05087	418.0
253.08545	409.0
210.06905	402.0
212.04797	371.0
236.08374	361.0
230.05893	330.0
241.12234	317.0
257.08307	295.0
242.095	292.0
237.09143	290.0
256.07446	286.0
244.07373	283.0
254.07411	268.0
296.14075	259.0
228.04184	240.0
227.03735	238.0
264.07791	227.0
241.08737	217.0
267.13736	215.0
229.08411	215.0
295.11368	213.0
267.10214	209.0
266.09641	200.0
214.06197	200.0
213.05736	197.0
254.08972	191.0
296.12558	185.0
222.06866	180.0
226.06308	173.0
257.15845	170.0
253.06676	164.0
211.03957	164.0
312.12082	161.0
311.13028	157.0
235.11273	152.0
237.05223	139.0
224.04749	139.0
241.11929	136.0
239.03299	136.0
196.05238	134.0
238.06348	131.0
227.10524	125.0
209.06111	124.0
252.07849	124.0
251.07045	123.0
223.07379	121.0
253.12283	114.0
245.07991	105.0
271.09729	105.0
250.10159	103.0
284.10516	100.0
252.11893	99.0
199.0764	96.0
278.0928	91.0
250.06287	91.0
280.08704	87.0
215.06895	81.0
272.10757	80.0
199.03772	78.0
266.05649	76.0
235.07671	76.0
285.11954	75.0
197.05736	74.0
201.05435	74.0
239.10869	70.0
263.06836	67.0
294.12531	66.0
221.0585	64.0
224.08121	63.0
253.0356	63.0
214.09779	61.0
211.07513	61.0
265.0607	59.0
228.07733	57.0
279.07022	56.0
231.06262	56.0
250.05977	56.0
226.09988	56.0
226.02774	56.0
243.10167	52.0
210.06053	52.0
268.11139	52.0
186.06511	52.0
187.0415	52.0
198.03183	51.0
262.0972	51.0
277.12363	50.0
169.06436	50.0
212.0822	50.0
282.05881	50.0
225.09088	49.0
187.07365	48.0
238.10277	48.0
214.02759	48.0
312.09488	47.0
172.05057	47.0
193.06239	47.0
208.0556	46.0
216.07829	46.0
284.13818	46.0
240.03177	46.0
258.09052	46.0
181.06461	45.0
295.16583	45.0
233.0945	45.0
200.04753	45.0
217.08423	44.0
194.0706	43.0
241.07976	43.0
268.05368	43.0
210.03357	42.0
184.05487	42.0
280.13129	42.0
293.11682	42.0
237.07785	41.0
209.09367	41.0
243.03755	41.0
256.04626	40.0
251.09218	40.0
241.15883	39.0
242.04625	38.0
268.03604	38.0
183.07835	37.0
208.54745	37.0
295.08337	37.0
186.03305	37.0
158.03639	36.0
269.14664	36.0
281.14841	36.0
163.07906	35.0
313.11987	35.0
210.0435	35.0
298.08698	35.0
297.08014	35.0
279.03912	34.0
255.03812	34.0
261.08829	34.0
249.05423	34.0
265.04794	33.0
221.09636	33.0
237.04318	33.0
203.10768	33.0
232.07596	33.0
313.18573	32.0
213.02878	32.0
83.04952	32.0
255.13196	32.0
175.0746	32.0
199.02805	31.0
254.01636	31.0
256.1058	31.0
312.07584	31.0
180.05533	30.0
252.04274	30.0
242.12852	28.0
159.04378	28.0
282.12296	28.0
109.02663	27.0
191.11342	26.0
297.85876	26.0
171.04501	26.0
200.61859	26.0
305.87909	26.0
205.81577	26.0
208.52058	26.0
209.20415	26.0
210.73666	26.0
239.81638	26.0
217.30792	26.0
240.61928	26.0
247.07538	26.0
277.08612	26.0
230.09012	26.0
241.7188	26.0
223.67241	26.0
210.85324	25.0
236.07021	25.0
167.04715	25.0
167.9343	25.0
266.12997	25.0
210.79353	25.0
195.89748	25.0
197.31863	25.0
243.0284	25.0
195.54538	25.0
201.01408	25.0
206.55962	25.0
210.9528	25.0
210.10027	25.0
208.86151	25.0
213.09166	25.0
207.07648	25.0
206.02094	25.0
213.65813	25.0
191.07281	24.0
216.34612	24.0
133.48326	24.0
211.10928	24.0
236.04764	24.0
164.08354	24.0
204.9765	24.0
211.69733	24.0
223.0387	24.0
168.05614	24.0
233.35321	24.0
207.81271	24.0
172.09297	24.0
220.08553	24.0
246.14653	24.0
270.04544	24.0
279.14221	24.0
185.05795	24.0
173.09517	24.0
312.72491	23.0
234.86955	23.0
198.12831	23.0
203.73059	23.0
162.87903	23.0
205.75255	23.0
206.46956	23.0
182.0397	23.0
177.09134	23.0
171.086	23.0
225.13055	23.0
213.07594	23.0
213.29613	23.0
215.71713	22.0
294.09341	22.0
210.48654	22.0
212.31044	22.0
209.14607	22.0
231.6465	22.0
218.62067	22.0
157.06781	22.0
236.12135	22.0
224.00792	22.0
210.57605	21.0
208.44563	21.0
209.99242	21.0
282.03415	21.0
212.01945	21.0
298.1546	20.0
227.94128	20.0
217.76144	20.0
169.0287	20.0
264.05881	20.0
140.09706	20.0
207.71815	20.0
196.08667	20.0
239.13898	20.0
186.02504	20.0
219.08136	20.0
217.80624	20.0
299.7428	19.0
179.68234	19.0
166.74985	19.0
266.72458	19.0
205.48715	19.0
208.19829	19.0
282.22165	19.0
312.62622	18.0
224.95279	18.0
240.9323	18.0
258.47452	18.0
292.96594	17.0
144.23264	17.0
170.03983	17.0
231.96558	17.0
128.76256	17.0
149.06137	17.0
145.06297	16.0
287.03589	16.0
187.46898	16.0
232.75374	16.0
286.11584	15.0
274.72592	15.0
81.56232	12.0

MSID: 8936
ID: 374
RETENTIONTIME: 29.93138
PRECURSORMZ: 329.1387
AREA: 8114223.5
PRECURSORTYPE: [M-H]-
SMILES: [H][C@@]1(OC(=O)C2=C1C=CC1=C2[C@H](O)CCC1(C)C)[C@]1([H])[C@@H](C)COC1=O
NAME: salprzelactone B
FORMULA: C19H22O5
INCHIKEY: ZMYIHFOLJJNKDI-GKZLCFLNSA-N
CAS: nan
Molecular Weight: 330.381
Number of References: 1
Class: nan
Superclass: nan
Pathway: Terpenoids
ppm: -0.2000000000066393
CMID: CM243
IONMODE: Negative
COLLISIONENERGY: 40±20eV
INSTRUMENTTYPE: AB SCIEX
INSTRUMENT: Q-TOF
Comment:  
Num Peaks: 377
329.13876	86744.0
283.13379	11188.0
301.14316	7365.0
273.07767	5124.0
245.07991	4094.0
268.10977	3783.0
311.12854	3750.0
230.05745	3164.0
218.05779	3031.0
258.08896	2744.0
253.08701	2251.0
286.08435	1932.0
285.11292	1929.0
190.06297	1851.0
284.13983	1728.0
295.09683	1554.0
267.10056	1478.0
215.03448	1450.0
299.09381	1450.0
314.11533	1430.0
271.09729	1373.0
255.13821	1307.0
258.05435	1197.0
175.03961	1161.0
296.10367	1051.0
232.07297	1048.0
300.13458	994.0
313.10776	957.0
231.0641	941.0
297.11221	903.0
229.05002	861.0
187.04016	830.0
257.07993	761.0
203.06999	736.0
285.14929	726.0
258.07007	701.0
312.13293	658.0
233.08104	652.0
269.11771	636.0
286.11914	630.0
202.06232	625.0
272.10275	531.0
299.12598	516.0
243.06656	480.0
273.11166	479.0
217.08566	468.0
281.08109	442.0
240.11673	425.0
201.05574	410.0
242.09348	368.0
257.07523	367.0
215.07182	354.0
255.10223	349.0
203.03371	339.0
149.06018	319.0
283.11401	316.0
225.05708	303.0
139.07661	301.0
216.07973	296.0
243.0284	294.0
269.08398	288.0
327.12363	287.0
227.06982	284.0
163.0753	281.0
225.09088	279.0
257.04538	276.0
273.14725	272.0
243.10167	268.0
241.08585	268.0
244.07373	257.0
216.04375	253.0
257.11761	252.0
205.08588	248.0
271.06345	243.0
239.10718	243.0
188.04597	240.0
240.0788	240.0
229.08411	239.0
201.09184	225.0
256.1105	220.0
254.09441	213.0
280.07394	203.0
282.12296	203.0
256.07132	198.0
215.0589	194.0
227.10818	194.0
213.05592	193.0
274.08191	190.0
215.05171	187.0
204.08018	185.0
230.09607	179.0
259.09836	175.0
273.13107	175.0
214.06627	173.0
270.08728	169.0
257.15216	166.0
242.05539	166.0
268.07291	161.0
239.07083	158.0
252.07693	158.0
284.10681	147.0
214.09779	146.0
187.075	143.0
202.02473	142.0
189.01947	141.0
255.06314	141.0
295.08505	140.0
241.12082	139.0
226.0616	138.0
267.13736	137.0
147.0441	137.0
174.0305	137.0
314.15176	134.0
259.06055	132.0
237.12761	127.0
228.04332	117.0
228.07733	115.0
191.06874	114.0
282.08676	111.0
186.06778	110.0
311.10437	108.0
256.03842	108.0
251.10768	107.0
177.05486	106.0
298.0853	105.0
200.04614	103.0
237.05373	102.0
93.07124	99.0
212.04655	99.0
238.0665	96.0
265.11969	94.0
150.06737	93.0
312.09662	91.0
189.09218	91.0
151.07314	90.0
224.04602	90.0
270.1243	90.0
197.05736	90.0
281.11392	89.0
244.03548	87.0
161.02341	87.0
328.12866	86.0
174.07184	85.0
267.06696	85.0
253.04805	84.0
137.05835	83.0
199.0764	82.0
185.06062	82.0
161.06068	82.0
251.07045	81.0
211.07799	81.0
243.08794	80.0
172.05186	79.0
159.04501	79.0
200.08217	79.0
83.05131	79.0
209.06111	78.0
279.06531	77.0
284.06555	77.0
215.10773	76.0
186.03305	75.0
212.08363	75.0
274.11597	74.0
213.09309	74.0
245.1535	74.0
239.14655	72.0
218.09538	71.0
258.12198	71.0
241.05087	71.0
226.0984	70.0
171.04373	70.0
175.0746	69.0
184.05354	69.0
230.02031	68.0
173.06166	67.0
240.10156	67.0
188.08492	67.0
188.00972	66.0
273.05502	65.0
287.08734	65.0
231.10281	65.0
235.0752	64.0
266.05649	63.0
328.04529	63.0
228.1143	62.0
210.07047	62.0
199.03909	62.0
162.06642	60.0
231.02838	60.0
266.12997	60.0
176.08542	58.0
223.07526	58.0
201.07935	57.0
293.11682	57.0
297.07339	56.0
294.0867	56.0
260.06711	56.0
250.10159	55.0
189.05447	55.0
272.0672	55.0
265.04953	54.0
300.09726	54.0
246.08969	54.0
240.04239	54.0
211.04099	53.0
135.0799	53.0
207.08493	52.0
242.13156	51.0
160.0172	51.0
282.11801	50.0
231.04625	50.0
162.03152	50.0
229.12561	49.0
165.05336	49.0
173.02303	48.0
158.0327	48.0
217.1203	47.0
199.11371	47.0
209.09367	46.0
279.10129	46.0
254.13187	45.0
223.11037	45.0
95.04858	45.0
328.06479	45.0
218.03754	44.0
245.05078	44.0
311.07327	44.0
242.02492	44.0
224.08707	44.0
299.16324	43.0
222.10368	43.0
310.12234	43.0
244.10892	42.0
146.03647	42.0
266.09161	42.0
201.01825	42.0
210.03215	42.0
177.09395	41.0
164.08228	41.0
249.08669	41.0
245.11517	41.0
182.03838	40.0
265.08142	40.0
257.03125	40.0
187.02008	40.0
238.09673	40.0
257.14117	39.0
296.0784	38.0
212.0437	38.0
255.0303	38.0
202.09851	38.0
255.08504	37.0
195.04314	37.0
270.07922	37.0
256.12619	36.0
258.01816	36.0
268.06168	35.0
281.05646	35.0
211.11212	35.0
264.11771	35.0
264.07632	35.0
183.07968	35.0
299.05655	34.0
233.0616	33.0
214.02615	33.0
213.12598	33.0
169.06691	33.0
196.05238	33.0
132.02213	32.0
213.08737	32.0
107.08643	31.0
253.12128	31.0
216.01927	30.0
271.13278	30.0
157.06412	30.0
217.01353	30.0
143.04373	29.0
197.10135	29.0
232.04462	29.0
217.0294	29.0
183.04259	28.0
144.6163	28.0
173.09645	28.0
201.03769	28.0
148.01706	28.0
198.1035	27.0
296.06491	27.0
270.0567	27.0
219.1002	27.0
272.05911	27.0
190.10213	27.0
294.24121	26.0
277.08286	26.0
123.07949	26.0
219.20602	26.0
286.04626	26.0
314.07886	26.0
286.02307	26.0
216.36197	26.0
220.91293	26.0
315.43402	26.0
235.12024	26.0
236.08525	26.0
328.81729	26.0
149.04224	25.0
220.17706	25.0
263.06519	25.0
134.07111	25.0
227.14508	25.0
230.47501	25.0
142.42017	25.0
122.03333	25.0
236.54138	25.0
314.96286	25.0
269.04059	25.0
259.12833	25.0
167.46254	25.0
221.06142	24.0
121.06274	24.0
226.0248	24.0
105.06927	24.0
222.07303	24.0
285.18402	24.0
195.07596	24.0
283.17664	24.0
188.15207	24.0
179.06984	24.0
214.12788	24.0
198.0332	24.0
218.02309	24.0
191.1053	24.0
270.94254	24.0
231.14153	23.0
301.07687	23.0
303.33423	23.0
293.07996	23.0
109.06345	23.0
234.04185	23.0
260.05765	23.0
205.12654	23.0
193.29378	23.0
217.34113	22.0
198.06766	22.0
59.01379	22.0
225.57451	22.0
145.02994	22.0
297.05991	22.0
244.2849	22.0
312.16928	21.0
229.97427	21.0
185.10059	21.0
328.10736	21.0
221.76668	21.0
168.0536	21.0
81.03342	21.0
272.17221	21.0
206.9398	21.0
176.04645	21.0
95.0123	20.0
226.2943	20.0
267.04294	20.0
103.97499	20.0
220.67867	20.0
223.42789	20.0
184.99136	20.0
256.02277	20.0
121.02826	20.0
217.66896	20.0
301.18054	20.0
130.04251	20.0
233.30684	19.0
186.11855	19.0
329.0997	19.0
282.07196	18.0
131.04726	18.0
194.02422	18.0
144.01985	18.0

MSID: 8937
ID: 534
RETENTIONTIME: 32.62226
PRECURSORMZ: 315.1954
AREA: 7728998.0
PRECURSORTYPE: [M-H]-
SMILES: [H][C@@]12CCC3=C(C(=O)C(O)=C(C(C)C)C3=O)[C@@]1(C)CCCC2(C)C
NAME: royleanone
FORMULA: C20H28O3
INCHIKEY: KZAPVZIQILABNM-RBZFPXEDSA-N
CAS: nan
Molecular Weight: 316.441
Number of References: 52
Class: Abietane diterpenoids
Superclass: Diterpenoids
Pathway: Terpenoids
ppm: -0.6199999999694228
CMID: CM243
IONMODE: Negative
COLLISIONENERGY: 40±20eV
INSTRUMENTTYPE: AB SCIEX
INSTRUMENT: Q-TOF
Comment:  
Num Peaks: 281
285.18536	125092.0
315.19717	81836.0
201.09161	18995.0
214.10042	3276.0
59.01373	3153.0
269.15436	1524.0
270.15939	1017.0
215.10748	726.0
203.10605	693.0
255.23178	656.0
284.17746	584.0
186.06891	560.0
255.13792	556.0
200.08331	477.0
283.16971	451.0
216.11403	441.0
213.09142	439.0
287.20151	416.0
227.10793	396.0
187.07611	349.0
199.0748	343.0
229.1209	340.0
241.12206	335.0
297.18616	250.0
253.12254	237.0
197.19051	201.0
202.10106	191.0
228.11404	190.0
183.17357	190.0
267.14026	172.0
257.155	162.0
313.1767	141.0
188.0847	137.0
217.12294	124.0
242.13129	123.0
267.17227	115.0
158.03745	115.0
185.06041	103.0
284.25174	101.0
225.21992	93.0
240.11646	92.0
254.13002	81.0
204.11493	81.0
189.09331	66.0
239.10539	66.0
297.24356	66.0
203.09906	65.0
284.2435	58.0
313.17151	53.0
314.1514	52.0
215.09456	49.0
237.22386	49.0
284.23193	47.0
297.16928	45.0
172.05423	45.0
212.08339	44.0
190.09921	44.0
214.07892	43.0
297.23343	43.0
57.0348	43.0
159.0473	43.0
230.13145	42.0
257.18484	40.0
269.13025	39.0
174.06906	38.0
209.19116	38.0
314.17398	38.0
187.06271	37.0
170.07539	37.0
271.1647	37.0
279.17133	36.0
171.04225	36.0
211.11188	35.0
213.12717	33.0
210.45219	32.0
198.06882	32.0
151.11148	32.0
232.97015	32.0
255.11758	31.0
160.04922	31.0
297.14563	31.0
268.14636	30.0
201.57933	30.0
281.14645	29.0
255.1739	29.0
225.08768	28.0
208.5656	27.0
151.07297	27.0
241.19354	27.0
225.12294	27.0
272.17511	26.0
285.97803	26.0
157.09953	26.0
286.03104	26.0
164.08209	26.0
208.64055	26.0
284.21542	26.0
212.11761	26.0
212.64708	26.0
235.26865	26.0
185.09637	25.0
222.82204	25.0
239.17505	25.0
205.64557	25.0
235.5406	25.0
203.07674	25.0
202.42137	25.0
175.93192	25.0
206.90857	25.0
286.29111	25.0
199.05821	25.0
263.14432	25.0
194.06082	25.0
112.08867	24.0
97.06491	24.0
187.47815	24.0
309.4429	24.0
213.89127	24.0
241.09773	24.0
134.39885	24.0
173.0576	24.0
232.37265	24.0
219.79626	24.0
230.06163	24.0
223.11011	24.0
224.83652	24.0
286.22318	24.0
273.11783	24.0
209.09485	24.0
184.05333	24.0
186.52469	24.0
199.70811	24.0
291.67975	24.0
206.04881	23.0
126.66858	23.0
240.10736	23.0
267.12585	23.0
154.80412	23.0
159.00778	23.0
144.8105	23.0
185.60834	23.0
200.42006	23.0
255.10039	23.0
251.14619	23.0
223.94757	23.0
225.16556	23.0
192.82822	23.0
193.40385	22.0
256.05536	22.0
312.70551	22.0
236.04886	22.0
158.02391	22.0
209.90703	22.0
276.14117	22.0
205.83801	22.0
212.60852	22.0
211.78543	22.0
188.71779	22.0
315.15543	21.0
242.94873	21.0
244.15147	21.0
284.29633	21.0
227.08136	21.0
252.63358	21.0
287.16498	21.0
213.69366	21.0
191.98332	21.0
216.17162	21.0
190.94672	21.0
187.052	21.0
194.58775	21.0
217.47227	21.0
177.09244	21.0
217.71495	21.0
189.41528	21.0
175.36736	21.0
201.06662	21.0
196.85373	21.0
288.5856	20.0
210.87433	20.0
181.15532	20.0
195.89587	20.0
135.94725	20.0
198.12119	20.0
140.55511	20.0
195.43152	20.0
269.1174	20.0
217.09407	20.0
221.83498	20.0
69.37623	20.0
285.00677	19.0
184.74748	19.0
223.58427	19.0
238.88284	19.0
156.56607	19.0
202.81029	18.0
150.06239	18.0
113.26224	18.0
218.85504	18.0
231.10403	18.0
196.24554	18.0
214.7701	18.0
191.48973	18.0
225.95828	18.0
160.19792	18.0
140.99547	18.0
236.40558	17.0
123.90532	17.0
201.51816	17.0
186.03551	17.0
285.82901	17.0
266.16321	17.0
257.19897	17.0
127.74545	16.0
198.72952	16.0
143.0834	16.0
200.925	16.0
175.07439	16.0
157.70647	16.0
253.21603	16.0
83.04942	16.0
220.7075	16.0
190.68835	16.0
221.66435	16.0
225.06859	15.0
206.40741	15.0
59.00244	15.0
64.73078	14.0
293.27579	13.0
71.05015	13.0
164.75262	13.0
177.44057	13.0
179.35411	13.0
166.58025	13.0
168.20833	13.0
306.66537	13.0
292.16498	13.0
303.24521	13.0
301.26859	13.0
299.20694	13.0
298.23883	13.0
107.43925	13.0
181.59055	13.0
295.87927	13.0
294.56683	13.0
289.84128	13.0
304.59045	13.0
131.07851	13.0
115.91431	13.0
137.59985	13.0
145.13004	13.0
233.332	13.0
143.64973	13.0
237.51204	13.0
152.15213	13.0
141.32823	13.0
153.33215	13.0
154.92233	13.0
244.44995	13.0
245.661	13.0
247.53555	13.0
249.03694	13.0
250.12299	13.0
138.69099	13.0
136.19742	13.0
118.17515	13.0
258.72461	13.0
260.3638	13.0
261.57874	13.0
264.6763	13.0
133.12923	13.0
148.17776	13.0
161.55676	13.0
129.75998	13.0
274.3735	13.0
276.69308	13.0
279.91794	13.0
281.44043	13.0
124.01107	13.0
122.22691	13.0
146.8801	13.0

MSID: 8938
ID: 437
RETENTIONTIME: 31.06185
PRECURSORMZ: 359.1855
AREA: 7483965.0
PRECURSORTYPE: [M-H]-
SMILES: CO[C@H]1[C@H]2OC(=O)[C@@]3(CCCC(C)(C)[C@H]23)C2=C1C=C(C(C)C)C(O)=C2O
NAME: epirosmanol methyl ether
FORMULA: C21H28O5
INCHIKEY: XNPVHIQPSAZTLC-WIRSXHRWSA-N
CAS: nan
Molecular Weight: 360.45
Number of References: 10
Class: Abietane diterpenoids
Superclass: Diterpenoids
Pathway: Terpenoids
ppm: -0.34999999996898623
CMID: CM243
IONMODE: Negative
COLLISIONENERGY: 40±20eV
INSTRUMENTTYPE: AB SCIEX
INSTRUMENT: Q-TOF
Comment:  
Num Peaks: 182
283.16989	58317.0
359.18521	36967.0
227.10808	6298.0
268.14655	3945.0
329.17593	3470.0
267.13724	2549.0
253.12271	1781.0
212.08353	1294.0
285.18555	947.0
240.11511	728.0
214.09912	708.0
239.10556	595.0
300.17346	416.0
225.09224	415.0
255.13966	389.0
213.093	377.0
201.09175	366.0
265.15942	309.0
228.11272	283.0
359.15552	261.0
299.1665	219.0
301.18039	180.0
282.16064	179.0
200.08484	177.0
215.10764	175.0
226.09683	175.0
199.07631	166.0
211.07504	161.0
252.11569	139.0
184.088	130.0
209.09642	130.0
238.10115	124.0
249.1283	120.0
268.13211	114.0
281.15485	112.0
197.05864	108.0
251.10602	108.0
327.16068	95.0
198.07033	93.0
250.13399	93.0
358.00211	92.0
187.07491	92.0
184.05212	90.0
265.12115	90.0
237.09282	83.0
244.07361	79.0
255.1772	77.0
257.19446	77.0
313.14746	76.0
185.0632	72.0
284.17105	67.0
186.06769	66.0
199.11362	66.0
331.1546	66.0
202.09981	65.0
329.14572	65.0
237.16672	60.0
217.08701	60.0
210.10301	60.0
241.12375	59.0
315.19391	58.0
269.15775	57.0
235.11113	56.0
200.0793	56.0
242.12993	56.0
315.15912	56.0
309.14862	53.0
271.1665	49.0
210.06754	49.0
194.05823	49.0
283.14682	49.0
239.09647	48.0
239.18127	48.0
188.08215	48.0
266.12823	48.0
285.14752	48.0
254.12708	46.0
229.1255	46.0
203.10478	45.0
222.10358	45.0
273.18597	44.0
216.07675	44.0
245.08286	42.0
270.15637	42.0
243.09851	41.0
229.084	41.0
251.14171	40.0
282.23303	40.0
263.13971	39.0
266.16818	36.0
224.08696	36.0
255.80019	35.0
189.09074	35.0
201.04871	35.0
267.17404	35.0
212.10207	34.0
172.05307	33.0
201.07648	33.0
183.04382	32.0
196.04681	32.0
297.14752	30.0
223.14828	30.0
329.20792	28.0
313.18039	28.0
258.125	28.0
197.13289	28.0
177.09517	27.0
282.18039	27.0
229.05583	27.0
294.12518	26.0
285.80438	26.0
256.11197	26.0
221.09335	26.0
282.21164	26.0
156.09599	26.0
284.24533	25.0
169.10121	25.0
73.37855	25.0
253.15076	25.0
171.04236	25.0
185.09784	25.0
221.12976	25.0
191.93596	25.0
224.11922	25.0
214.06474	25.0
227.05939	24.0
237.08076	24.0
283.13202	24.0
216.11418	24.0
192.6516	24.0
195.11691	24.0
175.07451	24.0
201.93695	24.0
268.10165	24.0
239.17218	24.0
202.07474	24.0
240.07869	24.0
359.1351	24.0
208.37486	24.0
223.07808	24.0
215.06885	23.0
257.13007	23.0
209.06526	23.0
156.05807	23.0
233.04504	23.0
231.13843	23.0
264.15576	23.0
357.98727	23.0
143.04953	23.0
269.1192	23.0
128.44711	22.0
192.77803	22.0
272.14301	22.0
207.50922	22.0
279.10281	21.0
267.07642	21.0
193.55382	21.0
280.12296	21.0
323.05896	20.0
299.12415	20.0
204.64566	20.0
256.14957	20.0
242.09793	20.0
211.11345	20.0
252.15302	20.0
155.08704	20.0
244.10727	20.0
284.1496	20.0
173.05901	19.0
280.85773	19.0
195.04578	19.0
197.02702	19.0
306.85596	18.0
298.15784	18.0
220.37898	17.0
293.12842	17.0
236.52168	17.0
246.65369	17.0
188.83498	17.0
252.09547	16.0
222.97717	15.0
190.63574	13.0

MSID: 8939
ID: 287
RETENTIONTIME: 27.55953
PRECURSORMZ: 663.3885
AREA: 7343329.0
PRECURSORTYPE: [2M-H]-
SMILES: [H][C@@]12C[C@H](O)C3=C(C(=O)C(O)=C(C(C)C)C3=O)[C@@]1(C)CCCC2(C)C
NAME: Taxochinon
FORMULA: C20H28O4
INCHIKEY: YVSUCPNWDPTGKM-PVUDRZGPSA-N
CAS: 21764-41-0
Molecular Weight: 332.44
Number of References: 14
Class: Abietane diterpenoids
Superclass: Diterpenoids
Pathway: Terpenoids
ppm: -0.5974999999693864
CMID: CM243
IONMODE: Negative
COLLISIONENERGY: 40±20eV
INSTRUMENTTYPE: AB SCIEX
INSTRUMENT: Q-TOF
Comment:  
Num Peaks: 231
331.1925	163861.0
301.18085	11953.0
663.39087	1373.0
283.16867	595.0
201.09067	282.0
215.10794	171.0
332.19128	169.0
330.09741	167.0
267.13763	153.0
241.12259	136.0
281.15363	125.0
299.16525	116.0
217.12485	71.0
303.19812	46.0
200.08652	46.0
330.07962	45.0
242.13029	41.0
663.35803	40.0
201.08234	37.0
223.50571	34.0
302.18439	34.0
223.2803	33.0
217.82092	32.0
301.14685	32.0
329.17108	32.0
455.3143	29.0
330.1312	29.0
218.38205	28.0
331.93967	27.0
663.32782	27.0
219.33096	27.0
257.15244	26.0
243.16606	26.0
267.99142	26.0
313.18085	26.0
286.15588	26.0
253.05144	26.0
240.11699	26.0
332.17343	26.0
223.66531	26.0
663.27985	26.0
221.13736	25.0
223.97444	25.0
238.05013	25.0
229.39125	25.0
233.30409	25.0
216.23976	25.0
233.38637	25.0
249.78137	25.0
259.72006	25.0
299.16016	25.0
332.49655	25.0
330.81125	25.0
312.29764	25.0
260.96832	25.0
186.06931	25.0
191.66501	24.0
219.2106	24.0
335.90692	24.0
202.1001	24.0
230.69086	24.0
143.65591	23.0
230.50349	23.0
235.9892	23.0
228.11453	23.0
239.12711	23.0
225.56297	23.0
222.27907	23.0
336.3342	23.0
229.11842	22.0
223.85281	22.0
237.13087	22.0
224.20018	22.0
663.19415	22.0
250.92796	22.0
223.13545	22.0
332.80374	22.0
332.10739	22.0
222.09515	22.0
244.41527	22.0
234.70624	22.0
253.96199	21.0
242.67764	21.0
284.6785	21.0
229.70282	21.0
231.2579	21.0
249.5307	21.0
234.17844	21.0
331.83261	20.0
242.92636	20.0
261.69495	20.0
459.77386	20.0
70.40134	20.0
212.79608	20.0
220.26303	20.0
219.63417	20.0
225.33507	19.0
221.06601	19.0
245.11848	19.0
254.37416	18.0
274.9129	18.0
213.0876	18.0
269.11636	18.0
286.0946	18.0
213.75426	18.0
222.0645	18.0
145.94315	18.0
214.08368	18.0
283.12912	17.0
335.51935	17.0
235.45094	17.0
219.69658	17.0
216.71524	17.0
228.93318	16.0
334.41711	16.0
240.29305	16.0
251.99635	16.0
218.16647	16.0
203.10509	16.0
184.51768	15.0
235.2917	15.0
215.47867	15.0
248.44133	15.0
255.08842	15.0
245.75209	15.0
300.18579	14.0
473.22339	14.0
487.90231	14.0
501.1994	14.0
645.23553	14.0
617.36969	14.0
164.08244	13.0
140.90974	13.0
148.99817	13.0
151.20451	13.0
154.76669	13.0
156.38878	13.0
159.04024	13.0
142.40044	13.0
166.66656	13.0
147.91238	13.0
107.86521	13.0
173.24611	13.0
177.09152	13.0
177.96965	13.0
179.03464	13.0
181.35085	13.0
328.14673	13.0
168.83542	13.0
340.17041	13.0
146.8009	13.0
377.0069	13.0
443.31662	13.0
419.89011	13.0
402.17569	13.0
397.66953	13.0
385.07935	13.0
383.30768	13.0
380.36844	13.0
378.99457	13.0
373.45206	13.0
338.66397	13.0
367.9278	13.0
362.21356	13.0
359.47348	13.0
354.80066	13.0
351.17062	13.0
346.39914	13.0
345.27914	13.0
455.29758	13.0
325.70151	13.0
323.82907	13.0
322.63187	13.0
286.60333	13.0
196.77997	13.0
283.75397	13.0
322.00424	13.0
281.8371	13.0
199.07246	13.0
280.14468	13.0
277.30325	13.0
276.1792	13.0
272.15311	13.0
270.30325	13.0
203.79091	13.0
266.10309	13.0
264.10046	13.0
262.88443	13.0
205.02579	13.0
207.07527	13.0
208.11514	13.0
257.72751	13.0
209.03159	13.0
255.23703	13.0
210.37311	13.0
195.57434	13.0
197.88048	13.0
288.04581	13.0
186.28175	13.0
319.39301	13.0
317.98572	13.0
316.73837	13.0
315.09006	13.0
182.44838	13.0
307.98795	13.0
306.02844	13.0
289.64856	13.0
303.56653	13.0
184.79713	13.0
305.15024	13.0
188.48016	13.0
296.46301	13.0
291.23233	13.0
293.55151	13.0
189.5424	13.0
295.00967	13.0
310.01401	13.0
298.37985	13.0
194.13083	13.0
191.86028	13.0
497.06226	12.0
608.34656	12.0
386.09464	12.0
639.12091	12.0
449.05261	12.0
649.34894	12.0
85.31013	12.0
138.48724	12.0
365.22601	12.0
99.92822	12.0
549.8241	12.0

MSID: 8940
ID: 392
RETENTIONTIME: 30.4121
PRECURSORMZ: 375.1798
AREA: 7127812.5
PRECURSORTYPE: [M-H]-
SMILES: COC(=O)CC[C@@]1(C)[C@@H](CC(=O)C2=C1C(O)=C(O)C(C(C)C)=C2O)C(C)=C
NAME: candesalvone B methyl ester
FORMULA: C21H28O6
INCHIKEY: DGXNORYLNOBGEV-QKVFXAPYSA-N
CAS: nan
Molecular Weight: 376.45
Number of References: 2
Class: Abeoabietane diterpenoids
Superclass: Diterpenoids
Pathway: Terpenoids
ppm: -0.9649999999510328
CMID: CM243
IONMODE: Negative
COLLISIONENERGY: 40±20eV
INSTRUMENTTYPE: AB SCIEX
INSTRUMENT: Q-TOF
Comment:  
Num Peaks: 265
375.18164	57564.0
315.16119	34148.0
231.10294	29794.0
216.0784	7519.0
179.07124	6676.0
59.01382	6258.0
267.10229	3044.0
287.16382	2530.0
233.08116	2358.0
297.14951	1956.0
333.16992	1675.0
269.1532	1321.0
253.12297	1201.0
281.11737	1199.0
213.09178	1139.0
285.14944	1026.0
215.06906	925.0
188.04742	860.0
203.105	779.0
205.08598	762.0
271.13452	723.0
201.05585	687.0
203.0701	644.0
178.06233	594.0
229.08571	542.0
164.04724	424.0
282.1264	412.0
245.1199	394.0
187.07509	393.0
257.11932	379.0
259.09851	364.0
267.13751	315.0
243.10028	301.0
173.0244	298.0
254.12888	282.0
269.11786	253.0
267.12631	251.0
187.03893	236.0
217.08434	227.0
230.09619	208.0
160.05321	207.0
162.07025	202.0
163.03912	201.0
201.08917	198.0
252.11749	194.0
272.14005	184.0
204.0761	184.0
202.06381	180.0
202.09862	180.0
329.17627	178.0
259.17102	171.0
188.08099	165.0
163.07663	160.0
299.12784	151.0
269.13873	147.0
177.09013	141.0
244.11058	140.0
151.07562	137.0
164.08237	132.0
189.09229	132.0
185.09802	131.0
145.0312	129.0
331.19058	116.0
191.07021	115.0
254.09454	113.0
159.04634	112.0
162.03036	112.0
189.05592	111.0
198.06639	102.0
214.1022	99.0
190.06174	91.0
190.02798	90.0
226.09853	86.0
255.10394	84.0
228.07597	83.0
241.08597	83.0
268.14682	83.0
203.08685	82.0
251.10316	81.0
313.14603	77.0
161.09682	77.0
172.05324	76.0
265.12622	75.0
273.11667	75.0
71.01395	74.0
297.12589	74.0
161.06078	71.0
243.13998	70.0
271.16516	69.0
283.13394	68.0
175.11226	68.0
232.07309	67.0
187.11125	67.0
179.05421	67.0
236.11998	63.0
136.01601	61.0
228.11443	60.0
199.03783	59.0
186.06654	58.0
200.04488	57.0
187.06303	57.0
255.1368	57.0
242.09209	55.0
257.15546	53.0
373.92511	53.0
170.0744	52.0
186.03181	52.0
215.10353	52.0
150.06625	52.0
239.10883	52.0
175.03841	51.0
207.06531	50.0
256.10751	49.0
175.07599	49.0
373.93839	49.0
252.07552	48.0
213.07463	47.0
176.08162	47.0
305.17062	46.0
83.04957	46.0
227.10388	46.0
259.13004	46.0
218.09406	45.0
134.0349	45.0
241.11638	44.0
172.0892	44.0
177.05756	43.0
256.13885	43.0
272.10449	43.0
230.34729	43.0
270.12122	42.0
193.08835	42.0
144.05989	42.0
287.12732	41.0
210.06773	41.0
231.07912	41.0
231.06274	41.0
251.14351	41.0
135.0811	41.0
218.06079	40.0
286.15741	39.0
173.01796	39.0
171.08096	39.0
285.18088	38.0
174.03447	38.0
243.17509	38.0
285.11969	37.0
217.0728	37.0
357.17471	37.0
253.10583	37.0
333.14667	37.0
205.07477	36.0
219.10176	36.0
213.05746	36.0
299.15833	35.0
211.07809	35.0
258.15988	34.0
212.08516	34.0
158.03648	34.0
282.10831	34.0
151.07201	33.0
192.07727	33.0
200.0795	33.0
214.06352	33.0
173.06305	33.0
197.05884	33.0
233.06322	32.0
347.1868	32.0
314.12418	32.0
184.05231	31.0
171.04254	31.0
300.13474	31.0
251.53319	30.0
227.06847	30.0
217.04826	30.0
373.9592	29.0
299.12106	29.0
297.1073	28.0
235.11136	28.0
178.09892	27.0
217.10454	26.0
225.08954	26.0
264.11783	26.0
271.62656	26.0
159.07968	26.0
254.76933	26.0
244.07233	25.0
132.05482	25.0
203.04916	25.0
208.72437	25.0
216.32463	25.0
157.09981	25.0
146.07205	25.0
174.06548	25.0
287.11569	25.0
162.05779	25.0
160.01357	25.0
206.09555	25.0
301.18579	24.0
269.10339	24.0
140.06816	24.0
225.12627	24.0
230.33243	24.0
185.05806	24.0
163.06413	24.0
136.00801	24.0
278.01456	24.0
303.15704	24.0
245.09537	24.0
257.08322	24.0
211.03969	23.0
195.0829	23.0
333.09842	23.0
226.06319	23.0
233.04677	23.0
147.8349	23.0
215.03316	23.0
265.08475	23.0
156.49159	23.0
93.03728	23.0
133.06618	23.0
164.0648	23.0
123.08281	23.0
223.11194	23.0
281.05991	23.0
157.06175	22.0
210.10606	22.0
176.04524	22.0
267.06387	22.0
174.78326	22.0
255.70961	22.0
157.23239	22.0
213.92456	21.0
149.06145	21.0
233.19629	21.0
239.06491	21.0
313.0975	20.0
221.09503	20.0
295.13065	20.0
289.14529	20.0
279.13907	20.0
260.478	20.0
212.07518	20.0
237.09004	20.0
236.51138	20.0
218.05356	20.0
166.95232	19.0
170.03609	19.0
207.84248	19.0
130.44492	18.0
327.21945	18.0
111.08337	18.0
249.127	18.0
253.73564	18.0
253.57811	17.0
131.04733	17.0
225.0146	16.0
226.1324	16.0
245.2119	16.0
207.2133	16.0
67.01907	16.0
238.0621	15.0
108.02082	15.0
345.16437	15.0
147.11424	15.0

MSID: 8941
ID: 297
RETENTIONTIME: 27.93053
PRECURSORMZ: 361.1293
AREA: 7021338.5
PRECURSORTYPE: [M-H]-
SMILES: [H][C@]12CC3=C(C)C(=O)O[C@@]3(C[C@]1(C)[C@@H](OC(C)=O)C(=O)C=C2C)OC(C)=O
NAME: 1α,8α-diacetoxy-2-oxo-eudesman-3,7(11)-dien-8,12-olide
FORMULA: C19H22O7
INCHIKEY: HULPKUPHSMPFGY-SKSLQVBQSA-N
CAS: 131740-69-7
Molecular Weight: 362.379
Number of References: 2
Class: Eudesmane sesquiterpenoids
Superclass: Sesquiterpenoids
Pathway: Terpenoids
ppm: 0.5700000000388172
CMID: CM243
IONMODE: Negative
COLLISIONENERGY: 40±20eV
INSTRUMENTTYPE: AB SCIEX
INSTRUMENT: Q-TOF
Comment:  
Num Peaks: 372
289.14374	59264.0
317.13928	21784.0
299.12793	20869.0
205.08604	5023.0
361.12961	4681.0
231.0658	4434.0
274.12106	4326.0
273.11191	3411.0
234.0885	3251.0
259.09702	3006.0
233.08124	2921.0
204.07896	2818.0
284.10376	2497.0
189.05464	2364.0
219.0656	2360.0
83.04959	1642.0
260.06891	1637.0
315.12305	933.0
190.0618	914.0
271.133	824.0
259.06235	781.0
245.08012	745.0
246.0899	738.0
283.09778	712.0
245.04486	652.0
259.07968	645.0
271.09592	563.0
255.10246	502.0
269.0842	476.0
273.14911	471.0
221.082	465.0
329.17813	458.0
271.16687	400.0
256.11072	355.0
241.08606	344.0
361.15381	340.0
203.07156	319.0
256.07312	318.0
217.04834	314.0
218.05653	296.0
261.15024	293.0
299.16351	255.0
239.10739	244.0
161.09563	235.0
232.07317	233.0
179.07262	216.0
177.09149	200.0
203.03528	199.0
243.10188	192.0
300.0975	192.0
257.11942	191.0
229.05318	188.0
273.14426	185.0
191.06757	181.0
281.11746	177.0
256.10602	176.0
161.06082	167.0
230.13043	161.0
213.05469	158.0
241.04805	156.0
245.15677	150.0
215.06914	150.0
257.08017	145.0
216.04393	140.0
284.14008	138.0
256.14676	135.0
258.08759	132.0
145.06544	132.0
206.05907	131.0
287.09256	131.0
218.09413	130.0
229.08578	127.0
272.10135	123.0
228.11598	122.0
187.07649	121.0
174.03194	120.0
201.05453	120.0
235.09642	117.0
285.07513	117.0
228.04204	116.0
220.0741	112.0
215.0361	111.0
258.12378	110.0
202.0611	110.0
230.09329	109.0
268.07474	109.0
173.06053	107.0
301.10773	106.0
163.04167	105.0
238.10147	105.0
274.08215	103.0
244.07393	101.0
227.14381	101.0
175.07603	100.0
302.11115	99.0
188.04614	97.0
261.07745	95.0
229.12135	95.0
191.03372	94.0
204.04539	94.0
231.08812	92.0
229.15842	91.0
287.12741	91.0
231.09854	89.0
172.05072	89.0
227.10692	87.0
228.07753	87.0
147.07985	87.0
187.03899	87.0
133.06396	85.0
175.03847	82.0
244.03722	80.0
227.07002	80.0
315.14389	79.0
245.12151	78.0
230.05765	78.0
255.14	76.0
254.05872	74.0
311.16684	74.0
177.05501	74.0
151.07446	73.0
174.06683	72.0
253.16045	71.0
243.06677	71.0
214.09941	70.0
178.05977	69.0
205.05379	68.0
176.08168	67.0
298.15994	67.0
216.07993	65.0
185.06079	65.0
273.18634	65.0
247.09715	62.0
219.0453	62.0
361.20221	62.0
193.08569	61.0
246.05304	60.0
266.09665	60.0
201.08925	60.0
211.07674	59.0
240.0775	58.0
255.06961	58.0
225.09254	56.0
189.08965	55.0
204.05518	55.0
160.05202	54.0
299.08389	53.0
202.10007	53.0
215.10504	53.0
223.07837	52.0
245.028	52.0
265.08643	52.0
123.08286	51.0
288.1322	51.0
219.08589	51.0
246.12216	50.0
217.08441	48.0
189.07349	47.0
284.08395	46.0
199.07381	46.0
143.05089	46.0
130.04262	46.0
139.07442	45.0
242.0952	45.0
253.04828	44.0
241.12407	44.0
269.06171	44.0
149.02324	44.0
190.02669	44.0
214.0636	43.0
281.1503	43.0
164.04605	43.0
243.03014	43.0
171.08229	42.0
213.09184	42.0
234.05853	42.0
233.11264	42.0
233.04836	42.0
131.04962	41.0
226.06032	40.0
269.11633	40.0
251.07222	40.0
272.06906	40.0
249.09464	40.0
197.06029	40.0
163.07794	39.0
177.08629	39.0
274.15836	39.0
196.05255	39.0
200.04494	39.0
238.08937	38.0
253.12617	37.0
283.17029	37.0
239.07256	37.0
145.06073	37.0
136.01718	37.0
135.04245	37.0
95.0477	37.0
157.06549	37.0
224.0858	37.0
217.12193	37.0
259.03238	36.0
298.12103	36.0
257.10056	36.0
343.12073	36.0
343.14975	36.0
267.10077	35.0
145.02888	35.0
211.1123	35.0
253.08566	35.0
137.05733	35.0
260.02469	35.0
108.02086	35.0
55.0563	35.0
290.15036	34.0
285.06522	34.0
85.06427	34.0
315.09521	34.0
257.04404	34.0
270.08591	34.0
261.13281	34.0
203.10367	34.0
288.20035	33.0
159.08096	33.0
267.06558	33.0
185.09276	33.0
275.09149	33.0
125.06043	33.0
212.08238	33.0
270.13419	32.0
217.01228	32.0
205.12392	32.0
185.02748	32.0
248.09412	32.0
199.03928	32.0
218.01894	32.0
274.07565	32.0
288.18372	31.0
255.05241	31.0
105.06936	30.0
225.05582	30.0
67.01909	30.0
192.08005	30.0
162.06657	29.0
165.0296	29.0
226.03088	29.0
187.03632	29.0
200.08095	28.0
149.09378	27.0
301.17911	27.0
242.08606	27.0
300.17047	27.0
230.12003	27.0
295.13242	26.0
331.18533	26.0
300.07205	26.0
259.50385	26.0
297.1091	26.0
233.8069	26.0
205.36522	26.0
252.04295	26.0
239.87119	26.0
210.50661	26.0
271.07175	26.0
269.04245	25.0
287.10583	25.0
207.06116	25.0
115.05162	25.0
132.06161	25.0
226.10155	25.0
150.03391	25.0
210.06497	25.0
144.05524	25.0
147.0466	25.0
234.27283	25.0
189.03041	25.0
232.03587	25.0
203.13855	25.0
193.21771	25.0
231.03008	25.0
230.02348	25.0
185.66875	25.0
228.10562	25.0
190.09825	25.0
191.79243	25.0
187.11131	24.0
229.01613	24.0
57.03565	24.0
290.65436	24.0
122.03777	24.0
283.04504	24.0
237.08862	24.0
237.17909	24.0
176.58102	24.0
137.02293	24.0
219.13518	24.0
54.80301	24.0
198.06645	24.0
162.03166	24.0
245.13225	24.0
260.10208	24.0
95.01238	23.0
133.05153	23.0
234.69269	23.0
266.1286	23.0
171.04387	23.0
128.73155	23.0
283.12415	23.0
111.08238	23.0
148.05293	23.0
123.07525	23.0
192.14384	23.0
289.11377	23.0
270.72842	23.0
63.63727	23.0
146.0721	22.0
284.06085	22.0
121.06392	22.0
200.63124	22.0
170.07063	22.0
162.09773	22.0
259.13486	22.0
191.14743	22.0
239.03622	22.0
221.06743	22.0
227.08772	22.0
346.13852	22.0
361.09799	22.0
173.13268	22.0
224.00224	21.0
186.02786	21.0
222.40462	21.0
184.05237	21.0
221.86168	21.0
169.0645	21.0
266.08386	21.0
234.04654	21.0
176.15056	21.0
213.07327	21.0
183.04141	21.0
209.24683	20.0
65.03855	20.0
168.05629	20.0
186.06126	20.0
284.05258	20.0
182.22223	20.0
217.15656	20.0
231.78235	20.0
290.56085	20.0
184.09755	20.0
215.3076	20.0
121.03053	20.0
233.15599	20.0
209.70462	19.0
119.04459	19.0
208.10381	19.0
159.03033	19.0
261.11224	18.0
83.03621	18.0
317.74823	18.0
188.3484	18.0
163.28935	18.0
156.83852	17.0
179.04903	17.0
117.06979	17.0
177.60663	17.0
248.08485	16.0
282.1265	16.0
333.17361	16.0
91.05589	16.0
161.02231	16.0
303.08893	13.0

MSID: 8942
ID: 268
RETENTIONTIME: 27.19552
PRECURSORMZ: 343.0826
AREA: 7005712.0
PRECURSORTYPE: [M-H]-
SMILES: COC1=C(O)C=C(C=C1)C1=CC(=O)C2=C(O)C(OC)=C(OC)C=C2O1
NAME: eupatorin
FORMULA: C18H16O7
INCHIKEY: KLAOKWJLUQKWIF-UHFFFAOYSA-N
CAS: 855-96-9
Molecular Weight: 344.321
Number of References: 449
Class: Flavones
Superclass: Flavonoids
Pathway: Shikimates and Phenylpropanoids
ppm: 0.8200000000329055
CMID: CM243
IONMODE: Negative
COLLISIONENERGY: 40±20eV
INSTRUMENTTYPE: AB SCIEX
INSTRUMENT: Q-TOF
Comment:  
Num Peaks: 288
328.05957	42888.0
313.03506	27585.0
298.01266	19736.0
270.01657	17730.0
285.04025	8981.0
343.08246	8034.0
214.02621	2818.0
198.03189	2116.0
242.02194	1955.0
269.00854	1819.0
284.03098	1487.0
257.00937	1291.0
170.03732	1228.0
226.02486	1096.0
267.02863	917.0
182.03711	909.0
256.03851	750.0
254.02112	696.0
132.02216	690.0
241.01447	687.0
186.03177	676.0
165.9895	643.0
136.98962	642.0
312.02579	560.0
300.06342	499.0
133.02887	486.0
211.03963	484.0
158.03767	421.0
229.01303	400.0
197.02306	398.0
213.02026	387.0
239.03307	383.0
283.02347	372.0
327.05112	360.0
241.04791	330.0
255.02881	319.0
185.02338	312.0
200.01297	302.0
299.05664	294.0
183.04396	294.0
201.0197	269.0
65.00219	267.0
169.12299	247.0
110.00227	246.0
269.0423	246.0
172.01595	237.0
210.03079	233.0
227.03447	229.0
112.98535	225.0
174.03185	223.0
295.02628	221.0
297.03973	220.0
164.9817	219.0
142.04181	216.0
163.00157	208.0
195.04457	196.0
253.01231	186.0
177.01843	184.0
169.03131	181.0
257.04391	171.0
223.03876	171.0
225.0175	169.0
145.02881	162.0
59.01306	160.0
211.13353	154.0
149.99544	131.0
257.02979	128.0
154.04135	126.0
209.02153	125.0
173.02565	123.0
139.00391	123.0
144.02107	122.0
167.05099	116.0
281.01059	116.0
199.03915	109.0
240.04398	109.0
197.05879	106.0
212.04662	106.0
181.01459	105.0
251.03328	105.0
141.03406	104.0
311.02328	102.0
225.05275	101.0
226.01308	99.0
281.04504	94.0
282.01614	91.0
101.02262	89.0
202.02896	86.0
297.00259	85.0
130.04031	85.0
229.04712	82.0
157.02858	82.0
185.05934	82.0
215.03311	81.0
84.99379	81.0
82.00514	79.0
155.04935	78.0
135.00824	78.0
230.02187	77.0
228.04338	77.0
105.03417	76.0
254.01175	76.0
151.00217	76.0
89.0061	76.0
309.03867	71.0
171.04506	70.0
237.0146	69.0
187.04022	66.0
153.01968	65.0
181.02908	64.0
161.02097	62.0
146.03651	61.0
297.01611	59.0
156.02394	59.0
147.04295	56.0
284.00458	56.0
137.99319	54.0
268.98447	54.0
256.01657	52.0
297.98734	52.0
111.00905	50.0
296.02963	50.0
245.04932	49.0
175.03967	47.0
176.01271	47.0
117.03264	47.0
129.03722	46.0
177.99042	46.0
298.04987	46.0
216.00926	45.0
283.00208	45.0
243.02847	44.0
159.0463	44.0
143.04846	44.0
72.99323	44.0
229.00117	43.0
114.04958	43.0
267.00623	43.0
224.04756	43.0
73.02921	43.0
238.02579	42.0
125.02642	42.0
184.05095	42.0
169.06824	42.0
252.04126	41.0
325.03003	41.0
161.99419	41.0
95.01328	40.0
160.01477	40.0
213.00597	40.0
123.00784	40.0
108.99191	39.0
271.02805	39.0
181.06465	38.0
228.00346	37.0
228.98636	37.0
77.04033	37.0
285.00885	36.0
343.16226	36.0
300.04645	36.0
136.97128	36.0
159.00554	36.0
225.01163	35.0
250.02733	34.0
311.9808	34.0
178.99521	34.0
91.01939	34.0
137.02631	34.0
326.98029	34.0
184.02039	33.0
196.05382	33.0
68.99757	33.0
138.04958	32.0
170.01562	32.0
268.03772	32.0
173.06042	32.0
100.01529	32.0
343.14777	32.0
185.99437	32.0
153.03543	31.0
180.00676	31.0
326.96082	31.0
240.98405	30.0
183.13672	30.0
287.16376	29.0
134.00653	29.0
148.9861	29.0
213.9904	29.0
198.0002	28.0
121.99983	28.0
295.13562	28.0
224.00945	28.0
168.0562	28.0
105.03116	28.0
266.98383	27.0
299.16504	27.0
315.15762	27.0
326.04068	26.0
182.01598	26.0
315.1246	26.0
221.09497	26.0
256.94815	26.0
343.11691	26.0
246.08055	26.0
221.49704	25.0
311.05783	25.0
131.01143	25.0
149.02435	25.0
139.0547	25.0
295.00275	25.0
124.01671	25.0
212.99454	25.0
165.97058	25.0
169.01476	25.0
206.31767	25.0
156.0582	24.0
89.04029	24.0
219.30034	24.0
107.01756	24.0
237.00555	24.0
217.05399	24.0
272.35651	23.0
205.01021	23.0
211.01971	23.0
190.99843	23.0
158.02045	23.0
135.04694	23.0
233.68849	23.0
148.68385	23.0
199.03226	23.0
225.99689	23.0
129.01942	23.0
201.58797	23.0
266.01822	22.0
175.03319	22.0
72.02096	22.0
218.49913	22.0
328.67535	22.0
220.67581	22.0
268.02811	22.0
219.17854	22.0
341.07022	21.0
297.96027	21.0
203.45399	21.0
198.61525	21.0
185.0154	21.0
194.02837	21.0
232.1745	21.0
189.02222	21.0
245.04318	21.0
260.88272	21.0
137.9863	21.0
104.02496	21.0
279.13574	21.0
164.95529	20.0
169.10516	20.0
177.97083	20.0
213.61812	20.0
179.05154	20.0
283.98312	20.0
200.04483	20.0
206.07019	20.0
281.98489	20.0
297.27438	20.0
239.00127	20.0
242.0585	20.0
170.0054	19.0
164.0121	19.0
196.01405	19.0
193.03252	19.0
192.26186	19.0
242.72171	18.0
252.99829	18.0
206.9624	18.0
249.74405	17.0
230.82904	17.0
225.65547	17.0
101.01573	17.0
84.98386	17.0
55.01922	17.0
218.84811	16.0
258.60059	16.0
147.00496	16.0
284.96585	16.0
133.99066	16.0
270.62357	16.0
87.5148	16.0
69.80276	12.0

MSID: 8943
ID: 181
RETENTIONTIME: 21.0292
PRECURSORMZ: 301.072
AREA: 6855706.0
PRECURSORTYPE: [M-H]-
SMILES: COC1=C(O)C=C2OC(CC(=O)C2=C1O)C1=CC=C(O)C=C1
NAME: 6-methoxynaringenin
FORMULA: C16H14O6
INCHIKEY: FCXRFTLSXMRXTM-UHFFFAOYSA-N
CAS: 81524-08-5
Molecular Weight: 302.284
Number of References: 15
Class: Flavanones
Superclass: Flavonoids
Pathway: Shikimates and Phenylpropanoids
ppm: 0.7850000000075852
CMID: CM243
IONMODE: Negative
COLLISIONENERGY: 40±20eV
INSTRUMENTTYPE: AB SCIEX
INSTRUMENT: Q-TOF
Comment:  
Num Peaks: 153
286.04819	21839.0
165.99086	16580.0
110.0013	11995.0
301.07205	6812.0
119.04993	5849.0
82.00607	5347.0
166.99794	4987.0
139.00398	3849.0
180.00687	3619.0
137.99673	3362.0
65.00302	2754.0
66.01118	1754.0
181.01469	1749.0
124.01569	1659.0
152.01115	1593.0
230.05765	1163.0
136.98856	1060.0
229.0517	871.0
123.0079	759.0
95.01429	628.0
93.03448	572.0
192.00542	538.0
185.05945	506.0
258.05298	484.0
179.00055	471.0
111.00808	451.0
193.01358	401.0
68.99842	334.0
207.03015	330.0
94.00611	234.0
268.03625	213.0
151.00226	189.0
257.1524	172.0
140.01259	168.0
202.06387	163.0
67.01829	160.0
285.03876	137.0
137.02293	135.0
188.04749	134.0
51.02464	130.0
96.02113	126.0
80.02729	126.0
122.00423	110.0
164.9818	107.0
148.98857	104.0
96.9918	103.0
124.98926	94.0
159.04639	92.0
113.02497	91.0
145.02654	90.0
83.0139	90.0
143.04971	85.0
165.0208	84.0
201.0587	84.0
187.03899	81.0
136.98167	74.0
157.06549	73.0
189.05464	72.0
174.03323	68.0
109.02673	59.0
195.03101	58.0
120.99174	55.0
108.99503	54.0
241.05109	54.0
158.03531	53.0
155.03481	52.0
121.02837	52.0
257.04562	50.0
136.0172	50.0
148.01599	50.0
149.02324	48.0
108.01984	47.0
117.03165	46.0
244.03416	43.0
211.03975	42.0
184.05504	41.0
171.04771	40.0
79.01954	40.0
241.1256	39.0
167.05109	39.0
199.03789	37.0
224.04622	37.0
240.04108	36.0
301.05334	36.0
153.01976	35.0
269.04404	35.0
80.99736	35.0
99.01111	34.0
164.01093	33.0
286.02499	32.0
198.02925	31.0
119.0307	30.0
195.0433	29.0
215.0318	29.0
63.0224	28.0
136.97479	28.0
98.00031	27.0
135.00946	26.0
283.06317	26.0
255.04303	25.0
212.04388	25.0
117.84135	25.0
165.96941	25.0
188.03809	25.0
186.06795	25.0
120.02531	25.0
172.05072	25.0
76.99998	25.0
138.97859	25.0
93.01842	24.0
230.0829	24.0
64.99197	24.0
104.02502	24.0
109.98077	24.0
215.02174	24.0
55.01998	24.0
286.01672	23.0
216.00363	23.0
130.04039	23.0
123.99279	23.0
54.00991	23.0
193.55544	23.0
81.74822	23.0
71.01232	23.0
136.96333	22.0
147.04541	22.0
53.00277	22.0
70.04108	22.0
156.05829	22.0
167.55521	22.0
115.70905	21.0
96.01249	21.0
230.03091	21.0
161.06084	21.0
300.08563	21.0
61.58932	20.0
134.03722	20.0
131.06755	20.0
223.03596	20.0
213.05325	20.0
66.65162	20.0
202.04161	20.0
187.03229	20.0
176.27275	18.0
92.29166	17.0
78.01212	17.0
214.06216	17.0
107.01154	17.0
82.97643	17.0
91.05402	16.0
239.03168	13.0
265.51392	13.0
181.03445	13.0

MSID: 8944
ID: 584
RETENTIONTIME: 34.06517
PRECURSORMZ: 317.2119
AREA: 6820500.5
PRECURSORTYPE: [M-H]-
SMILES: [H][C@@]12CCC3=CC(C(C)C)=C(O)C(O)=C3C[C@@]1(O)CCCC2(C)C
NAME: demethylsalvicanol
FORMULA: C20H30O3
INCHIKEY: XZANDTPHDIYTME-JXFKEZNVSA-N
CAS: 124960-41-4
Molecular Weight: 318.456
Number of References: 16
Class: Abeoabietane diterpenoids
Superclass: Diterpenoids
Pathway: Terpenoids
ppm: 0.23000000004458343
CMID: CM243
IONMODE: Negative
COLLISIONENERGY: 40±20eV
INSTRUMENTTYPE: AB SCIEX
INSTRUMENT: Q-TOF
Comment:  
Num Peaks: 190
317.21207	65833.0
179.10773	36168.0
299.20203	8602.0
164.08469	6229.0
178.10001	3855.0
243.13817	1081.0
165.091	975.0
136.05353	759.0
163.07645	615.0
161.09787	439.0
109.06644	436.0
191.10788	381.0
227.10657	317.0
230.13306	271.0
177.09384	267.0
283.16821	206.0
151.11397	167.0
215.10902	158.0
125.09529	154.0
149.06128	148.0
176.08401	140.0
269.1561	115.0
229.12398	110.0
228.11415	109.0
150.06607	101.0
149.09595	96.0
213.09439	86.0
148.05389	85.0
255.13805	83.0
241.12523	78.0
214.09909	77.0
316.17517	76.0
164.07089	63.0
201.09033	59.0
274.15469	58.0
137.09724	58.0
135.08095	53.0
200.0862	53.0
297.18292	50.0
316.16296	50.0
225.1304	47.0
284.18091	44.0
165.07465	44.0
135.07867	43.0
162.06757	38.0
190.0993	38.0
192.11777	38.0
267.13721	35.0
283.16327	35.0
189.09206	34.0
299.15121	34.0
202.09698	34.0
205.12221	34.0
178.51846	33.0
149.05171	32.0
71.05101	31.0
243.11374	30.0
191.09164	30.0
271.1713	30.0
243.18092	29.0
133.1033	28.0
135.04453	28.0
216.1127	27.0
256.14325	27.0
231.1384	26.0
204.11783	26.0
302.18558	26.0
197.92285	26.0
163.06393	25.0
228.09196	25.0
212.83716	25.0
227.12575	25.0
175.08096	25.0
136.04211	25.0
299.14273	25.0
230.11374	25.0
206.33717	24.0
159.0795	24.0
242.16798	24.0
141.21657	24.0
234.53784	24.0
147.53722	24.0
208.48792	23.0
122.14253	23.0
66.86996	23.0
224.88657	23.0
223.60196	23.0
298.1933	23.0
165.06458	22.0
98.56809	22.0
231.90129	21.0
164.0596	21.0
215.08748	21.0
217.10428	21.0
178.51192	21.0
209.81776	21.0
107.04583	20.0
111.08221	20.0
317.1824	20.0
239.35846	20.0
123.0805	20.0
209.35843	20.0
137.05827	20.0
208.74393	20.0
174.07043	20.0
204.98618	20.0
200.07649	20.0
100.02988	19.0
266.13458	19.0
178.08041	19.0
120.05839	19.0
187.0762	19.0
139.11348	19.0
66.49971	19.0
215.99323	19.0
138.49969	18.0
121.06482	18.0
112.86349	18.0
284.16605	18.0
179.65465	18.0
133.92592	17.0
233.09435	17.0
142.12338	17.0
221.07292	17.0
301.46762	16.0
315.19559	15.0
188.08748	15.0
241.04768	15.0
248.57367	14.0
131.02028	13.0
104.92471	13.0
199.06522	13.0
108.04716	13.0
281.18762	13.0
280.15405	13.0
279.17966	13.0
277.44632	13.0
275.56879	13.0
145.53386	13.0
273.11148	13.0
287.16348	13.0
171.81035	13.0
289.16995	13.0
292.96912	13.0
100.80119	13.0
172.89412	13.0
207.08902	13.0
166.0966	13.0
299.51038	13.0
151.12239	13.0
304.59573	13.0
307.51328	13.0
308.46881	13.0
312.85461	13.0
155.94185	13.0
157.06525	13.0
143.1315	13.0
261.3667	13.0
267.98776	13.0
114.84251	13.0
125.98404	13.0
226.09384	13.0
123.41208	13.0
193.40259	13.0
221.88322	13.0
139.33879	13.0
218.78851	13.0
185.05118	13.0
235.34088	13.0
236.92545	13.0
238.23108	13.0
182.08714	13.0
180.91562	13.0
118.60888	13.0
244.32454	13.0
245.42787	13.0
246.76439	13.0
250.07664	13.0
251.12926	13.0
210.53613	13.0
253.92725	13.0
116.95521	13.0
257.00912	13.0
258.12024	13.0
259.68332	13.0
196.71371	13.0
263.75638	13.0
129.33984	13.0
252.65082	13.0
69.04062	12.0

MSID: 8945
ID: 433
RETENTIONTIME: 31.03638
PRECURSORMZ: 389.1964
AREA: 6611641.5
PRECURSORTYPE: [M-H]-
SMILES: [H][C@@]12C[C@@H](O)C3=C(C(=O)C(O)=C(C(C)C)C3=O)[C@@]1(C)CCC[C@]2(C)COC(C)=O
NAME: 19-acetoxy-7α,12-dihydroxy-11,14-dioxoabieta-8,12-diene
FORMULA: C22H30O6
INCHIKEY: KEFXXFNIARIAAF-FDQSAEMMSA-N
CAS: nan
Molecular Weight: 390.477
Number of References: 1
Class: Abietane diterpenoids
Superclass: Diterpenoids
Pathway: Terpenoids
ppm: -0.01500000001897206
CMID: CM243
IONMODE: Negative
COLLISIONENERGY: 40±20eV
INSTRUMENTTYPE: AB SCIEX
INSTRUMENT: Q-TOF
Comment:  
Num Peaks: 220
389.19843	55122.0
329.17609	38355.0
296.14243	16460.0
314.15002	8297.0
281.11722	4267.0
268.14508	4009.0
59.01379	3054.0
311.16312	2562.0
283.1684	1485.0
230.09309	1416.0
356.16104	1415.0
286.15561	1404.0
271.13278	1311.0
253.12128	1098.0
229.08707	936.0
285.146	762.0
179.06984	746.0
285.18567	712.0
299.12601	683.0
257.1553	543.0
297.14935	513.0
343.18939	509.0
258.08896	453.0
313.14243	419.0
371.1842	410.0
267.13736	379.0
280.11328	327.0
245.1167	319.0
295.13049	313.0
204.07739	278.0
203.06999	271.0
285.1741	254.0
269.15628	242.0
245.07991	238.0
217.08856	232.0
241.08585	209.0
215.06895	190.0
231.09984	186.0
227.0713	181.0
270.12592	172.0
283.15356	145.0
228.07585	139.0
242.13005	130.0
271.09729	125.0
243.06351	121.0
243.10168	121.0
252.1127	117.0
347.18295	116.0
217.1203	101.0
257.11606	101.0
301.18054	99.0
207.0666	95.0
244.07678	94.0
310.15167	94.0
259.09521	94.0
202.09712	92.0
284.14148	90.0
235.11124	88.0
345.20422	87.0
218.09538	87.0
255.13509	86.0
269.1145	85.0
255.10068	84.0
267.10217	83.0
270.16455	76.0
192.07854	72.0
215.10773	72.0
213.08881	72.0
164.08479	71.0
216.07542	71.0
241.12387	69.0
257.08466	68.0
328.16592	67.0
254.09285	67.0
200.08493	65.0
238.09975	64.0
244.10739	58.0
227.1082	56.0
226.09988	55.0
283.13049	54.0
232.07297	54.0
164.04842	53.0
266.09482	50.0
268.10336	49.0
329.14056	49.0
267.12137	47.0
233.08253	47.0
201.09047	46.0
242.095	46.0
253.08856	46.0
231.0656	45.0
258.16449	45.0
210.06621	44.0
214.06342	44.0
293.15204	43.0
265.08463	42.0
278.13364	42.0
314.10492	41.0
240.07578	39.0
299.16327	38.0
244.14565	38.0
187.03615	38.0
356.12592	36.0
188.04732	36.0
194.07198	36.0
356.11115	36.0
361.19818	36.0
282.12296	36.0
256.10895	36.0
247.0954	35.0
239.06934	35.0
238.05745	35.0
219.05817	34.0
279.09967	33.0
285.11292	33.0
225.09088	33.0
199.07503	33.0
242.11938	33.0
258.12357	33.0
252.0925	32.0
202.05952	32.0
178.06224	31.0
328.08432	31.0
200.04616	31.0
201.05852	31.0
189.05583	30.0
251.10304	30.0
151.07916	29.0
296.08682	29.0
263.10648	29.0
230.05597	28.0
343.15491	28.0
229.11967	28.0
178.10536	28.0
259.13461	28.0
217.07846	27.0
214.10066	27.0
387.88583	27.0
208.07397	27.0
260.5585	27.0
159.04625	27.0
256.71738	26.0
222.21461	26.0
270.54294	26.0
281.15826	26.0
229.04854	26.0
165.74226	25.0
313.09561	25.0
246.09123	25.0
264.10974	25.0
387.9379	25.0
260.44785	25.0
260.70236	25.0
371.13138	24.0
328.10916	24.0
328.15881	24.0
59.00401	24.0
272.10275	24.0
215.03162	24.0
218.69162	24.0
254.19745	24.0
253.75267	24.0
231.11919	24.0
310.12924	23.0
242.82692	23.0
389.16559	23.0
163.06654	23.0
273.11005	23.0
212.62019	23.0
230.11687	23.0
239.14201	23.0
250.13101	23.0
276.79767	23.0
217.66031	22.0
257.95526	22.0
161.05696	22.0
209.05829	22.0
268.18036	22.0
179.04887	22.0
356.19617	22.0
174.0318	22.0
193.5648	22.0
185.06062	22.0
220.08989	22.0
115.50574	22.0
198.06905	21.0
296.78146	21.0
343.08417	21.0
158.03763	21.0
181.63959	21.0
251.2955	21.0
269.80734	21.0
175.04221	21.0
245.05385	20.0
171.08087	20.0
312.16409	20.0
155.08711	20.0
369.51071	20.0
219.05382	20.0
148.8331	20.0
157.10095	20.0
193.31693	19.0
179.57341	19.0
311.10956	19.0
231.57796	19.0
212.07936	19.0
272.89969	19.0
309.14703	18.0
205.08728	18.0
238.4807	18.0
206.99898	17.0
165.05463	17.0
267.06375	17.0
257.75555	16.0
301.11087	16.0
189.25111	15.0
283.08929	15.0
286.19702	13.0
120.10139	12.0
80.85986	12.0

MSID: 8946
ID: 103
RETENTIONTIME: 14.9013
PRECURSORMZ: 463.1235
AREA: 6589077.5
PRECURSORTYPE: [M-H]-
SMILES: COC1=C(O[C@@H]2O[C@H](CO)[C@@H](O)[C@H](O)[C@H]2O)C=C2OC(CC(=O)C2=C1O)C1=CC=C(O)C=C1
NAME: (2S)-5,7,4'-trihydroxy-6-methoxyflavanone-7-O-β-D-glucopyranoside
FORMULA: C22H24O11
INCHIKEY: PGNIOGOUYGXZCS-BNIRWLJWSA-N
CAS: nan
Molecular Weight: 464.426
Number of References: 3
Class: nan
Superclass: nan
Pathway: nan
ppm: -0.5400000000008731
CMID: CM243
IONMODE: Negative
COLLISIONENERGY: 40±20eV
INSTRUMENTTYPE: AB SCIEX
INSTRUMENT: Q-TOF
Comment:  
Num Peaks: 194
301.07224	52209.0
286.04834	26407.0
285.03894	12066.0
165.99095	9730.0
164.9819	6316.0
181.01347	5687.0
119.05	3221.0
463.12512	2945.0
166.99803	2387.0
180.00566	1883.0
110.00034	1690.0
448.09872	1412.0
137.99451	1188.0
136.98749	872.0
343.08102	829.0
257.04419	786.0
139.00291	753.0
152.01123	728.0
207.02885	621.0
230.05777	612.0
192.00552	600.0
93.03453	525.0
82.00523	403.0
65.00306	358.0
205.01324	293.0
258.05313	292.0
189.99036	285.0
124.01685	267.0
178.99803	255.0
229.05034	247.0
325.07278	207.0
223.0244	207.0
145.02898	185.0
193.01369	184.0
328.04221	177.0
300.06036	170.0
208.00082	167.0
137.02301	167.0
310.04691	155.0
185.05956	149.0
66.01043	136.0
268.03641	133.0
202.064	121.0
328.05817	117.0
190.99728	112.0
187.03909	110.0
123.00797	108.0
120.99397	107.0
199.03662	104.0
155.0349	94.0
257.07718	92.0
165.9733	92.0
140.01035	90.0
197.06177	86.0
148.98866	83.0
153.01865	82.0
241.05122	81.0
111.00814	79.0
242.05878	78.0
272.07083	77.0
195.03111	77.0
113.02296	74.0
285.01248	72.0
171.04526	71.0
283.06006	70.0
299.05359	68.0
151.00356	66.0
163.00426	64.0
235.02449	64.0
287.05457	63.0
194.02177	63.0
282.05429	60.0
121.99889	57.0
96.99282	57.0
311.0582	54.0
448.05521	50.0
137.00352	48.0
169.06587	47.0
109.02781	47.0
136.97487	46.0
143.04863	45.0
164.9668	45.0
164.01228	45.0
95.01148	45.0
213.05624	43.0
271.05576	43.0
230.04144	42.0
124.98714	40.0
216.04118	39.0
355.07755	39.0
340.05679	38.0
188.04759	37.0
161.99561	36.0
225.05006	35.0
204.99783	35.0
258.04056	35.0
201.05325	34.0
270.05386	34.0
267.02573	34.0
85.03	34.0
463.08508	34.0
284.06595	34.0
234.01672	33.0
224.04634	33.0
92.99676	33.0
204.00075	33.0
138.98674	32.0
220.00159	32.0
68.99927	32.0
179.03865	32.0
259.05618	32.0
240.04274	31.0
94.00616	31.0
136.01384	31.0
135.04482	30.0
189.0507	30.0
343.03931	29.0
196.04993	28.0
209.04442	28.0
221.00932	28.0
301.03824	28.0
281.04047	27.0
230.01321	27.0
54.01066	27.0
142.03964	27.0
315.08325	26.0
403.10922	26.0
249.03758	26.0
174.03075	26.0
284.98767	26.0
246.05318	26.0
367.08316	26.0
247.02803	25.0
168.78459	25.0
166.02881	25.0
121.27203	25.0
198.03349	25.0
189.72319	25.0
165.62906	25.0
292.03687	25.0
207.98952	25.0
145.01129	24.0
172.05467	24.0
149.99562	24.0
352.05771	24.0
186.02797	24.0
128.46956	24.0
244.0083	24.0
198.90401	23.0
202.95728	23.0
213.67705	23.0
300.32336	23.0
176.01552	23.0
297.0755	23.0
135.00726	23.0
314.06891	23.0
149.02094	23.0
269.0394	23.0
312.05899	23.0
148.01727	23.0
160.01619	22.0
233.63487	22.0
268.02039	22.0
165.01208	22.0
233.84448	22.0
177.98801	22.0
325.03571	21.0
237.039	21.0
92.73441	21.0
156.86314	21.0
329.05222	21.0
202.15448	21.0
151.04086	21.0
173.05676	20.0
218.52254	20.0
159.04401	20.0
204.28198	20.0
214.00354	20.0
192.16704	20.0
117.04337	19.0
299.03326	19.0
101.20688	19.0
200.14618	19.0
179.9807	19.0
178.97577	18.0
180.42108	18.0
109.98083	17.0
51.76391	17.0
170.17291	16.0
185.03426	16.0
243.03333	15.0
144.67068	14.0
98.00134	14.0
445.0918	13.0

MSID: 8947
ID: 350
RETENTIONTIME: 29.30028
PRECURSORMZ: 313.1441
AREA: 6527018.5
PRECURSORTYPE: [M-H]-
SMILES: C[C@H](CO)C1=C(O)C(=O)C2=C(C=CC3=C2CCCC3(C)C)C1=O
NAME: (+)-neocryptotanshinone
FORMULA: C19H22O4
INCHIKEY: PKEGICXVZMKJPR-SNVBAGLBSA-N
CAS: nan
Molecular Weight: 314.381
Number of References: 3
Class: Abeoabietane diterpenoids
Superclass: Diterpenoids
Pathway: Terpenoids
ppm: 0.11499999999387
CMID: CM243
IONMODE: Negative
COLLISIONENERGY: 40±20eV
INSTRUMENTTYPE: AB SCIEX
INSTRUMENT: Q-TOF
Comment:  
Num Peaks: 281
313.1441	61331.0
270.08887	24158.0
255.06625	10747.0
296.1424	4890.0
281.11719	4313.0
267.13895	3902.0
285.15094	2512.0
295.13382	2397.0
252.11423	2281.0
280.10995	1934.0
298.12076	1886.0
279.10291	1521.0
237.0899	1148.0
242.09497	1101.0
269.11768	1022.0
227.06981	991.0
283.09586	885.0
229.08705	881.0
297.11218	877.0
265.08777	841.0
251.10611	773.0
257.11758	736.0
269.08234	719.0
216.07683	712.0
257.07993	698.0
253.12282	657.0
285.13272	648.0
241.1208	597.0
238.06346	569.0
242.05841	563.0
224.08266	516.0
285.11453	511.0
237.05673	417.0
214.02757	401.0
252.07848	393.0
212.04654	384.0
253.08698	372.0
254.09282	342.0
227.03439	339.0
213.05591	328.0
213.09021	327.0
241.04933	325.0
269.15302	317.0
210.06619	314.0
254.05692	312.0
240.04085	309.0
214.06195	302.0
209.05968	302.0
226.09987	276.0
211.07512	260.0
258.08893	254.0
235.11122	252.0
215.07181	238.0
267.11975	236.0
244.07523	228.0
252.09558	228.0
266.13153	225.0
223.07671	225.0
199.07639	215.0
241.08583	214.0
222.06572	208.0
240.07878	201.0
194.07332	201.0
282.08838	195.0
239.07082	191.0
201.05573	188.0
256.11206	187.0
211.03813	183.0
243.06502	179.0
242.07364	179.0
294.1236	178.0
214.10065	174.0
226.06453	174.0
201.09183	168.0
266.09641	168.0
271.09729	167.0
225.05707	165.0
253.04959	161.0
217.08565	159.0
267.10052	158.0
243.10165	156.0
199.04047	155.0
187.07497	152.0
239.10564	150.0
236.11983	150.0
312.13464	146.0
284.1431	145.0
238.09973	137.0
171.08086	134.0
187.04015	132.0
298.09201	131.0
283.02502	131.0
239.14198	128.0
196.05237	121.0
202.06229	119.0
158.03761	118.0
198.06764	118.0
251.06888	117.0
225.09087	116.0
264.07947	116.0
297.07675	115.0
268.07129	110.0
268.10815	109.0
186.06909	107.0
221.05995	105.0
174.03178	104.0
239.036	102.0
186.02902	101.0
240.1152	100.0
221.09926	99.0
200.04475	99.0
215.03304	98.0
279.08493	97.0
254.13028	95.0
224.04747	95.0
236.08221	93.0
185.05794	93.0
172.05313	89.0
209.0965	88.0
235.07368	86.0
230.09308	85.0
283.13211	83.0
311.12506	83.0
225.12759	83.0
254.08502	82.0
284.10678	82.0
268.14825	81.0
224.12224	81.0
227.10522	80.0
195.04312	77.0
202.02611	76.0
210.10451	76.0
184.04822	73.0
197.05872	72.0
267.06213	71.0
210.03212	71.0
265.11649	68.0
236.04611	68.0
208.05276	67.0
277.12195	65.0
183.04787	63.0
251.08749	63.0
220.09132	63.0
241.10406	62.0
229.0663	62.0
229.04999	62.0
228.07584	62.0
255.03185	61.0
196.08801	60.0
200.08215	60.0
263.06992	59.0
188.08221	58.0
280.07718	57.0
258.12668	56.0
193.06918	55.0
212.11784	55.0
198.10623	55.0
156.05692	54.0
181.0659	54.0
251.19768	54.0
210.05626	54.0
296.10196	53.0
159.04376	52.0
173.05908	51.0
195.08005	50.0
250.06129	50.0
295.1658	49.0
271.09082	49.0
228.04477	48.0
223.03722	47.0
237.12459	47.0
222.03362	47.0
223.11473	46.0
257.15372	46.0
199.1123	45.0
182.03439	44.0
213.01303	44.0
180.05925	44.0
249.04958	44.0
311.12335	43.0
249.12839	43.0
209.04552	41.0
295.10019	40.0
257.05951	40.0
285.0914	39.0
207.08209	39.0
215.10771	39.0
173.02171	39.0
251.14491	38.0
268.09692	38.0
265.06387	37.0
254.05067	37.0
267.08774	37.0
206.07011	36.0
275.10745	35.0
171.10391	35.0
241.03261	35.0
271.1279	34.0
298.05652	34.0
262.10037	33.0
295.1843	33.0
172.08653	33.0
269.04059	33.0
278.09604	33.0
211.06516	32.0
256.07602	32.0
234.10625	32.0
313.12158	32.0
280.07227	32.0
226.02919	32.0
283.06784	31.0
183.03462	31.0
145.02757	31.0
130.04138	31.0
219.07843	30.0
211.10927	30.0
233.06158	30.0
293.11511	30.0
269.1723	30.0
225.13493	30.0
249.09129	29.0
170.0743	29.0
228.03442	28.0
202.09848	27.0
258.07318	27.0
229.1241	26.0
270.03897	26.0
229.25604	26.0
199.06119	26.0
282.06537	26.0
254.21771	25.0
212.13924	25.0
242.11783	25.0
261.08826	25.0
285.20715	25.0
169.0618	25.0
188.04865	25.0
296.08679	24.0
246.06664	24.0
198.94791	24.0
230.93013	24.0
250.09846	24.0
235.84154	24.0
167.04587	24.0
263.10648	24.0
201.03767	24.0
297.05313	23.0
155.04808	23.0
119.00281	23.0
257.14743	23.0
206.49768	23.0
198.03181	23.0
189.08812	23.0
192.62585	22.0
173.24335	22.0
129.08833	22.0
208.99313	22.0
189.00734	22.0
296.1778	22.0
229.80054	21.0
243.05432	21.0
148.15051	21.0
255.02246	21.0
195.88924	21.0
156.358	20.0
244.05382	20.0
310.5415	20.0
281.04495	20.0
157.06779	20.0
127.28998	19.0
179.73877	19.0
175.07588	19.0
203.0658	18.0
276.1138	18.0
197.40804	18.0
187.53333	17.0
206.01529	17.0
266.80453	17.0
163.57964	16.0
259.11096	15.0
160.05063	15.0

MSID: 8948
ID: 370
RETENTIONTIME: 29.77728
PRECURSORMZ: 341.139
AREA: 6300090.5
PRECURSORTYPE: [M+FA-H]-
SMILES: C[C@H]1COC2=C1C(=O)C(=O)C1=C2C=CC2=C1CCCC2(C)C
NAME: Cryptotanshinone
FORMULA: C19H20O3
INCHIKEY: GVKKJJOMQCNPGB-JTQLQIEISA-N
CAS: 35825-57-1
Molecular Weight: 296.366
Number of References: 1937
Class: Abietane diterpenoids
Superclass: Naphthalenes
Pathway: Polyketides
ppm: 0.09999999997489795
CMID: CM243
IONMODE: Negative
COLLISIONENERGY: 40±20eV
INSTRUMENTTYPE: AB SCIEX
INSTRUMENT: Q-TOF
Comment:  
Num Peaks: 195
295.13403	70874.0
341.13907	14530.0
280.11017	11941.0
252.07866	9432.0
279.10147	3859.0
265.08636	2138.0
277.12216	2110.0
294.12549	1795.0
267.13913	989.0
254.09456	873.0
251.07216	847.0
237.05539	818.0
253.0856	777.0
262.10056	707.0
251.10629	667.0
209.05983	646.0
237.09158	507.0
249.13011	467.0
239.07098	448.0
261.09003	447.0
224.08281	424.0
278.13052	382.0
223.07686	375.0
264.07806	367.0
234.10492	352.0
293.11868	351.0
208.08823	328.0
211.03828	320.0
222.0688	319.0
263.10825	285.0
251.09389	253.0
252.11441	251.0
236.08238	234.0
235.07535	218.0
255.1024	211.0
233.09613	181.0
234.06746	176.0
237.07951	167.0
250.06303	166.0
233.06175	155.0
238.06514	151.0
236.04628	121.0
221.09505	118.0
297.14786	115.0
207.07942	111.0
240.07744	109.0
247.07861	108.0
276.11075	107.0
225.08955	102.0
211.07242	102.0
266.0918	96.0
212.04953	96.0
278.08972	93.0
248.08171	82.0
210.06776	79.0
249.08994	78.0
253.11987	72.0
196.08817	68.0
248.11256	66.0
235.10988	65.0
225.05576	64.0
196.05388	64.0
259.11429	64.0
280.0741	63.0
169.12305	62.0
313.14261	62.0
263.07013	61.0
275.10928	61.0
221.05864	59.0
267.12314	58.0
267.10391	58.0
209.09665	57.0
247.11403	57.0
221.13582	56.0
183.04535	56.0
210.03227	56.0
224.04762	55.0
250.09865	53.0
208.0529	53.0
266.13333	50.0
195.04599	49.0
182.03584	49.0
294.16245	48.0
277.08957	48.0
265.06247	47.0
341.11374	47.0
193.06116	46.0
279.08347	46.0
252.04289	46.0
218.07527	46.0
195.08293	45.0
277.07977	44.0
264.06693	44.0
246.06987	42.0
220.08711	42.0
263.09393	41.0
207.04419	39.0
326.0726	39.0
260.12256	38.0
223.03883	37.0
265.11667	37.0
223.10904	37.0
179.08305	36.0
205.10002	36.0
296.13757	36.0
234.09294	35.0
197.06023	35.0
265.0481	35.0
238.10292	35.0
239.14368	35.0
280.14459	33.0
227.1098	33.0
217.45677	32.0
163.07416	32.0
127.07362	32.0
167.04977	32.0
196.3831	32.0
219.04381	31.0
235.06483	31.0
237.03278	30.0
236.07637	30.0
203.10501	30.0
206.06885	30.0
199.88564	28.0
247.10632	27.0
219.0844	27.0
194.07072	27.0
298.5506	26.0
293.09186	26.0
209.04709	26.0
251.1451	26.0
145.6132	25.0
283.05652	25.0
294.08353	25.0
251.03026	25.0
313.10449	25.0
244.08765	25.0
260.08148	25.0
279.14893	24.0
171.94151	24.0
178.28194	24.0
280.05444	24.0
216.06691	24.0
61.82855	24.0
254.11642	24.0
197.67244	24.0
279.06384	23.0
190.0199	23.0
133.06055	23.0
227.70346	23.0
221.05428	23.0
213.05321	23.0
184.05234	23.0
228.07895	22.0
105.06833	22.0
222.06004	22.0
253.0638	22.0
163.68999	22.0
204.28741	22.0
231.11784	22.0
254.0571	22.0
207.98511	22.0
244.07541	22.0
229.06349	22.0
186.0719	21.0
180.05544	21.0
259.07489	21.0
294.07007	21.0
223.95383	21.0
209.08249	21.0
221.47963	21.0
207.12029	21.0
200.88512	21.0
215.08488	21.0
249.05438	21.0
217.24454	21.0
220.0508	21.0
219.96074	21.0
151.07443	20.0
181.0634	20.0
225.04254	20.0
185.81151	20.0
198.12706	20.0
309.07318	19.0
262.04507	19.0
242.65619	19.0
190.66841	18.0
73.481	17.0
273.01797	17.0
270.53183	17.0
188.08638	17.0
340.00775	16.0
211.0141	15.0
172.60603	14.0
82.00073	12.0

MSID: 8949
ID: 178
RETENTIONTIME: 20.75943
PRECURSORMZ: 329.0662
AREA: 6128281.5
PRECURSORTYPE: [M-H]-
SMILES: COC1=CC(=CC(OC)=C1O)C1=CC(=O)C2=C(O)C=C(O)C=C2O1
NAME: 5,7,4'trihydroxy-3',5'-dimethoxyflavone
FORMULA: C17H14O7
INCHIKEY: HRGUSFBJBOKSML-UHFFFAOYSA-N
CAS: 520-32-1
Molecular Weight: 330.294
Number of References: 318
Class: Flavones
Superclass: Flavonoids
Pathway: Shikimates and Phenylpropanoids
ppm: 0.06999999999379725
CMID: CM243
IONMODE: Negative
COLLISIONENERGY: 40±20eV
INSTRUMENTTYPE: AB SCIEX
INSTRUMENT: Q-TOF
Comment:  
Num Peaks: 182
271.02493	38571.0
314.04263	30869.0
299.0195	23181.0
329.06616	6097.0
199.03923	2990.0
243.02856	2668.0
171.04512	2258.0
215.0332	1370.0
227.0331	804.0
187.0403	791.0
143.0497	746.0
65.00301	543.0
139.00281	542.0
201.0184	530.0
286.04648	471.0
175.03973	446.0
155.04941	445.0
173.02443	413.0
133.02892	405.0
166.99918	390.0
147.04419	387.0
185.02345	378.0
145.02887	368.0
197.02451	360.0
203.03525	350.0
163.00414	314.0
136.98853	312.0
159.04388	283.0
183.04536	268.0
253.01396	262.0
164.98051	259.0
157.02864	258.0
313.03693	252.0
198.03197	244.0
135.0083	237.0
131.05072	208.0
225.01758	207.0
285.04037	195.0
129.03394	170.0
255.03047	166.0
226.02643	164.0
182.03586	162.0
169.03011	159.0
242.01898	143.0
161.02351	140.0
284.02942	125.0
281.11575	117.0
177.98918	103.0
165.99083	100.0
158.03773	99.0
95.01427	97.0
153.03427	97.0
213.01749	95.0
141.0341	94.0
154.04141	90.0
149.9931	88.0
111.00909	88.0
284.03604	86.0
132.02222	85.0
211.03972	80.0
214.02487	80.0
123.00788	78.0
181.03047	78.0
127.05375	76.0
105.03321	75.0
115.0537	69.0
281.01233	68.0
329.13544	68.0
170.03868	65.0
243.01634	65.0
119.05098	64.0
297.04153	63.0
130.04372	61.0
174.03062	61.0
266.09341	60.0
229.01312	60.0
110.00026	59.0
258.01361	56.0
117.03374	54.0
186.0305	53.0
239.03316	49.0
96.99274	48.0
199.02127	46.0
146.03539	45.0
200.0089	45.0
139.05592	45.0
209.02444	43.0
149.0256	43.0
270.99753	42.0
298.01111	41.0
213.05608	37.0
298.03647	37.0
175.02289	37.0
142.04187	36.0
124.98486	36.0
107.01254	35.0
107.05003	35.0
220.08859	34.0
226.02054	33.0
101.03841	33.0
242.99498	32.0
295.02136	32.0
184.01648	32.0
202.80788	31.0
285.01721	31.0
69.00166	30.0
313.00055	30.0
280.10855	30.0
241.15749	29.0
268.03622	28.0
108.99603	28.0
153.03186	28.0
91.01943	28.0
256.03702	28.0
265.08319	27.0
77.03778	27.0
272.36954	27.0
284.10535	27.0
209.01736	27.0
159.00684	26.0
237.0162	26.0
285.14618	26.0
162.99039	26.0
270.15506	26.0
143.02393	25.0
181.01071	25.0
254.01965	25.0
103.05446	25.0
270.13254	25.0
200.82268	25.0
270.01184	25.0
140.01604	25.0
272.02701	24.0
67.01667	24.0
63.02394	24.0
121.99772	24.0
131.06081	24.0
147.02995	24.0
202.02626	24.0
210.03513	24.0
241.048	23.0
198.99918	23.0
212.00677	23.0
231.03003	23.0
327.05301	23.0
173.0592	22.0
160.0136	22.0
264.66403	22.0
316.01193	22.0
175.00476	22.0
147.00264	22.0
243.06673	22.0
66.12579	22.0
180.00815	22.0
89.03848	22.0
187.66223	22.0
94.00325	21.0
138.98665	21.0
131.0126	21.0
136.9679	21.0
161.99548	21.0
267.02872	21.0
226.99768	20.0
91.05494	20.0
182.57664	20.0
157.06055	20.0
219.59491	20.0
105.02819	19.0
199.79567	19.0
194.52255	18.0
286.01501	18.0
251.06908	18.0
171.01183	17.0
226.98735	17.0
82.00429	16.0
100.94787	16.0
198.79753	16.0
320.25104	16.0
236.44968	16.0
179.93196	15.0
187.00548	15.0
272.76239	15.0

MSID: 8950
ID: 309
RETENTIONTIME: 28.26402
PRECURSORMZ: 349.2004
AREA: 6034117.5
PRECURSORTYPE: [M-H]-
SMILES: [H][C@]12CCC=C3C(=O)OC[C@@]13C[C@@H](O)[C@@H](C)[C@]2(C)CC\C(CO)=C\CO
NAME: portulide C
FORMULA: C20H30O5
INCHIKEY: PVZRQVNBIUOODW-QCSWKAJGSA-N
CAS: nan
Molecular Weight: 350.455
Number of References: 2
Class: Colensane and Clerodane diterpenoids
Superclass: Diterpenoids
Pathway: Terpenoids
ppm: -1.099999999951251
CMID: CM243
IONMODE: Negative
COLLISIONENERGY: 40±20eV
INSTRUMENTTYPE: AB SCIEX
INSTRUMENT: Q-TOF
Comment:  
Num Peaks: 242
349.20224	51685.0
319.19153	49855.0
283.1701	13627.0
267.13904	7098.0
301.18234	1835.0
203.10634	1314.0
317.17749	1221.0
299.16333	995.0
245.15356	967.0
201.0919	746.0
217.12325	684.0
281.15176	656.0
243.1384	596.0
276.13669	475.0
189.09088	362.0
347.18304	316.0
244.14418	291.0
204.11522	266.0
331.19226	247.0
287.15546	220.0
253.12447	167.0
229.12123	162.0
215.10635	160.0
268.14514	144.0
202.10135	131.0
285.14606	129.0
164.08234	124.0
271.16995	123.0
304.1655	123.0
269.15314	123.0
58.00409	114.0
227.10236	110.0
265.12137	106.0
230.13327	101.0
231.13564	100.0
188.08498	99.0
216.11435	91.0
273.18781	89.0
241.1209	85.0
259.16779	84.0
287.15213	83.0
289.1752	83.0
255.13672	82.0
315.15936	81.0
284.13989	81.0
282.16251	78.0
217.08572	77.0
101.061	76.0
303.16037	76.0
177.09399	75.0
313.17889	73.0
245.1367	71.0
282.13126	71.0
232.10884	71.0
331.15308	70.0
252.10966	69.0
214.10072	69.0
165.09116	68.0
265.11499	68.0
271.13284	68.0
318.18283	62.0
213.0903	61.0
187.07504	59.0
240.11377	58.0
189.08415	56.0
291.1987	54.0
191.1067	52.0
256.10745	51.0
265.16122	49.0
176.08287	49.0
73.02754	49.0
225.08801	49.0
239.10422	49.0
200.0836	47.0
161.06322	46.0
213.08743	46.0
300.17538	45.0
258.12521	45.0
259.13312	45.0
349.16748	44.0
179.10789	44.0
228.11288	43.0
243.1216	43.0
188.08095	41.0
317.20538	40.0
97.06505	40.0
304.16208	39.0
251.11241	37.0
185.05801	35.0
271.11673	35.0
347.16663	34.0
190.10083	34.0
317.14435	34.0
199.07646	33.0
178.09888	33.0
257.15067	33.0
85.06422	33.0
299.19553	33.0
231.0999	32.0
245.11217	32.0
318.13568	31.0
283.1207	31.0
272.1319	31.0
71.04942	30.0
318.1217	30.0
159.04506	29.0
266.13324	29.0
301.12454	28.0
163.07785	28.0
348.0704	28.0
253.15718	27.0
235.20291	27.0
228.87079	27.0
317.12689	26.0
348.043	26.0
230.09315	26.0
247.83336	26.0
226.51096	26.0
79.05257	25.0
257.11926	25.0
305.1774	25.0
276.10739	25.0
111.87846	25.0
247.09085	25.0
320.31223	25.0
241.58034	25.0
155.77939	25.0
190.94159	25.0
229.0901	25.0
215.07045	25.0
233.45502	25.0
203.07423	25.0
220.65691	25.0
218.08966	25.0
242.13011	25.0
243.11397	25.0
175.07335	24.0
192.10844	24.0
174.06931	24.0
255.20555	24.0
231.29198	24.0
212.14787	24.0
186.06783	23.0
286.14407	23.0
321.77032	23.0
71.01146	23.0
149.09608	23.0
99.04808	23.0
137.09508	23.0
231.25177	23.0
262.7731	22.0
203.50987	22.0
229.71304	22.0
210.5619	22.0
234.97618	22.0
273.14734	22.0
330.94815	22.0
267.07022	22.0
173.09521	22.0
82.50784	22.0
238.39607	22.0
344.04446	22.0
210.07336	21.0
240.86853	21.0
211.11504	21.0
146.03769	21.0
315.11417	21.0
269.11618	21.0
218.95824	21.0
348.90952	21.0
261.19281	20.0
316.13367	20.0
196.52715	20.0
297.14438	20.0
172.08916	20.0
267.11023	20.0
226.10289	19.0
305.13977	19.0
195.88382	19.0
303.1416	19.0
261.63138	18.0
245.42349	18.0
158.66368	18.0
301.75021	18.0
150.0686	18.0
282.11316	17.0
165.9731	17.0
289.16022	17.0
321.03473	16.0
329.17084	16.0
275.12054	16.0
223.63731	16.0
249.13004	15.0
279.13574	15.0
179.6942	13.0
180.63271	13.0
183.10226	13.0
169.43642	13.0
156.92796	13.0
335.63751	13.0
325.38498	13.0
338.73038	13.0
333.5936	13.0
162.06523	13.0
192.35011	13.0
138.75002	13.0
346.70697	13.0
160.04449	13.0
170.85428	13.0
253.92123	13.0
310.38635	13.0
309.34689	13.0
223.92297	13.0
221.06876	13.0
135.07765	13.0
126.57179	13.0
123.08061	13.0
269.47614	13.0
120.36235	13.0
147.7063	13.0
277.10086	13.0
279.70212	13.0
108.9183	13.0
207.24709	13.0
205.06209	13.0
143.00162	13.0
287.59702	13.0
292.45505	13.0
294.37067	13.0
296.12567	13.0
298.13947	13.0
153.05238	13.0
263.43069	13.0
153.98059	13.0
236.04169	13.0
197.00381	13.0
193.91245	13.0
305.74902	13.0
307.34702	13.0
140.09943	13.0
102.55895	12.0
67.83119	12.0

MSID: 8951
ID: 448
RETENTIONTIME: 31.12403
PRECURSORMZ: 331.1546
AREA: 5886791.0
PRECURSORTYPE: [M+FA-H]-
SMILES: C[C@H]1CO[C@@]2(C1)OC(=O)C1=C2C=CC2=C1CCCC2(C)C
NAME: cryptoacetalide
FORMULA: C18H22O3
INCHIKEY: HUTQFIYQAWCICW-ZMZPIMSZSA-N
CAS: 132059-23-5
Molecular Weight: 286.371
Number of References: 6
Class: Illudalane sesquiterpenoids
Superclass: Sesquiterpenoids
Pathway: Terpenoids
ppm: 0.04999999998744897
CMID: CM243
IONMODE: Negative
COLLISIONENERGY: 40±20eV
INSTRUMENTTYPE: AB SCIEX
INSTRUMENT: Q-TOF
Comment:  
Num Peaks: 476
179.07109	62209.0
287.16522	29199.0
285.1492	14302.0
298.15619	9586.0
313.1423	8027.0
259.16922	6683.0
164.04836	6344.0
331.15463	5974.0
271.13431	4577.0
229.08699	3702.0
163.03899	3613.0
151.07549	3596.0
243.10312	3509.0
297.14758	2876.0
227.07123	2721.0
269.15457	2531.0
269.11923	2086.0
303.15848	2081.0
203.1076	1573.0
270.12582	1451.0
283.1337	1341.0
242.09492	1321.0
255.10371	1139.0
231.10124	1139.0
257.11597	1034.0
244.11037	876.0
297.11212	866.0
299.16486	850.0
254.13179	836.0
214.06334	835.0
216.07967	787.0
241.16028	786.0
178.06348	785.0
213.05586	744.0
272.1398	684.0
203.07132	667.0
257.08298	657.0
215.07175	657.0
175.11212	638.0
282.12616	632.0
239.10861	605.0
215.1091	600.0
177.05611	594.0
187.03877	543.0
253.1212	541.0
267.10205	524.0
217.0856	524.0
271.09561	522.0
298.12408	511.0
150.06851	504.0
201.05429	501.0
259.09671	499.0
243.1749	499.0
297.13239	487.0
201.09178	474.0
275.16586	459.0
216.11421	457.0
199.07771	451.0
83.05038	427.0
195.06769	426.0
188.0486	411.0
281.11713	409.0
149.06012	405.0
217.04953	400.0
225.05554	394.0
167.07114	388.0
228.08022	380.0
283.09909	379.0
302.15164	378.0
255.06618	371.0
135.04457	370.0
205.04935	330.0
241.12225	328.0
257.15521	327.0
163.11401	325.0
230.09302	317.0
214.09915	310.0
161.09543	308.0
241.08728	302.0
253.08847	299.0
194.05963	295.0
204.07872	293.0
161.06064	293.0
203.03644	281.0
243.1413	274.0
259.13138	272.0
245.08136	272.0
166.06384	267.0
187.07761	267.0
270.09042	266.0
227.10811	259.0
137.06175	256.0
191.10794	254.0
199.03903	253.0
159.04497	249.0
151.03938	245.0
288.10193	245.0
213.0916	243.0
284.14139	235.0
245.15341	233.0
173.06032	230.0
245.04457	226.0
108.02277	219.0
231.17419	208.0
260.10333	205.0
255.13969	205.0
162.03397	204.0
240.07872	203.0
256.10886	201.0
136.05243	200.0
280.10663	198.0
147.04523	197.0
270.10812	191.0
153.09106	188.0
244.07059	186.0
229.10922	185.0
268.10971	185.0
185.09653	182.0
136.01703	180.0
200.05023	180.0
158.03635	179.0
174.03044	178.0
295.13208	178.0
189.12982	177.0
188.08351	174.0
219.10158	172.0
146.03642	171.0
218.05482	171.0
239.07228	170.0
188.11844	170.0
165.05331	169.0
219.06969	167.0
253.10094	162.0
152.04599	161.0
202.06085	161.0
229.12256	159.0
211.03951	159.0
217.16208	158.0
185.05923	156.0
255.08495	155.0
175.03955	154.0
242.05835	146.0
258.16281	145.0
160.05183	145.0
133.06493	144.0
225.09081	139.0
224.0826	136.0
189.01807	136.0
205.08861	136.0
186.03165	136.0
254.0912	133.0
226.09981	132.0
267.14209	130.0
147.07967	128.0
287.13205	124.0
134.03479	123.0
189.09212	123.0
211.07791	122.0
223.07664	122.0
197.05867	120.0
198.06897	118.0
237.08984	118.0
267.13568	117.0
172.05437	116.0
251.10916	116.0
238.09665	115.0
93.07027	114.0
252.11417	114.0
212.04791	114.0
266.09314	111.0
189.05441	110.0
175.07584	110.0
226.13368	110.0
225.13048	109.0
242.12996	109.0
313.12497	108.0
217.12311	108.0
241.04776	107.0
173.09639	107.0
186.06906	106.0
229.04994	105.0
209.05963	105.0
256.07281	105.0
231.067	104.0
161.02336	103.0
296.13898	101.0
216.04367	101.0
125.09752	99.0
273.07919	99.0
193.05008	97.0
244.14708	97.0
171.04367	97.0
227.14206	96.0
281.08264	96.0
145.02872	95.0
201.07651	95.0
285.12274	94.0
287.142	94.0
204.04095	94.0
173.02554	93.0
279.1012	93.0
243.06801	92.0
187.11243	91.0
183.08095	90.0
176.01001	90.0
226.063	89.0
231.13846	89.0
259.11246	89.0
227.05794	88.0
211.10921	87.0
295.09338	86.0
281.10397	86.0
200.08348	85.0
176.08406	85.0
176.04898	84.0
157.06775	83.0
125.06029	83.0
149.02666	82.0
232.07289	81.0
123.04251	81.0
137.02277	79.0
123.08379	79.0
241.14203	78.0
282.08997	77.0
247.16766	77.0
199.11226	77.0
217.06828	77.0
202.10262	77.0
135.08099	77.0
121.06701	76.0
191.03485	75.0
236.08517	74.0
265.08612	74.0
270.16446	74.0
251.06726	74.0
212.08641	72.0
237.05667	72.0
174.06662	71.0
240.11818	71.0
159.07954	69.0
95.0495	68.0
170.07298	68.0
148.05275	68.0
214.08626	68.0
269.07907	68.0
80.02719	67.0
148.0182	67.0
258.08728	67.0
251.14174	66.0
229.06328	66.0
163.07649	65.0
180.04213	65.0
184.05215	65.0
210.07039	64.0
314.15167	64.0
162.06638	64.0
235.11417	64.0
215.18234	63.0
191.07004	63.0
213.12733	63.0
242.07359	62.0
303.14142	62.0
164.08098	62.0
57.03559	61.0
296.10358	60.0
230.06033	60.0
198.10481	59.0
87.04542	58.0
228.04324	58.0
206.056	58.0
177.09259	58.0
190.09802	58.0
223.06203	57.0
301.14307	57.0
274.1564	57.0
190.02512	57.0
238.06642	56.0
109.03069	56.0
230.13312	56.0
313.10938	55.0
200.11949	54.0
181.06454	54.0
232.0356	53.0
149.0972	53.0
177.07434	53.0
193.08411	52.0
253.05109	51.0
203.05737	50.0
247.09839	50.0
201.0168	49.0
183.04518	49.0
178.48318	49.0
160.0159	49.0
298.09872	49.0
244.09354	48.0
268.07281	48.0
109.06443	47.0
150.03133	47.0
172.08905	47.0
224.05035	47.0
232.1087	47.0
144.05742	46.0
174.10538	46.0
169.06812	45.0
201.38768	45.0
97.06596	44.0
143.05072	44.0
239.14496	44.0
271.08432	44.0
239.03593	43.0
231.02682	43.0
120.05521	43.0
173.05516	43.0
245.14421	41.0
171.08466	41.0
245.09515	41.0
266.13309	41.0
267.06845	41.0
215.14357	40.0
147.12006	40.0
261.11194	40.0
192.07846	39.0
217.01491	39.0
182.07399	39.0
219.04359	39.0
119.04979	38.0
135.11855	38.0
215.03441	38.0
245.12428	37.0
191.09846	37.0
265.1228	37.0
202.02605	37.0
246.09114	37.0
92.02738	36.0
233.11833	36.0
194.07463	35.0
273.14719	35.0
260.14441	35.0
93.03437	35.0
331.12436	35.0
211.01389	35.0
59.01377	34.0
222.06566	34.0
122.51299	34.0
248.0676	34.0
250.05969	33.0
246.05121	33.0
331.18851	33.0
201.16122	33.0
81.03516	33.0
145.06645	32.0
220.07239	32.0
185.0246	32.0
224.11925	32.0
272.1188	32.0
153.05592	32.0
132.02095	32.0
130.04358	32.0
67.0182	32.0
195.04308	31.0
188.03383	31.0
186.0183	31.0
286.2168	31.0
228.11275	31.0
209.09361	31.0
179.91864	31.0
178.49236	30.0
303.12949	30.0
249.12988	30.0
280.14102	29.0
177.01962	29.0
142.04056	29.0
284.21237	29.0
288.08365	29.0
199.06114	29.0
53.00271	29.0
196.08659	28.0
227.13173	28.0
157.02849	28.0
79.05252	28.0
187.05484	28.0
228.14972	28.0
232.14003	28.0
196.04958	28.0
210.10588	27.0
170.06659	27.0
189.16484	26.0
133.02992	26.0
158.07698	26.0
233.04358	26.0
182.91403	26.0
188.29173	26.0
189.58125	26.0
221.09775	26.0
265.07495	26.0
264.06668	26.0
259.07465	26.0
178.47272	25.0
85.06507	25.0
211.23016	25.0
131.0517	25.0
214.14072	25.0
186.05704	25.0
314.11694	25.0
167.05722	25.0
198.03177	25.0
159.7373	24.0
65.00215	24.0
146.07191	24.0
147.50395	24.0
284.10837	24.0
100.06518	24.0
106.04214	24.0
229.03661	24.0
161.82835	24.0
268.13214	24.0
271.05692	24.0
191.06192	24.0
213.97595	24.0
184.44695	24.0
190.06021	24.0
197.09717	23.0
69.0325	23.0
249.07733	23.0
188.98172	23.0
218.04469	23.0
187.57217	23.0
150.48027	23.0
235.08113	23.0
156.05199	23.0
268.14496	23.0
315.15744	23.0
286.15717	23.0
193.16711	23.0
111.07915	23.0
240.03775	23.0
247.0553	22.0
117.03574	22.0
132.05359	22.0
198.65652	22.0
244.05528	22.0
297.19482	22.0
311.1181	22.0
184.08936	22.0
180.44049	22.0
207.10458	22.0
278.08945	22.0
256.92599	22.0
59.00851	22.0
204.10809	21.0
212.54872	21.0
236.04605	21.0
298.07504	21.0
288.0687	21.0
125.05152	21.0
127.20047	21.0
225.16428	21.0
129.17288	21.0
226.73785	21.0
222.60739	21.0
132.74883	21.0
174.01881	21.0
221.05698	21.0
80.51325	20.0
208.04564	20.0
179.37524	20.0
248.03366	20.0
232.22061	20.0
118.04221	20.0
251.02847	19.0
165.08099	19.0
179.70197	19.0
123.06967	19.0
275.13174	18.0
77.04028	17.0
141.07118	17.0

MSID: 8952
ID: 329
RETENTIONTIME: 28.78923
PRECURSORMZ: 345.1715
AREA: 5857630.5
PRECURSORTYPE: [M-H]-
SMILES: [H][C@@]12CC(=O)C3=C(C(O)=C(O)C(C(C)C)=C3O)[C@@]1(C)CCC(=O)C2(C)C
NAME: candelabrone
FORMULA: C20H26O5
INCHIKEY: CZIBUABEIQOGMV-YBTHPKLGSA-N
CAS: nan
Molecular Weight: 346.423
Number of References: 4
Class: Abeoabietane diterpenoids
Superclass: Diterpenoids
Pathway: Terpenoids
ppm: 1.3000000000147338
CMID: CM243
IONMODE: Negative
COLLISIONENERGY: 40±20eV
INSTRUMENTTYPE: AB SCIEX
INSTRUMENT: Q-TOF
Comment:  
Num Peaks: 232
330.14697	58977.0
345.16974	45199.0
312.13477	24736.0
297.1123	10468.0
296.10544	2542.0
243.06511	2275.0
311.12866	2006.0
269.08084	1422.0
315.12286	1378.0
282.0885	1158.0
329.13708	903.0
313.14423	764.0
286.11923	715.0
254.05702	664.0
271.09738	647.0
279.09976	633.0
284.10361	426.0
283.09598	404.0
251.10466	397.0
287.12726	395.0
257.08002	395.0
283.16849	364.0
295.09692	309.0
285.11301	308.0
269.11618	294.0
301.14496	245.0
281.08282	227.0
280.11008	226.0
244.07227	215.0
272.10443	213.0
231.06418	212.0
241.08592	211.0
231.03143	169.0
302.15353	164.0
327.15738	160.0
270.08737	157.0
229.05008	151.0
295.13058	144.0
245.08151	140.0
210.06911	138.0
287.09073	119.0
259.09372	117.0
253.08553	114.0
256.07297	110.0
241.12393	110.0
284.14157	110.0
253.0497	109.0
267.10223	107.0
228.0419	106.0
309.20395	104.0
301.17892	103.0
254.09604	102.0
203.03658	100.0
239.0694	100.0
273.07614	100.0
236.0778	98.0
229.08714	96.0
274.08362	96.0
300.10074	95.0
311.10446	94.0
267.06702	93.0
291.1937	93.0
259.05905	86.0
226.06168	81.0
225.05423	79.0
287.10236	76.0
268.11148	74.0
246.08516	74.0
243.04831	73.0
243.09869	72.0
171.10141	71.0
258.08746	70.0
255.06479	70.0
268.07458	68.0
264.078	68.0
227.03448	67.0
216.07692	66.0
272.07053	66.0
237.05682	65.0
273.11499	64.0
230.05603	62.0
242.09203	62.0
283.1174	61.0
279.08829	61.0
241.05399	60.0
217.08717	60.0
267.13745	59.0
227.10532	59.0
298.12088	58.0
235.11131	57.0
274.11929	56.0
314.11368	55.0
255.10233	55.0
253.12448	55.0
211.03821	55.0
329.05182	53.0
260.10193	52.0
268.06659	52.0
240.07736	52.0
299.16504	52.0
313.12689	52.0
251.06897	51.0
215.07477	46.0
239.10876	46.0
268.14194	46.0
252.07857	46.0
225.09096	43.0
329.11755	42.0
215.03455	41.0
284.08875	41.0
271.07642	41.0
250.10011	40.0
233.09605	40.0
226.09702	37.0
329.07315	37.0
238.06053	36.0
237.093	36.0
253.07462	36.0
231.0493	36.0
200.04622	36.0
286.15402	36.0
203.06866	35.0
269.05353	34.0
228.07593	33.0
175.04097	33.0
227.02415	33.0
257.11926	33.0
274.11118	32.0
240.04247	31.0
345.14609	31.0
245.42657	30.0
282.16086	30.0
216.04237	30.0
285.14609	30.0
179.0699	29.0
311.0751	29.0
236.10037	29.0
223.07533	29.0
251.16364	29.0
231.30836	28.0
287.07416	28.0
327.11667	28.0
312.09842	28.0
242.05698	28.0
313.10092	28.0
213.05313	28.0
236.0477	28.0
302.11777	27.0
295.07675	27.0
255.13986	27.0
240.09253	27.0
245.06465	27.0
272.06082	26.0
299.0939	26.0
187.04156	26.0
330.67209	26.0
208.05144	26.0
222.05267	25.0
137.10081	25.0
219.97665	25.0
214.02623	25.0
233.07364	25.0
204.17259	25.0
198.07048	25.0
198.03326	25.0
186.81798	25.0
329.02695	25.0
293.11859	25.0
330.17902	25.0
344.03357	25.0
280.12811	25.0
279.0654	25.0
172.05191	24.0
230.09019	24.0
266.86862	24.0
277.08295	24.0
196.46538	24.0
220.08414	24.0
294.12036	24.0
295.05826	24.0
224.08421	24.0
232.07602	24.0
317.17749	24.0
315.80121	24.0
265.08948	24.0
249.0883	24.0
285.06342	24.0
215.1078	23.0
311.18219	23.0
237.81885	23.0
197.05879	23.0
327.14145	23.0
278.53726	23.0
229.17163	23.0
309.11441	22.0
330.09183	22.0
261.11371	22.0
213.0903	22.0
257.0643	22.0
244.71831	22.0
174.06673	21.0
185.05936	21.0
237.29964	21.0
199.07233	21.0
227.07137	21.0
201.56017	21.0
225.97775	21.0
281.15506	21.0
221.80905	20.0
227.3784	20.0
147.04533	20.0
329.65253	20.0
201.03914	20.0
265.12775	20.0
311.64706	19.0
297.06842	19.0
174.03185	19.0
331.14774	19.0
154.1617	19.0
295.37457	19.0
247.17245	18.0
328.12698	18.0
215.81645	17.0
220.94649	17.0
231.81204	17.0
194.28081	16.0
296.03973	16.0
310.10864	14.0
71.0519	14.0
125.0965	13.0
95.05051	12.0
60.81935	12.0

MSID: 8953
ID: 403
RETENTIONTIME: 30.59135
PRECURSORMZ: 389.1967
AREA: 5822681.0
PRECURSORTYPE: [M-H]-
SMILES: [H][C@@]12CC(=O)[C@]3([H])[C@]([C@@H]1O)([C@H](O)C[C@]1([H])C(C)(C)[C@H](CC[C@@]31C)OC(C)=O)C(=O)C2=C
NAME: 7α,14β-dihydroxy-3β-acetoxy-ent-kaur-16-ene-11,15-dione
FORMULA: C22H30O6
INCHIKEY: ZYRIUKQNLGDHPD-INPHCPQNSA-N
CAS: 1486563-95-4
Molecular Weight: 390.477
Number of References: 1
Class: Kaurane and Phyllocladane diterpenoids
Superclass: Diterpenoids
Pathway: Terpenoids
ppm: 0.2850000000194086
CMID: CM243
IONMODE: Negative
COLLISIONENERGY: 40±20eV
INSTRUMENTTYPE: AB SCIEX
INSTRUMENT: Q-TOF
Comment:  
Num Peaks: 215
179.0712	19436.0
389.19659	16329.0
245.1183	9788.0
329.17438	9197.0
343.19128	8369.0
283.1701	6587.0
268.14673	5327.0
59.01381	4176.0
296.14081	3837.0
230.09464	2263.0
217.12325	1522.0
215.07188	1326.0
356.16296	973.0
299.16333	960.0
164.0472	829.0
311.16492	821.0
271.13284	804.0
301.17892	779.0
281.11728	677.0
227.10825	655.0
229.08713	605.0
217.08716	538.0
207.06667	530.0
371.18805	447.0
285.14771	445.0
253.12289	419.0
267.13904	374.0
242.13011	358.0
178.06227	312.0
201.09052	304.0
361.202	298.0
159.04506	296.0
71.01393	268.0
163.03908	250.0
243.10327	240.0
328.16422	236.0
187.03754	233.0
203.07144	214.0
202.09995	200.0
151.07558	193.0
285.18408	183.0
212.08368	180.0
201.0558	164.0
202.06375	156.0
347.18671	153.0
252.11432	153.0
238.06203	143.0
241.08743	124.0
174.06801	122.0
286.15567	121.0
295.13562	110.0
208.0726	109.0
359.18732	104.0
256.11057	100.0
200.0462	99.0
231.10287	96.0
268.13071	95.0
163.07658	94.0
266.09329	92.0
216.0769	89.0
217.07996	88.0
214.06346	85.0
218.09254	84.0
283.14703	77.0
242.09201	75.0
230.08127	71.0
241.08287	69.0
150.0686	68.0
189.05318	68.0
270.12436	67.0
255.10231	66.0
299.14468	65.0
228.07887	64.0
186.06783	63.0
188.04602	61.0
238.09981	60.0
253.08862	56.0
268.11627	56.0
314.15359	54.0
257.15222	54.0
186.1039	54.0
219.10315	53.0
173.06171	52.0
213.05742	51.0
227.07283	51.0
177.08748	50.0
267.10223	50.0
216.1129	50.0
319.18976	49.0
198.06909	48.0
297.14944	48.0
311.14764	48.0
241.12241	48.0
296.10712	47.0
123.07952	47.0
204.08023	47.0
215.10779	47.0
201.07663	47.0
244.10591	46.0
213.09172	45.0
242.11639	45.0
269.11295	45.0
176.08287	44.0
346.14014	43.0
226.09846	43.0
191.10535	42.0
299.12268	42.0
273.10687	42.0
329.13708	41.0
245.08304	41.0
359.17618	41.0
239.10422	40.0
225.09241	40.0
257.11453	39.0
199.03777	39.0
188.08228	39.0
283.2113	37.0
283.12891	37.0
174.03055	37.0
271.09738	37.0
286.12253	36.0
280.10843	36.0
343.1568	35.0
243.14143	34.0
281.08774	34.0
252.07701	33.0
284.14154	32.0
311.11826	32.0
214.09927	32.0
175.03836	32.0
281.15506	32.0
255.13672	31.0
387.90137	31.0
343.233	31.0
313.14423	31.0
205.08171	31.0
210.07053	31.0
228.11584	30.0
285.1196	30.0
238.05296	30.0
223.07385	29.0
135.07993	29.0
258.12677	28.0
178.10149	27.0
161.05949	27.0
296.08185	27.0
211.07945	27.0
347.17029	26.0
243.09258	26.0
270.09378	26.0
343.1441	26.0
253.41434	26.0
283.10913	26.0
240.11832	25.0
235.11279	25.0
135.04465	25.0
108.01978	25.0
133.06841	25.0
233.11847	25.0
189.12859	24.0
237.08847	24.0
191.07286	24.0
164.01961	24.0
179.03581	24.0
299.11252	24.0
205.0719	24.0
265.15643	24.0
207.05399	24.0
247.097	24.0
356.11124	23.0
297.11398	23.0
148.05284	23.0
185.06067	23.0
317.14432	23.0
58.82138	23.0
281.05817	23.0
197.05466	23.0
209.09515	23.0
259.01489	23.0
259.12994	23.0
327.15738	22.0
159.02901	22.0
243.06204	22.0
361.16476	22.0
271.16187	22.0
232.11032	22.0
254.08667	22.0
160.01601	22.0
121.32258	21.0
155.08714	21.0
192.03922	21.0
267.11502	21.0
170.13184	21.0
266.13162	21.0
235.10829	20.0
244.83168	20.0
83.04955	20.0
163.02408	20.0
202.03452	20.0
194.73422	20.0
278.12064	19.0
146.07201	19.0
215.04028	19.0
100.6627	19.0
229.06194	19.0
246.14507	19.0
268.09061	18.0
113.24572	18.0
253.06837	18.0
190.09543	17.0
287.16373	17.0
260.61545	16.0
265.07831	16.0
111.08334	15.0
71.0032	15.0

MSID: 8954
ID: 338
RETENTIONTIME: 28.97925
PRECURSORMZ: 403.1754
AREA: 5802730.5
PRECURSORTYPE: [M-H]-
SMILES: [H][C@]12C[C@H](O)C=C3C(=O)OC[C@@]13C[C@@H](OC(C)=O)[C@@H](C)[C@]2(C)CCC1=CCOC1=O
NAME: 7α-Acetoxy-2β-hydroxy-neo-clerodan-3,13-dien-18,19:16,15-diolide
FORMULA: C22H28O7
INCHIKEY: JCQWTYDZKUYDRA-ANIUOEKKSA-N
CAS: nan
Molecular Weight: 404.46
Number of References: 3
Class: Colensane and Clerodane diterpenoids
Superclass: Diterpenoids
Pathway: Terpenoids
ppm: -0.279999999975189
CMID: CM243
IONMODE: Negative
COLLISIONENERGY: 40±20eV
INSTRUMENTTYPE: AB SCIEX
INSTRUMENT: Q-TOF
Comment:  
Num Peaks: 143
328.13226	49678.0
403.17554	23833.0
296.10373	11555.0
343.15497	7066.0
311.1286	5094.0
295.09689	3069.0
299.12772	1346.0
285.11295	1329.0
313.10605	1132.0
59.0138	974.0
284.10355	496.0
309.1109	484.0
327.12192	467.0
300.138	390.0
243.06659	287.0
286.11752	244.0
343.14227	211.0
269.08081	202.0
267.1022	186.0
271.09573	152.0
272.10602	150.0
257.08469	138.0
388.1521	133.0
258.08899	126.0
310.12067	124.0
245.07994	123.0
244.07224	121.0
283.09592	106.0
298.08533	101.0
312.09839	96.0
283.13382	93.0
280.07562	90.0
256.07138	87.0
284.09695	86.0
281.1189	82.0
270.09216	79.0
231.09987	73.0
253.05121	71.0
297.15109	68.0
311.0975	67.0
270.05032	64.0
287.12555	59.0
229.0871	58.0
313.08701	51.0
325.14297	50.0
241.04939	49.0
315.15759	46.0
273.07446	45.0
257.11765	44.0
310.10858	43.0
225.05418	43.0
255.06943	42.0
282.12463	42.0
300.11087	41.0
403.1441	41.0
346.13828	40.0
297.11395	39.0
295.06323	39.0
231.06712	39.0
271.13281	38.0
242.05084	36.0
343.11685	36.0
343.18579	36.0
241.08437	36.0
179.06856	35.0
327.05283	35.0
243.10019	34.0
266.09326	34.0
361.16473	33.0
217.08569	33.0
298.07181	31.0
238.06352	30.0
252.07698	30.0
284.08044	30.0
280.07071	30.0
269.15308	29.0
268.07614	29.0
296.07339	28.0
309.08508	27.0
293.11688	27.0
354.83908	26.0
327.04044	26.0
222.27742	26.0
327.09357	26.0
297.1055	26.0
215.07329	26.0
59.00552	26.0
262.55087	26.0
268.66171	26.0
229.58984	26.0
259.09683	26.0
230.04262	26.0
267.78601	26.0
311.08716	25.0
267.0654	25.0
388.06335	25.0
214.39023	25.0
239.10268	25.0
224.27771	25.0
269.12256	25.0
251.11238	24.0
227.06985	24.0
269.06635	24.0
229.04857	24.0
273.11169	24.0
296.05148	24.0
281.06799	24.0
257.05014	24.0
197.89821	23.0
299.08878	23.0
249.08981	23.0
403.12836	23.0
253.03563	23.0
286.08109	23.0
256.11212	23.0
201.05577	23.0
375.1777	22.0
327.01743	22.0
285.14935	22.0
284.06558	21.0
258.0701	21.0
280.63474	20.0
253.8385	20.0
219.7617	20.0
281.13861	20.0
233.27547	20.0
247.09236	20.0
225.6834	20.0
216.07976	20.0
311.06641	19.0
254.05698	19.0
266.05334	19.0
266.76462	19.0
249.70842	19.0
195.70428	17.0
224.09737	17.0
81.97055	16.0
276.53058	16.0
330.15405	16.0
283.02014	16.0
187.82718	15.0
212.77304	14.0
402.70181	14.0

MSID: 8955
ID: 635
RETENTIONTIME: 36.61535
PRECURSORMZ: 479.2794
AREA: 5307846.5
PRECURSORTYPE: [M-H]-
SMILES: [H][C@@]12CCC3[C@H]4C(C=C)=C[C@]5([H])[C@]6([H])[C@@](C(C)C)(C(=O)[C@@]7(O[C@]1(CC357)CCCC2(C)C)OC[C@@]6(C)O)C4=O
NAME: salvadione C
FORMULA: C30H40O5
INCHIKEY: DJMQPLZOLRNKTF-IYZCQUQASA-N
CAS: nan
Molecular Weight: 480.645
Number of References: 1
Class: Icetexane diterpenoids
Superclass: Diterpenoids
Pathway: Terpenoids
ppm: -0.34999999996898623
CMID: CM243
IONMODE: Negative
COLLISIONENERGY: 40±20eV
INSTRUMENTTYPE: AB SCIEX
INSTRUMENT: Q-TOF
Comment:  
Num Peaks: 403
479.27921	186366.0
299.16486	44156.0
435.2908	7477.0
343.15479	6304.0
141.0549	2940.0
271.16977	2295.0
407.25983	1384.0
231.10274	1324.0
300.17349	1009.0
281.15488	868.0
140.04718	817.0
391.30112	808.0
451.2814	727.0
407.29144	699.0
366.21997	670.0
112.05247	528.0
382.2132	526.0
230.09154	498.0
269.11761	468.0
83.05038	427.0
410.20776	405.0
284.13974	387.0
243.10007	365.0
338.22574	355.0
298.15958	354.0
351.19403	347.0
322.22702	346.0
256.1073	319.0
229.08699	297.0
113.06024	278.0
433.27454	277.0
269.15295	272.0
297.14758	267.0
325.17816	199.0
215.1091	195.0
323.16287	182.0
253.16016	178.0
365.21057	166.0
323.23328	165.0
351.23074	163.0
301.17874	159.0
333.22147	157.0
321.22055	156.0
139.03845	154.0
323.19809	154.0
225.12901	150.0
266.1283	146.0
477.70691	144.0
461.26743	140.0
232.10721	139.0
152.04599	137.0
213.09016	136.0
305.22681	134.0
343.13123	127.0
417.27698	127.0
338.1843	126.0
338.21674	124.0
373.28503	121.0
337.21613	121.0
282.16562	118.0
283.13535	117.0
137.02393	117.0
257.11441	116.0
249.14844	115.0
435.25607	113.0
389.28333	109.0
381.21066	107.0
255.17567	101.0
212.11778	100.0
253.1212	99.0
248.14009	96.0
165.05708	96.0
233.11984	94.0
379.29343	94.0
126.03135	92.0
67.05429	87.0
239.17979	86.0
237.16524	86.0
309.15036	84.0
258.12506	83.0
364.20816	82.0
201.09039	81.0
232.10571	80.0
227.17749	79.0
295.16574	79.0
295.13376	78.0
348.20908	78.0
279.17157	75.0
241.12531	75.0
335.23734	74.0
307.24039	73.0
245.11356	72.0
153.05472	71.0
166.06384	70.0
377.28403	70.0
304.21655	69.0
225.16574	69.0
307.20264	68.0
311.16647	68.0
267.13727	68.0
256.14648	68.0
477.68335	66.0
242.0934	66.0
227.10664	65.0
229.15814	64.0
367.18759	63.0
238.17221	62.0
255.1006	61.0
267.1741	61.0
204.1151	61.0
203.10622	60.0
251.1433	59.0
202.09705	56.0
309.22269	55.0
281.18936	53.0
85.06507	53.0
254.16925	52.0
351.21603	52.0
280.18039	52.0
220.14793	51.0
371.27466	51.0
303.20795	51.0
283.20456	50.0
188.04726	48.0
217.0856	47.0
124.05371	45.0
265.15628	45.0
215.07176	43.0
268.14658	43.0
214.0963	43.0
265.1228	42.0
291.21188	42.0
172.04924	42.0
243.1749	42.0
337.16937	42.0
435.23358	41.0
407.21042	41.0
477.64911	40.0
204.07732	40.0
101.05799	40.0
348.24744	40.0
179.10648	39.0
264.15421	39.0
347.23758	39.0
213.12877	38.0
310.15329	38.0
363.26498	38.0
337.60107	38.0
319.20709	38.0
335.20148	38.0
197.13153	37.0
69.07156	37.0
273.15204	37.0
311.8042	37.0
316.85123	37.0
251.18054	37.0
187.04012	37.0
349.21118	36.0
211.11064	36.0
318.47443	36.0
339.40277	36.0
391.27594	36.0
156.05811	36.0
317.44418	35.0
316.24142	35.0
280.14105	34.0
199.11641	34.0
238.13443	34.0
310.22745	34.0
313.6676	34.0
320.21741	34.0
343.20197	34.0
352.20227	34.0
153.08986	34.0
312.67459	33.0
138.06674	33.0
200.08072	33.0
326.15012	33.0
410.16809	33.0
189.05711	33.0
228.07874	33.0
241.15572	33.0
263.14294	33.0
223.14687	33.0
282.12286	32.0
409.19687	32.0
151.0755	32.0
315.16092	32.0
379.21906	32.0
199.133	32.0
334.22327	32.0
178.06479	32.0
205.0858	32.0
233.15273	31.0
314.69171	31.0
310.01016	31.0
247.13226	31.0
183.11673	31.0
405.28009	31.0
451.24814	31.0
321.41364	31.0
285.14426	31.0
281.11877	31.0
227.07123	31.0
317.35693	31.0
169.06685	31.0
279.2092	30.0
327.1926	30.0
374.22595	30.0
287.05902	30.0
313.89658	30.0
163.10901	30.0
150.06972	30.0
231.13995	29.0
435.3378	29.0
320.57324	29.0
316.49747	29.0
366.18436	29.0
240.11667	29.0
239.14345	29.0
277.15939	29.0
187.11244	28.0
320.20688	28.0
315.99942	28.0
271.13913	28.0
270.121	28.0
97.06403	28.0
305.15497	28.0
296.14066	28.0
405.24261	28.0
451.20444	27.0
244.1073	27.0
251.10295	27.0
317.09708	27.0
159.11784	27.0
139.03499	27.0
478.92123	27.0
332.20868	27.0
321.31006	26.0
325.14813	26.0
261.14676	26.0
435.20703	26.0
433.32755	26.0
324.13535	26.0
327.83417	26.0
238.10269	26.0
340.16995	26.0
330.81079	26.0
371.58981	26.0
333.18036	26.0
351.11511	26.0
265.96378	26.0
336.28885	26.0
338.65628	26.0
345.25867	26.0
339.71317	26.0
318.53735	26.0
329.44788	26.0
316.58286	26.0
316.1561	26.0
317.75482	26.0
314.58401	26.0
316.32504	26.0
297.17966	26.0
313.33295	26.0
312.44952	26.0
318.31717	25.0
310.72266	25.0
344.5076	25.0
318.36435	25.0
267.47351	25.0
95.05236	25.0
336.05365	25.0
335.02042	25.0
338.92307	25.0
159.0425	25.0
273.18765	25.0
328.72131	25.0
352.20776	25.0
309.17792	25.0
368.10388	25.0
198.10344	25.0
395.22003	25.0
300.85593	25.0
236.15739	25.0
300.14465	25.0
205.12086	25.0
477.62558	25.0
478.55914	25.0
479.23419	25.0
315.21307	25.0
224.065	25.0
212.85866	25.0
266.2449	25.0
323.13647	25.0
254.12398	25.0
317.30286	25.0
326.74283	25.0
210.1357	24.0
340.50598	24.0
362.74445	24.0
157.06407	24.0
238.31883	24.0
152.0327	24.0
220.12759	24.0
310.52246	24.0
267.01404	24.0
315.4426	24.0
478.99625	24.0
315.59393	24.0
319.48709	24.0
298.12747	24.0
319.13187	24.0
291.17679	23.0
322.6842	23.0
229.1196	23.0
141.03281	23.0
264.9538	23.0
226.13515	23.0
299.6698	23.0
302.2027	23.0
392.22763	23.0
317.56982	23.0
316.91226	23.0
64.14677	23.0
253.19443	23.0
336.20267	23.0
313.14578	23.0
344.21683	22.0
363.22952	22.0
315.48434	22.0
478.89981	22.0
334.32712	22.0
319.25433	22.0
225.39503	22.0
308.01157	22.0
192.72232	22.0
311.67279	22.0
312.06363	21.0
357.25955	21.0
309.61026	21.0
252.14684	21.0
199.03903	21.0
326.18195	21.0
392.20435	21.0
225.94376	21.0
214.0619	21.0
281.10562	21.0
278.15967	21.0
151.03337	21.0
323.11359	21.0
307.09106	21.0
265.43701	21.0
312.81314	21.0
284.17441	21.0
293.23074	21.0
292.1535	21.0
239.09953	21.0
370.74274	21.0
334.09259	21.0
185.05791	21.0
225.08934	21.0
311.15091	21.0
325.78061	21.0
323.7652	20.0
314.19159	20.0
326.86499	20.0
128.06451	20.0
477.92523	20.0
216.26251	20.0
284.11331	20.0
143.04955	20.0
241.07513	20.0
329.84082	20.0
193.08682	20.0
322.19537	20.0
478.7991	19.0
141.67316	19.0
140.0298	19.0
319.00592	19.0
194.30798	19.0
83.037	18.0
276.83017	18.0
337.74863	18.0
161.06187	18.0
170.17261	18.0
313.58957	18.0
344.86758	17.0
200.62685	17.0
342.02377	16.0
279.10941	16.0
243.0787	16.0
372.12234	15.0
149.09599	15.0
158.03511	15.0
418.36389	15.0
476.58173	14.0
475.40665	14.0
474.05179	14.0
470.75485	14.0
472.2561	14.0
233.17665	13.0
179.3923	13.0

MSID: 8956
ID: 586
RETENTIONTIME: 34.11645
PRECURSORMZ: 313.1441
AREA: 5303278.0
PRECURSORTYPE: [M-H]-
SMILES: CC(C)C1=CC2=C(C(O)=C1O)C1=C(C=C2O)C(C)(C)CCC1=O
NAME: arucatriol
FORMULA: C19H22O4
INCHIKEY: JGLJXSKAUCHGPY-UHFFFAOYSA-N
CAS: 59400-18-9
Molecular Weight: 314.381
Number of References: 3
Class: nan
Superclass: nan
Pathway: nan
ppm: 0.11499999999387
CMID: CM243
IONMODE: Negative
COLLISIONENERGY: 40±20eV
INSTRUMENTTYPE: AB SCIEX
INSTRUMENT: Q-TOF
Comment:  
Num Peaks: 257
313.14407	113242.0
297.11383	30964.0
298.12073	16656.0
255.10219	11995.0
283.09583	8903.0
226.13518	6586.0
225.12756	2733.0
282.08835	1919.0
239.07079	1481.0
281.08102	1405.0
270.12424	1322.0
285.14923	1121.0
240.08026	1020.0
269.11603	943.0
227.07124	774.0
210.10306	624.0
211.11208	622.0
198.10483	463.0
254.09279	435.0
268.07285	429.0
267.06369	396.0
296.10529	365.0
225.05411	359.0
295.09677	314.0
196.088	310.0
209.09505	304.0
241.15878	287.0
279.10287	221.0
253.08539	207.0
242.09189	203.0
195.08139	184.0
227.10519	155.0
174.10539	155.0
183.07965	152.0
197.09444	107.0
169.06686	104.0
269.08392	100.0
312.12076	87.0
285.11285	83.0
223.03865	82.0
312.11038	80.0
237.05368	78.0
267.1373	77.0
241.11925	74.0
285.13269	73.0
213.05446	67.0
181.06456	65.0
270.11298	64.0
241.08427	64.0
281.06134	61.0
264.07785	61.0
283.13373	59.0
311.12848	59.0
225.10699	59.0
238.06192	58.0
251.06883	57.0
253.05112	57.0
241.04626	55.0
254.07562	54.0
199.03905	54.0
265.08774	53.0
295.13547	53.0
257.07831	53.0
240.06813	53.0
213.09161	52.0
266.05643	52.0
202.09985	50.0
226.06302	50.0
283.07111	50.0
254.05376	49.0
257.1207	48.0
227.086	46.0
156.05811	46.0
270.08722	45.0
194.07191	45.0
225.08643	45.0
195.04446	43.0
224.0489	39.0
168.05864	39.0
268.10971	39.0
280.07224	39.0
282.06369	39.0
296.13058	38.0
253.11966	38.0
251.10608	38.0
313.11633	38.0
257.116	38.0
185.06058	38.0
182.07269	37.0
270.15161	37.0
267.10049	36.0
193.06644	36.0
211.07224	35.0
198.38335	35.0
183.07567	35.0
280.10992	34.0
223.03279	34.0
255.06778	34.0
212.04222	34.0
158.0733	34.0
214.06192	34.0
170.073	33.0
268.05362	32.0
218.02592	32.0
187.07762	32.0
211.03383	32.0
208.1926	31.0
227.0314	31.0
208.05273	31.0
208.08522	30.0
225.07907	29.0
219.25528	29.0
284.10675	29.0
259.02896	29.0
157.06532	29.0
281.11716	29.0
226.09984	28.0
250.06126	28.0
186.07175	27.0
207.08206	27.0
201.05569	27.0
229.08405	27.0
206.76089	27.0
175.03699	26.0
256.11359	26.0
242.05228	26.0
312.14844	26.0
218.05919	26.0
268.35031	25.0
270.06952	25.0
247.28934	25.0
241.03867	25.0
175.11603	25.0
208.49509	25.0
184.0907	25.0
282.16071	25.0
282.02585	25.0
285.18396	25.0
207.21596	25.0
215.07178	25.0
219.40755	25.0
222.63226	25.0
209.0639	24.0
212.3004	24.0
223.70897	24.0
202.06087	24.0
221.06137	24.0
199.10675	24.0
239.03444	24.0
184.745	24.0
185.65921	24.0
242.35861	23.0
254.25984	23.0
186.02901	23.0
171.74112	23.0
269.05338	23.0
296.15417	23.0
279.04889	23.0
208.82043	23.0
224.11926	23.0
224.52554	23.0
248.86104	22.0
216.51752	22.0
220.3645	22.0
200.04333	22.0
180.05397	22.0
210.3416	22.0
248.21725	22.0
244.36749	22.0
199.07498	22.0
229.69363	21.0
283.05133	21.0
209.70155	21.0
241.53912	20.0
143.04839	20.0
152.90817	20.0
265.04947	19.0
223.08983	19.0
217.3916	19.0
237.09439	19.0
173.05261	19.0
269.15781	19.0
235.28389	19.0
163.11153	19.0
154.1823	18.0
263.06354	18.0
64.70406	18.0
159.08203	18.0
191.72713	18.0
200.68097	18.0
239.01628	18.0
204.48044	18.0
210.4041	18.0
197.0202	17.0
187.04013	17.0
193.47485	17.0
218.96536	16.0
194.78197	16.0
141.0712	16.0
236.0867	16.0
201.79509	16.0
232.13557	16.0
302.56543	15.0
262.34927	15.0
169.99765	15.0
212.97441	14.0
147.27928	13.0
300.24817	13.0
292.17026	13.0
294.08829	13.0
131.0349	13.0
242.84213	13.0
128.4205	13.0
190.1534	13.0
188.85252	13.0
124.74291	13.0
123.65702	13.0
298.4133	13.0
154.71169	13.0
286.94955	13.0
302.896	13.0
304.29172	13.0
305.73346	13.0
308.09753	13.0
310.39825	13.0
119.30531	13.0
113.92824	13.0
111.3177	13.0
187.71707	13.0
257.49298	13.0
289.80655	13.0
191.98213	13.0
285.79947	13.0
146.07193	13.0
272.98862	13.0
274.00565	13.0
276.24231	13.0
277.20508	13.0
176.21666	13.0
144.57858	13.0
231.05959	13.0
177.59599	13.0
141.6382	13.0
232.62671	13.0
149.10199	13.0
150.77354	13.0
166.55891	13.0
260.30557	13.0
164.64343	13.0
139.58055	13.0
138.37646	13.0
160.01344	13.0
137.32098	13.0
133.63602	13.0
132.60896	13.0
163.358	13.0
101.82535	12.0

MSID: 8957
ID: 347
RETENTIONTIME: 29.11953
PRECURSORMZ: 401.1613
AREA: 5258207.5
PRECURSORTYPE: [M-H]-
SMILES: [H][C@]12C[C@H](OC(C)=O)C=C3C(=O)OC[C@@]13CC(=O)[C@@H](C)[C@]2(C)CCC1=CCOC1=O
NAME: 2β-Acetoxy-7-keto-neo-clerodan-3,13-dien-18,19:16,15-diolide
FORMULA: C22H26O7
INCHIKEY: UMGIWYQIMHDLBO-UXHHIDROSA-N
CAS: nan
Molecular Weight: 402.444
Number of References: 3
Class: Colensane and Clerodane diterpenoids
Superclass: Diterpenoids
Pathway: Terpenoids
ppm: 1.2700000000336331
CMID: CM243
IONMODE: Negative
COLLISIONENERGY: 40±20eV
INSTRUMENTTYPE: AB SCIEX
INSTRUMENT: Q-TOF
Comment:  
Num Peaks: 320
341.13934	89677.0
313.14459	15161.0
401.16119	12398.0
328.13092	4636.0
297.11267	3390.0
283.09796	3180.0
270.08929	3036.0
255.06508	2499.0
59.01388	2282.0
311.09274	1607.0
329.13925	1513.0
299.12982	1467.0
295.13428	1224.0
229.0874	1194.0
298.12125	1151.0
231.10315	1090.0
271.13318	1012.0
323.12823	917.0
327.12411	871.0
216.07861	797.0
325.10809	752.0
218.05956	729.0
326.1171	661.0
285.14972	655.0
311.12903	600.0
259.09717	568.0
256.1109	549.0
269.11972	539.0
280.11041	534.0
244.07408	529.0
230.09492	516.0
257.08032	511.0
281.11761	500.0
270.12308	450.0
269.07956	449.0
255.10262	432.0
253.12321	426.0
190.06326	425.0
242.09535	384.0
312.13687	377.0
227.06868	355.0
252.11462	331.0
175.03987	321.0
240.04123	274.0
254.05731	269.0
371.15079	266.0
267.13776	255.0
284.10559	251.0
296.1395	236.0
309.11133	235.0
265.0882	221.0
243.06387	217.0
228.07767	215.0
279.10172	207.0
215.06927	204.0
256.07327	200.0
188.04759	198.0
241.08469	198.0
241.04971	198.0
226.09727	194.0
271.09769	194.0
308.10495	189.0
269.10687	178.0
258.08618	174.0
203.07169	173.0
219.06718	172.0
214.06516	171.0
297.14642	170.0
298.08066	169.0
269.15506	157.0
251.10651	147.0
296.10413	137.0
285.11334	136.0
201.09215	133.0
267.10095	133.0
283.06171	131.0
295.09729	131.0
217.08743	122.0
201.05605	121.0
254.09634	121.0
281.08151	119.0
268.0733	114.0
213.05339	112.0
238.1001	111.0
282.09048	111.0
253.08582	111.0
228.11612	111.0
257.11801	110.0
214.02647	105.0
285.07532	102.0
282.12665	99.0
149.06039	97.0
242.05574	96.0
213.09198	96.0
293.08038	94.0
295.11914	90.0
266.09042	90.0
151.07455	88.0
239.10602	86.0
252.07887	84.0
237.08876	83.0
283.13257	83.0
225.05742	82.0
163.07805	80.0
203.03542	80.0
240.07764	79.0
298.07895	78.0
226.06194	78.0
307.09677	76.0
243.14174	76.0
229.06369	73.0
253.04688	72.0
267.06735	70.0
312.10226	69.0
340.00986	69.0
204.07909	67.0
272.10638	67.0
230.08154	67.0
257.15411	66.0
164.08252	66.0
200.08246	65.0
310.12106	64.0
340.02249	63.0
211.0726	63.0
187.04178	62.0
211.04131	62.0
243.09898	61.0
229.05035	61.0
191.06903	60.0
324.13593	60.0
297.08228	60.0
227.10558	59.0
280.07269	59.0
239.0712	59.0
225.12794	57.0
284.14023	57.0
199.07532	57.0
323.1124	56.0
254.13225	56.0
209.06142	55.0
241.12117	55.0
187.07794	55.0
313.1134	55.0
296.06537	54.0
238.0578	53.0
300.14011	53.0
256.09836	52.0
245.08026	52.0
231.0704	52.0
227.14395	52.0
285.12656	51.0
299.10101	51.0
174.03334	50.0
231.08083	50.0
217.04848	49.0
185.09686	49.0
212.08679	48.0
277.12567	47.0
185.05957	47.0
150.0676	46.0
314.1123	46.0
175.07356	45.0
214.09955	45.0
212.04686	45.0
202.06261	44.0
198.06796	43.0
227.03769	43.0
329.1055	42.0
299.09085	42.0
224.08447	42.0
341.11765	41.0
225.09268	41.0
267.12177	40.0
294.12073	40.0
232.0748	39.0
231.12697	39.0
286.08646	39.0
59.00485	39.0
209.09682	38.0
265.12805	38.0
200.0506	38.0
186.032	38.0
189.08977	37.0
371.12814	37.0
268.10696	37.0
158.03664	37.0
251.06927	37.0
223.07559	37.0
251.14685	36.0
250.06015	35.0
328.19122	35.0
325.08691	34.0
312.11783	34.0
325.07809	34.0
215.10948	34.0
255.02599	34.0
269.04742	34.0
340.13263	33.0
264.07672	33.0
227.05244	33.0
242.12888	33.0
177.05772	33.0
342.14029	31.0
212.12102	31.0
228.04662	30.0
279.13443	30.0
323.086	30.0
228.1102	30.0
215.03481	30.0
210.06509	29.0
236.08409	29.0
172.05211	29.0
255.13702	29.0
339.99179	28.0
170.07457	28.0
165.05612	28.0
57.03421	28.0
204.03992	28.0
239.14236	28.0
183.08525	27.0
224.10939	27.0
203.05495	27.0
239.03183	27.0
161.05721	26.0
237.05258	26.0
345.4158	26.0
224.04489	26.0
265.05151	26.0
230.71031	26.0
218.04221	26.0
247.88145	26.0
253.39127	26.0
256.66284	26.0
224.1519	26.0
226.52008	26.0
262.80515	26.0
341.95193	26.0
270.05228	26.0
268.06049	26.0
268.14706	26.0
192.07881	25.0
264.1181	25.0
327.08514	25.0
280.14975	25.0
228.59706	25.0
157.06558	25.0
171.86334	25.0
182.80843	25.0
230.37872	25.0
192.37752	25.0
328.06174	25.0
163.03802	25.0
278.23367	25.0
299.31445	24.0
235.10858	24.0
83.05054	24.0
268.03802	24.0
135.04254	24.0
198.10516	24.0
399.82071	24.0
202.02641	24.0
187.11278	24.0
189.05476	24.0
184.08438	24.0
232.99767	23.0
311.04266	23.0
271.06384	23.0
283.04193	23.0
186.07207	23.0
259.07196	23.0
322.12387	23.0
331.21939	23.0
313.18793	23.0
199.10847	23.0
326.08527	23.0
211.11102	23.0
217.44395	23.0
237.62134	23.0
207.38127	22.0
189.0992	22.0
240.34477	22.0
225.83966	22.0
246.63879	22.0
184.05515	22.0
353.13712	22.0
203.10658	22.0
197.10164	22.0
134.03616	21.0
189.59778	21.0
342.11856	21.0
198.64308	21.0
313.09262	21.0
273.91049	21.0
245.50818	21.0
293.07367	21.0
298.05698	21.0
270.02332	20.0
195.04343	20.0
229.12595	20.0
284.12704	20.0
188.47084	20.0
199.03525	19.0
227.18085	19.0
297.9809	19.0
123.07967	19.0
187.97911	19.0
198.0528	19.0
263.11005	18.0
228.88588	17.0
220.50591	17.0
226.73384	17.0
162.02429	17.0
321.10529	16.0
205.7655	16.0
289.84872	16.0
180.58423	16.0
286.18915	15.0
237.12495	15.0
60.43893	15.0
148.04945	14.0

MSID: 8958
ID: 540
RETENTIONTIME: 32.73778
PRECURSORMZ: 389.1963
AREA: 5249288.0
PRECURSORTYPE: [M-H]-
SMILES: [H][C@]12O[C@@]1([H])[C@]1([H])[C@]3([C@H](O)[C@]2([H])C(=C)C3=O)[C@H](O)C[C@]2([H])C(C)(C)[C@H](CC[C@@]12C)OC(C)=O
NAME: 7α,14β-dihydroxy-3β-acetoxy-11α,12α-epoxy-entkaur-16-en-15-one
FORMULA: C22H30O6
INCHIKEY: MMYRLPYWIWNBNV-RYMSFCIOSA-N
CAS: 1486564-00-4
Molecular Weight: 390.477
Number of References: 1
Class: Kaurane and Phyllocladane diterpenoids
Superclass: Diterpenoids
Pathway: Terpenoids
ppm: -0.11499999999387
CMID: CM243
IONMODE: Negative
COLLISIONENERGY: 40±20eV
INSTRUMENTTYPE: AB SCIEX
INSTRUMENT: Q-TOF
Comment:  
Num Peaks: 238
389.1962	63809.0
329.17584	61654.0
314.15152	22518.0
299.12744	8118.0
59.01374	4396.0
313.14389	4291.0
271.09387	843.0
297.14914	836.0
247.09674	804.0
245.08278	711.0
259.09659	581.0
246.08797	557.0
347.18451	529.0
258.09033	456.0
285.11435	406.0
233.08385	372.0
244.07353	264.0
219.0638	216.0
257.08289	210.0
284.1033	184.0
297.11536	180.0
232.06981	161.0
231.06541	160.0
273.11145	136.0
298.12057	130.0
286.11893	125.0
281.11862	124.0
297.12381	118.0
296.14053	92.0
387.91254	84.0
311.16632	84.0
220.0752	84.0
221.08163	77.0
295.13196	73.0
229.08688	69.0
283.10062	61.0
272.10092	60.0
313.11963	60.0
253.08681	59.0
285.14908	59.0
256.07584	59.0
255.14114	58.0
217.08549	58.0
271.13257	56.0
175.07835	55.0
243.06332	55.0
255.10205	47.0
260.10165	46.0
207.06645	45.0
167.06853	44.0
389.16916	42.0
243.09691	42.0
216.07812	41.0
201.08891	41.0
179.0697	39.0
312.13617	39.0
328.09116	38.0
219.0493	38.0
216.76242	37.0
256.11188	37.0
347.15533	37.0
270.08868	37.0
347.16446	36.0
243.13509	36.0
204.04506	36.0
314.11856	34.0
288.13007	34.0
297.0968	34.0
231.10263	32.0
215.06879	32.0
299.1698	31.0
267.09875	30.0
218.08798	30.0
285.18546	29.0
258.07144	29.0
193.05	29.0
387.93759	29.0
328.10535	29.0
269.15445	28.0
208.07098	28.0
315.15381	27.0
231.05499	27.0
311.15768	27.0
253.64172	26.0
242.09024	26.0
286.15372	26.0
269.07733	26.0
266.08823	26.0
235.09303	26.0
218.27748	26.0
328.061	26.0
313.19589	26.0
316.91037	26.0
203.06984	26.0
331.98187	26.0
262.44275	25.0
282.0849	25.0
194.05681	25.0
173.52562	25.0
216.18898	25.0
299.09695	25.0
216.82875	25.0
241.09175	25.0
234.08661	25.0
387.89133	24.0
201.0542	24.0
230.09143	24.0
297.07825	24.0
232.04892	24.0
189.09338	24.0
207.83656	24.0
218.47284	24.0
273.97632	24.0
227.10507	23.0
269.35852	23.0
211.81972	23.0
330.17688	23.0
388.73459	23.0
217.49113	23.0
265.44965	22.0
283.16983	22.0
271.17612	22.0
191.52911	22.0
255.89409	22.0
335.34119	22.0
253.12576	22.0
313.71948	22.0
293.38828	22.0
360.71045	22.0
301.1803	21.0
242.05215	21.0
239.06914	21.0
180.08015	21.0
284.8201	21.0
217.32074	21.0
211.15039	21.0
228.0742	20.0
208.97034	20.0
222.65843	20.0
281.14984	20.0
162.88014	20.0
344.39111	19.0
239.96332	19.0
263.10471	19.0
230.05875	19.0
223.42772	19.0
314.81839	19.0
255.06607	19.0
210.96971	18.0
225.22296	18.0
159.07823	18.0
299.06308	18.0
257.02478	18.0
205.12077	18.0
265.12268	18.0
205.80296	18.0
241.05525	18.0
274.591	18.0
275.92325	18.0
219.31461	17.0
270.57172	17.0
199.78569	17.0
296.10007	17.0
245.04446	17.0
279.18124	17.0
328.04327	16.0
264.61905	16.0
222.19838	16.0
183.41626	15.0
265.87741	15.0
309.0762	14.0
301.76691	14.0
353.9299	13.0
351.99445	13.0
350.19257	13.0
166.06252	13.0
168.24268	13.0
169.99501	13.0
172.59421	13.0
345.16208	13.0
358.33743	13.0
343.10385	13.0
341.16751	13.0
337.47498	13.0
335.84531	13.0
175.75278	13.0
355.31668	13.0
294.01257	13.0
164.573	13.0
383.284	13.0
145.95708	13.0
147.7121	13.0
149.04811	13.0
151.07062	13.0
153.0607	13.0
386.18823	13.0
378.28314	13.0
332.74777	13.0
375.85864	13.0
374.40765	13.0
373.60278	13.0
368.39877	13.0
365.96683	13.0
363.27228	13.0
334.14615	13.0
124.01548	13.0
182.32506	13.0
291.30368	13.0
289.19489	13.0
280.04749	13.0
136.63669	13.0
277.36472	13.0
303.18564	13.0
304.69312	13.0
306.13754	13.0
307.37585	13.0
141.04088	13.0
112.56406	13.0
251.08421	13.0
249.08958	13.0
236.81538	13.0
235.65192	13.0
213.30455	13.0
134.33533	13.0
201.79498	13.0
197.0201	13.0
315.82523	13.0
195.03479	13.0
317.78262	13.0
319.98074	13.0
321.59082	13.0
323.72278	13.0
326.10223	13.0
192.04716	13.0
189.49353	13.0
186.61972	13.0
184.04277	13.0
138.92873	13.0

MSID: 8959
ID: 563
RETENTIONTIME: 33.17318
PRECURSORMZ: 471.3461
AREA: 5129802.5
PRECURSORTYPE: [M-H]-
SMILES: [H][C@@]12CC(C)(C)CC[C@@]1(CC[C@]1(C)C2=CC[C@]2([H])[C@@]3(C)C[C@@H](O)[C@H](O)C(C)(C)[C@]3([H])CC[C@@]12C)C(O)=O
NAME: maslinic acid
FORMULA: C30H48O4
INCHIKEY: MDZKJHQSJHYOHJ-LLICELPBSA-N
CAS: nan
Molecular Weight: 472.709
Number of References: 1334
Class: Oleanane triterpenoids
Superclass: Triterpenoids
Pathway: Terpenoids
ppm: -1.3349999999832107
CMID: CM243
IONMODE: Negative
COLLISIONENERGY: 40±20eV
INSTRUMENTTYPE: AB SCIEX
INSTRUMENT: Q-TOF
Comment:  
Num Peaks: 86
471.34833	39614.0
407.3255	95.0
425.34158	78.0
469.79123	47.0
471.30368	37.0
469.74454	27.0
313.62805	26.0
312.95032	24.0
423.32031	23.0
303.38049	23.0
327.13806	23.0
326.89014	23.0
311.88409	22.0
309.68814	21.0
306.16885	21.0
320.35269	21.0
314.71463	21.0
336.78146	21.0
381.19577	21.0
470.96573	21.0
205.15895	21.0
305.34692	20.0
319.21442	19.0
315.49512	19.0
317.0538	15.0
329.74335	15.0
354.7655	15.0
322.15704	14.0
471.66092	14.0
360.54919	13.0
386.28506	13.0
469.7233	13.0
365.25024	13.0
367.17859	13.0
369.79153	13.0
375.26331	13.0
377.29395	13.0
379.65631	13.0
458.36377	13.0
382.50275	13.0
430.11316	13.0
411.17072	13.0
389.31851	13.0
391.28024	13.0
427.21585	13.0
424.35858	13.0
421.10089	13.0
395.28275	13.0
397.27893	13.0
413.72232	13.0
404.78189	13.0
363.84048	13.0
342.53323	13.0
356.21121	13.0
351.6864	13.0
200.04076	13.0
204.51845	13.0
209.56848	13.0
213.42216	13.0
231.92995	13.0
238.59732	13.0
257.02832	13.0
262.15607	13.0
281.15027	13.0
285.10321	13.0
293.65381	13.0
299.83798	13.0
300.77814	13.0
304.21857	13.0
307.35745	13.0
346.74179	13.0
323.89774	13.0
325.49466	13.0
331.36176	13.0
334.46356	13.0
336.93063	13.0
339.79837	13.0
320.92435	13.0
350.61655	13.0
343.46906	13.0
347.80569	13.0
345.58484	13.0
449.62958	12.0
214.72314	12.0
189.08694	12.0
136.87166	12.0

MSID: 8960
ID: 342
RETENTIONTIME: 29.06872
PRECURSORMZ: 343.155
AREA: 5016349.0
PRECURSORTYPE: [M-H]-
SMILES: [H][C@@]12[C@@H]3OC(=O)[C@@]1(CCCC2(C)C)C1=C(C=C(C(C)C)C(=O)C1=O)[C@@H]3O
NAME: rosmaquinone
FORMULA: C20H24O5
INCHIKEY: IQNNDXVLTVLXLJ-FORWCCJISA-N
CAS: 121927-71-7
Molecular Weight: 344.408
Number of References: 11
Class: Abietane diterpenoids
Superclass: Diterpenoids
Pathway: Terpenoids
ppm: 0.4500000000007276
CMID: CM243
IONMODE: Negative
COLLISIONENERGY: 40±20eV
INSTRUMENTTYPE: AB SCIEX
INSTRUMENT: Q-TOF
Comment:  
Num Peaks: 46
289.18033	399.0
119.08624	327.0
328.09341	190.0
209.1179	167.0
235.13242	166.0
97.06509	156.0
299.16345	144.0
237.14738	142.0
343.15332	119.0
125.09765	112.0
343.11523	106.0
137.09399	96.0
271.17004	95.0
313.1409	86.0
65.03933	83.0
310.08807	81.0
343.14969	80.0
185.1167	63.0
295.13239	57.0
307.19263	56.0
71.04863	50.0
243.10338	32.0
315.15427	32.0
287.16385	30.0
282.08368	30.0
343.09164	28.0
311.0925	27.0
313.05426	26.0
328.06149	26.0
327.07251	25.0
300.09238	24.0
257.0817	24.0
254.09146	24.0
279.19476	23.0
269.15967	20.0
247.16792	20.0
343.18781	19.0
278.15179	15.0
265.08002	15.0
235.1174	13.0
217.12477	13.0
216.08852	13.0
121.06282	13.0
161.05956	12.0
69.0342	12.0
57.27329	12.0

MSID: 8961
ID: 27
RETENTIONTIME: 10.18847
PRECURSORMZ: 225.1129
AREA: 5003193.0
PRECURSORTYPE: [M-H]-
SMILES: OCC\C=C/CC1C(CC(O)=O)CCC1=O
NAME: tuberonic acid
FORMULA: C12H18O4
INCHIKEY: RZGFUGXQKMEMOO-UPHRSURJSA-N
CAS: 221682-86-6
Molecular Weight: 226.273
Number of References: 61
Class: Jasmonic acids
Superclass: Octadecanoids
Pathway: Fatty acids
ppm: 0.21499999999718966
CMID: CM243
IONMODE: Negative
COLLISIONENERGY: 40±20eV
INSTRUMENTTYPE: AB SCIEX
INSTRUMENT: Q-TOF
Comment:  
Num Peaks: 29
59.01387	18139.0
225.11322	2114.0
147.07991	540.0
97.06515	507.0
81.03353	288.0
135.08121	230.0
95.04965	166.0
57.03272	94.0
81.03088	85.0
151.10944	82.0
165.09132	69.0
181.12019	64.0
207.09929	57.0
91.05499	55.0
119.04891	50.0
163.11429	50.0
149.09863	42.0
53.03845	42.0
133.06403	37.0
109.06461	36.0
69.03424	34.0
107.05009	30.0
125.0583	22.0
145.06198	17.0
83.04695	15.0
69.02855	14.0
129.05069	13.0
117.06772	13.0
77.03611	12.0

MSID: 8962
ID: 415
RETENTIONTIME: 30.74582
PRECURSORMZ: 355.1548
AREA: 4950758.5
PRECURSORTYPE: [M-H]-
SMILES: COC1C2C(=O)C(O)=C(C(C)C)C(=O)C2=CCC2=C1C=C(OC)C=C2C
NAME: fruticulin C
FORMULA: C21H24O5
INCHIKEY: YJHITRZMQVMYLB-UHFFFAOYSA-N
CAS: nan
Molecular Weight: 356.419
Number of References: 1
Class: Secoabietane diterpenoids
Superclass: Diterpenoids
Pathway: Terpenoids
ppm: 0.2500000000509317
CMID: CM243
IONMODE: Negative
COLLISIONENERGY: 40±20eV
INSTRUMENTTYPE: AB SCIEX
INSTRUMENT: Q-TOF
Comment:  
Num Peaks: 115
295.13412	54980.0
59.01384	15766.0
279.10153	12044.0
355.15298	2954.0
280.11023	2854.0
251.10791	1284.0
267.13919	997.0
277.12387	901.0
265.08804	625.0
252.07872	495.0
240.0775	445.0
264.07816	435.0
237.09163	406.0
225.05435	379.0
236.08395	307.0
211.04118	236.0
235.07541	233.0
262.09744	191.0
294.12558	174.0
252.11758	173.0
249.12709	163.0
266.09186	155.0
212.04816	151.0
263.07178	147.0
221.0587	132.0
184.05371	129.0
197.06029	128.0
223.07545	101.0
250.06154	91.0
251.09705	91.0
236.07643	87.0
251.07687	81.0
222.06885	76.0
183.04539	74.0
294.14572	67.0
293.11542	63.0
253.08566	62.0
261.09326	60.0
247.07098	59.0
209.05705	59.0
224.07994	58.0
234.10498	58.0
226.06474	57.0
278.09631	55.0
208.08969	52.0
294.16254	50.0
234.06602	47.0
278.13062	47.0
238.09996	47.0
276.10919	45.0
239.06802	44.0
267.1008	44.0
233.05882	43.0
198.06645	43.0
233.10217	42.0
238.06218	41.0
254.09306	40.0
263.10513	40.0
223.06961	39.0
249.09154	39.0
208.05154	35.0
249.056	35.0
248.12035	33.0
251.06757	32.0
295.10889	32.0
239.14221	32.0
259.11279	31.0
58.82217	31.0
219.08154	31.0
236.05084	30.0
207.08229	29.0
227.06854	28.0
279.04919	27.0
340.09811	26.0
283.0813	26.0
189.25667	26.0
217.30379	25.0
199.03651	25.0
296.13763	25.0
294.11215	25.0
275.10284	25.0
195.04878	25.0
195.64006	25.0
265.12311	25.0
261.08377	25.0
295.6828	24.0
163.81284	24.0
265.05933	23.0
202.05832	23.0
59.34229	23.0
294.92218	23.0
280.50699	23.0
170.03871	23.0
211.02553	22.0
267.07999	22.0
235.05139	22.0
292.44012	22.0
155.05066	22.0
221.05142	22.0
224.04475	21.0
224.83844	21.0
244.08311	21.0
193.06665	20.0
217.10461	20.0
216.07704	20.0
199.07381	20.0
194.37375	19.0
218.071	17.0
201.88713	17.0
187.59386	16.0
248.08485	16.0
209.09669	15.0
275.09634	13.0
81.45364	12.0
108.55484	12.0

MSID: 8963
ID: 31
RETENTIONTIME: 10.6998
PRECURSORMZ: 927.1841
AREA: 4888412.0
PRECURSORTYPE: [2M-H]-
SMILES: C[C@@H]1O[C@@H](OC2=C(OC3=CC(O)=CC(O)=C3C2=O)C2=CC(O)=C(O)C(O)=C2)[C@H](O)[C@H](O)[C@H]1O
NAME: myricitrin
FORMULA: C21H20O12
INCHIKEY: DCYOADKBABEMIQ-OWMUPTOHSA-N
CAS: 17912-87-7
Molecular Weight: 464.383
Number of References: 532
Class: Flavonols
Superclass: Flavonoids
Pathway: Shikimates and Phenylpropanoids
ppm: 0.4824999999755164
CMID: CM243
IONMODE: Negative
COLLISIONENERGY: 40±20eV
INSTRUMENTTYPE: AB SCIEX
INSTRUMENT: Q-TOF
Comment:  
Num Peaks: 266
463.08682	119098.0
301.03461	16043.0
927.18286	2993.0
300.02618	2647.0
464.09045	634.0
299.0195	108.0
302.03787	85.0
462.07373	85.0
465.09094	83.0
461.56235	82.0
227.03603	78.0
461.54343	61.0
461.0723	58.0
343.04993	54.0
461.5813	47.0
175.03972	44.0
255.02733	42.0
927.13513	41.0
228.04346	38.0
462.69916	36.0
164.98428	36.0
283.02029	36.0
201.01978	36.0
183.04535	33.0
305.06119	33.0
201.05449	33.0
239.03465	32.0
297.0415	32.0
299.55484	32.0
299.99738	32.0
464.13477	32.0
216.04245	32.0
307.17203	32.0
461.52029	32.0
463.68759	31.0
200.04767	31.0
308.83392	31.0
302.22171	30.0
461.92639	29.0
199.03923	28.0
462.73074	28.0
467.27087	27.0
237.01619	27.0
303.09399	27.0
300.99384	27.0
318.42929	26.0
304.85083	26.0
316.5361	26.0
469.72113	26.0
330.78439	26.0
301.6619	26.0
340.41959	26.0
464.25925	25.0
137.02405	25.0
464.05035	25.0
311.07175	25.0
312.65585	25.0
165.9883	25.0
306.71909	25.0
301.349	25.0
342.79965	25.0
256.03702	25.0
300.26202	24.0
305.29556	24.0
306.47733	24.0
303.68414	24.0
92.29352	24.0
339.45361	24.0
321.54913	24.0
184.57881	24.0
187.03894	24.0
203.03244	24.0
353.24356	24.0
328.31161	24.0
94.83204	24.0
321.46133	24.0
323.05756	23.0
326.31137	23.0
314.89874	23.0
292.02658	23.0
190.99443	23.0
308.29724	23.0
463.8732	23.0
306.41733	22.0
304.95172	22.0
400.54324	22.0
305.7988	22.0
462.42114	22.0
307.64935	22.0
331.73438	22.0
299.6362	22.0
211.03828	22.0
256.91998	22.0
271.02493	21.0
102.83089	21.0
496.54037	21.0
357.69498	21.0
229.05164	21.0
312.85153	21.0
309.18683	21.0
927.2395	21.0
301.53433	21.0
324.34198	20.0
304.2749	20.0
282.01459	20.0
337.89655	20.0
135.04242	19.0
302.92181	19.0
333.83163	19.0
317.8616	19.0
241.01151	19.0
243.0316	19.0
214.881	19.0
134.03604	19.0
349.32315	18.0
345.59753	18.0
369.1214	18.0
458.29456	18.0
463.96387	18.0
326.8299	17.0
371.91681	17.0
302.86557	17.0
197.77573	17.0
461.474	17.0
263.13684	17.0
240.03951	17.0
438.51096	17.0
164.01089	16.0
402.66663	16.0
430.40762	16.0
313.32285	15.0
512.42255	14.0
593.80695	14.0
799.50653	14.0
732.24231	14.0
926.17822	14.0
683.12811	14.0
634.90411	14.0
629.14331	14.0
511.33249	14.0
625.87823	14.0
612.99017	14.0
604.16534	14.0
596.80072	14.0
470.55136	14.0
471.31	14.0
791.92664	14.0
473.21042	14.0
488.47336	14.0
505.25443	14.0
516.86786	14.0
495.89252	14.0
556.79425	14.0
474.07141	14.0
491.3887	14.0
492.46167	14.0
484.7276	14.0
479.03528	14.0
439.48969	13.0
126.04356	13.0
435.88391	13.0
444.12918	13.0
446.06296	13.0
207.94133	13.0
451.45245	13.0
293.9408	13.0
453.22278	13.0
455.9935	13.0
432.10571	13.0
435.0665	13.0
155.04819	13.0
206.35995	13.0
203.33675	13.0
201.8857	13.0
194.92157	13.0
194.64549	13.0
172.04811	13.0
167.37143	13.0
149.99669	13.0
145.02531	13.0
139.00049	13.0
129.7446	13.0
431.01938	13.0
287.85458	13.0
273.01474	13.0
425.76172	13.0
419.31223	13.0
355.14923	13.0
350.44785	13.0
347.71069	13.0
345.92349	13.0
343.5162	13.0
211.72881	13.0
416.36969	13.0
217.90466	13.0
220.29927	13.0
334.6355	13.0
221.62248	13.0
222.72597	13.0
225.00729	13.0
226.02052	13.0
232.60899	13.0
235.13991	13.0
280.08887	13.0
245.04327	13.0
247.33113	13.0
275.80652	13.0
249.50896	13.0
251.8315	13.0
252.24504	13.0
253.45964	13.0
257.60635	13.0
260.58868	13.0
264.16721	13.0
266.21802	13.0
267.31201	13.0
269.28336	13.0
351.64963	13.0
341.37604	13.0
409.96225	13.0
406.2056	13.0
395.45404	13.0
393.72083	13.0
389.99503	13.0
388.39154	13.0
386.27347	13.0
384.76987	13.0
286.66788	13.0
209.75987	13.0
380.85358	13.0
404.06107	13.0
378.84955	13.0
398.59946	13.0
377.20831	13.0
374.1297	13.0
366.88025	13.0
358.47144	13.0
360.16064	13.0
362.15936	13.0
414.32202	13.0
363.17947	13.0
364.88348	13.0
412.07068	13.0
369.60886	13.0
372.98651	13.0
295.21481	13.0
397.18912	13.0
912.55243	12.0
758.66016	12.0
727.76294	12.0
773.67126	12.0
693.97186	12.0
130.30069	12.0
638.784	12.0
623.66791	12.0
610.3866	12.0
589.3006	12.0
583.03906	12.0
553.40955	12.0
520.9613	12.0
178.99527	12.0
501.94925	12.0
498.89114	12.0
160.61369	12.0
483.01941	12.0
591.85413	12.0

MSID: 8964
ID: 615
RETENTIONTIME: 36.07852
PRECURSORMZ: 279.2317
AREA: 4809458.5
PRECURSORTYPE: [M-H]-
SMILES: CCCCC\C=C/C\C=C/CCCCCCCC(O)=O
NAME: linoleic acid
FORMULA: C18H32O2
INCHIKEY: OYHQOLUKZRVURQ-HZJYTTRNSA-N
CAS: 60-33-3
Molecular Weight: 280.451
Number of References: 35962
Class: Unsaturated fatty acids
Superclass: Fatty Acids and Conjugates
Pathway: Fatty acids
ppm: -0.7049999999821921
CMID: CM243
IONMODE: Negative
COLLISIONENERGY: 40±20eV
INSTRUMENTTYPE: AB SCIEX
INSTRUMENT: Q-TOF
Comment:  
Num Peaks: 1
279.23181	2475.0

MSID: 8965
ID: 646
RETENTIONTIME: 37.0227
PRECURSORMZ: 281.2484
AREA: 4729549.5
PRECURSORTYPE: [M-H]-
SMILES: CCCCCCCC\C=C/CCCCCCCC(O)=O
NAME: cis-Octadecenoic acid
FORMULA: C18H34O2
INCHIKEY: ZQPPMHVWECSIRJ-KTKRTIGZSA-N
CAS: 112-80-1
Molecular Weight: 282.467
Number of References: 60346
Class: Unsaturated fatty acids
Superclass: Fatty Acids and Conjugates
Pathway: Fatty acids
ppm: 0.34500000003845344
CMID: CM243
IONMODE: Negative
COLLISIONENERGY: 40±20eV
INSTRUMENTTYPE: AB SCIEX
INSTRUMENT: Q-TOF
Comment:  
Num Peaks: 31
281.24838	18457.0
281.21555	36.0
263.23499	28.0
190.83182	25.0
280.31308	19.0
186.92354	16.0
111.08015	14.0
187.95857	13.0
213.65369	13.0
153.48262	13.0
155.88193	13.0
156.63109	13.0
256.11035	13.0
251.42574	13.0
249.22409	13.0
237.04906	13.0
220.76581	13.0
189.12842	13.0
217.30634	13.0
209.70572	13.0
207.43301	13.0
127.55521	13.0
200.38689	13.0
199.34579	13.0
197.46848	13.0
194.79692	13.0
191.85454	13.0
183.79578	13.0
205.01001	13.0
261.94644	12.0
277.09247	12.0

MSID: 8966
ID: 65
RETENTIONTIME: 12.86872
PRECURSORMZ: 623.1974
AREA: 4582900.0
PRECURSORTYPE: [M-H]-
SMILES: C[C@@H]1O[C@@H](O[C@@H]2[C@@H](O)[C@H](OCCC3=CC(O)=C(O)C=C3)O[C@H](CO)[C@H]2OC(=O)\C=C\C2=CC(O)=C(O)C=C2)[C@H](O)[C@H](O)[C@H]1O
NAME: Acteoside
FORMULA: C29H36O15
INCHIKEY: FBSKJMQYURKNSU-ZLSOWSIRSA-N
CAS: nan
Molecular Weight: 624.596
Number of References: 3389
Class: Cinnamic acids and derivatives
Superclass: Phenylethanoids (C6-C2)
Pathway: Shikimates and Phenylpropanoids
ppm: -0.1999999999497959
CMID: CM243
IONMODE: Negative
COLLISIONENERGY: 40±20eV
INSTRUMENTTYPE: AB SCIEX
INSTRUMENT: Q-TOF
Comment:  
Num Peaks: 264
623.19696	66147.0
161.02501	47747.0
461.16553	10530.0
133.02913	3956.0
135.04491	2709.0
113.02512	1674.0
179.03485	1249.0
315.10782	1152.0
132.02129	616.0
299.05551	416.0
297.09601	389.0
59.01317	340.0
89.02475	326.0
85.02916	258.0
153.05389	241.0
71.01407	237.0
284.03482	201.0
353.06561	195.0
533.12671	150.0
477.14108	137.0
133.02122	134.0
119.03513	127.0
134.03625	117.0
443.16251	113.0
143.03351	110.0
95.0125	101.0
161.01506	89.0
203.03416	79.0
181.05315	70.0
101.0238	69.0
117.03604	65.0
305.06509	64.0
131.03635	60.0
162.02814	59.0
178.02473	59.0
251.05394	56.0
233.04417	54.0
163.0594	51.0
325.07303	50.0
123.045	50.0
621.12811	49.0
339.05194	49.0
87.00818	48.0
103.03771	46.0
338.04651	46.0
135.02785	46.0
160.01384	45.0
57.03351	44.0
462.1734	44.0
231.06462	44.0
443.0986	42.0
125.02447	41.0
160.48863	41.0
211.06137	34.0
623.09674	34.0
163.04065	33.0
623.15051	33.0
133.00201	33.0
461.09613	32.0
416.974	32.0
323.07568	31.0
55.01788	31.0
105.03336	31.0
191.0394	27.0
416.32037	27.0
71.00499	27.0
487.13965	27.0
189.0549	27.0
355.08334	27.0
461.22443	26.0
279.08719	26.0
298.04367	26.0
315.08176	26.0
303.22745	26.0
459.12793	26.0
400.14807	26.0
407.88757	26.0
622.13647	26.0
383.07236	25.0
413.07779	25.0
422.99057	25.0
622.62506	25.0
163.00189	25.0
221.04298	24.0
177.05003	24.0
90.66676	24.0
325.09952	24.0
397.33026	24.0
132.59801	24.0
401.83255	24.0
159.04042	24.0
427.26706	24.0
429.15164	24.0
417.16602	24.0
621.08661	23.0
550.73212	23.0
131.99878	23.0
395.07697	23.0
422.29602	23.0
353.05273	23.0
461.06671	23.0
477.12396	22.0
407.60876	22.0
406.70377	22.0
440.13727	22.0
477.72949	22.0
459.64633	21.0
111.63022	21.0
149.04257	21.0
89.96133	21.0
136.0482	21.0
403.03287	21.0
90.18625	21.0
83.15326	21.0
511.46173	21.0
282.05286	20.0
341.06183	20.0
131.55812	20.0
72.03606	19.0
433.78741	19.0
110.89064	19.0
425.94629	19.0
203.06766	18.0
233.0367	18.0
337.0354	18.0
236.98491	18.0
73.02852	18.0
85.02103	18.0
421.21405	18.0
249.07796	18.0
137.06439	17.0
327.37946	16.0
109.03096	15.0
245.04672	15.0
195.06271	15.0
515.2514	14.0
484.24338	14.0
516.24329	14.0
521.35559	14.0
479.59561	14.0
540.2229	14.0
544.39386	14.0
555.16956	14.0
147.04085	14.0
570.71313	14.0
577.86365	14.0
523.68811	14.0
579.20386	14.0
453.94928	14.0
469.95749	14.0
619.05286	14.0
502.72702	14.0
506.59445	14.0
500.60822	14.0
496.67865	14.0
507.89349	14.0
605.13672	14.0
472.84909	14.0
474.50296	14.0
476.43115	14.0
493.9761	14.0
490.03152	14.0
613.74786	14.0
478.28616	14.0
429.47629	13.0
464.43301	13.0
463.05804	13.0
465.65573	13.0
431.46744	13.0
455.62415	13.0
434.87723	13.0
436.24655	13.0
438.21436	13.0
458.52798	13.0
441.16922	13.0
104.01317	13.0
100.0909	13.0
445.10037	13.0
446.35739	13.0
448.32089	13.0
456.67618	13.0
449.64682	13.0
451.45316	13.0
452.617	13.0
392.31589	13.0
423.79254	13.0
117.57378	13.0
127.34	13.0
125.72733	13.0
247.38234	13.0
123.88393	13.0
254.95111	13.0
257.6445	13.0
259.92084	13.0
267.04514	13.0
269.31754	13.0
273.5332	13.0
277.24652	13.0
280.06143	13.0
121.93301	13.0
418.25879	13.0
295.09918	13.0
229.05644	13.0
223.04211	13.0
219.06299	13.0
175.0387	13.0
145.02673	13.0
139.52768	13.0
138.38486	13.0
164.06133	13.0
165.95702	13.0
171.04538	13.0
180.03996	13.0
215.06512	13.0
187.0379	13.0
188.22101	13.0
199.89426	13.0
206.69662	13.0
209.08139	13.0
129.30792	13.0
119.58922	13.0
287.0498	13.0
300.76666	13.0
350.5419	13.0
354.41751	13.0
356.67392	13.0
358.96164	13.0
360.49951	13.0
365.06366	13.0
367.08157	13.0
371.05862	13.0
377.05869	13.0
383.04742	13.0
385.099	13.0
150.45663	13.0
393.54465	13.0
395.78189	13.0
398.80539	13.0
411.53278	13.0
115.91682	13.0
106.94382	13.0
321.98703	13.0
321.04062	13.0
305.74963	13.0
306.93228	13.0
309.07022	13.0
311.42123	13.0
313.6077	13.0
114.09476	13.0
112.0341	13.0
317.22867	13.0
323.98456	13.0
330.39499	13.0
334.78113	13.0
109.69457	13.0
345.37784	13.0
347.47757	13.0
586.83417	12.0
530.11243	12.0
608.55981	12.0
614.23071	12.0
201.05618	12.0
239.40913	12.0
527.47095	12.0

MSID: 8967
ID: 238
RETENTIONTIME: 25.64087
PRECURSORMZ: 361.2022
AREA: 4550422.0
PRECURSORTYPE: [M-H]-
SMILES: [H][C@]12[C@@H](O)CC=C(C(=O)OC)[C@]1(C)CC[C@@H](CO)[C@]2(C)CCC1=COC=C1
NAME: divinatorin B
FORMULA: C21H30O5
INCHIKEY: ZCYNGZQSKJQXRJ-WJLOEWIOSA-N
CAS: nan
Molecular Weight: 362.466
Number of References: 4
Class: Secolabdane diterpenoids
Superclass: Diterpenoids
Pathway: Terpenoids
ppm: 0.7000000000516593
CMID: CM243
IONMODE: Negative
COLLISIONENERGY: 40±20eV
INSTRUMENTTYPE: AB SCIEX
INSTRUMENT: Q-TOF
Comment:  
Num Peaks: 144
299.16504	16012.0
361.202	15884.0
281.15341	11295.0
331.19049	4784.0
329.17441	3625.0
215.10779	2824.0
265.12296	2159.0
313.17889	1106.0
255.13673	671.0
243.10022	310.0
214.09785	271.0
151.07559	217.0
200.08223	207.0
311.16492	197.0
285.14441	154.0
184.08681	140.0
226.09848	132.0
230.09317	129.0
283.17014	113.0
301.18063	113.0
284.14322	105.0
225.09094	102.0
213.09315	100.0
255.13048	96.0
201.09052	95.0
202.06377	93.0
331.16199	91.0
212.08369	90.0
285.18909	87.0
229.08565	83.0
171.11551	79.0
267.13745	79.0
287.16376	77.0
256.14349	77.0
325.19955	75.0
186.0665	74.0
266.13165	72.0
245.11523	72.0
241.1209	71.0
270.12439	69.0
231.09842	65.0
185.09665	64.0
240.11681	63.0
265.10861	61.0
217.11893	58.0
313.14597	57.0
251.10622	56.0
172.05319	55.0
203.10774	54.0
269.15314	54.0
244.10745	52.0
253.12291	52.0
281.12057	51.0
215.08626	49.0
229.12567	48.0
331.14774	46.0
187.11389	46.0
279.13409	45.0
297.14606	44.0
255.18053	43.0
228.11584	42.0
243.08801	42.0
255.16644	40.0
239.10574	38.0
216.07835	38.0
215.07477	37.0
361.15921	34.0
272.1416	33.0
299.20059	32.0
204.07745	32.0
199.07509	32.0
235.14734	32.0
266.12686	31.0
265.17081	31.0
252.11122	31.0
237.15182	31.0
188.08632	30.0
187.07372	30.0
257.15695	30.0
283.13388	28.0
255.09763	28.0
269.11938	26.0
202.09717	26.0
271.16995	26.0
254.12883	26.0
241.0844	26.0
227.1053	26.0
203.07005	25.0
179.0699	25.0
159.04259	25.0
216.65309	25.0
327.16446	25.0
268.10986	25.0
272.10281	25.0
298.18176	25.0
296.14084	24.0
299.08881	24.0
314.14493	24.0
271.1264	24.0
196.05107	24.0
210.06485	24.0
256.1106	24.0
141.51244	23.0
317.16528	23.0
257.11771	23.0
177.0927	23.0
151.06717	23.0
238.09982	23.0
282.1543	23.0
174.10936	23.0
172.04807	23.0
249.1254	23.0
263.13834	22.0
261.53638	22.0
329.22238	22.0
343.1532	22.0
293.15549	22.0
211.0752	22.0
243.13992	22.0
182.87045	22.0
213.75697	21.0
250.09857	21.0
329.1442	21.0
299.121	21.0
331.11029	21.0
191.39381	21.0
359.99142	21.0
315.15588	21.0
231.13564	20.0
57.0334	20.0
285.1279	20.0
199.06126	20.0
156.05698	19.0
187.04156	19.0
189.08954	18.0
264.10983	18.0
69.03417	17.0
289.18188	17.0
258.08588	16.0
284.11679	16.0
225.07773	15.0
267.17267	15.0
192.96994	15.0
319.18628	13.0

MSID: 8968
ID: 131
RETENTIONTIME: 17.63578
PRECURSORMZ: 491.0987
AREA: 4474412.5
PRECURSORTYPE: [M-H]-
SMILES: OC(=O)[C@@H](CC1=CC=C(O)C(O)=C1)OC(=O)\C=C\C1=C2C=C(OC2=C(O)C=C1)C1=CC=C(O)C(O)=C1
NAME: salvianolic acid C
FORMULA: C26H20O10
INCHIKEY: GCJWPRRNLSHTRY-VURDRKPISA-N
CAS: nan
Molecular Weight: 492.439
Number of References: 66
Class: nan
Superclass: Lignans
Pathway: Shikimates and Phenylpropanoids
ppm: 0.8750000000077307
CMID: CM243
IONMODE: Negative
COLLISIONENERGY: 40±20eV
INSTRUMENTTYPE: AB SCIEX
INSTRUMENT: Q-TOF
Comment:  
Num Peaks: 103
311.05627	43621.0
491.09579	13543.0
267.06558	12347.0
135.04472	8110.0
265.05136	1928.0
179.03592	763.0
197.04378	660.0
134.03607	470.0
293.04666	320.0
72.9916	276.0
266.05991	255.0
239.06952	248.0
237.05392	173.0
211.07532	169.0
249.05289	143.0
238.0652	142.0
248.04475	125.0
221.06015	124.0
123.04374	122.0
193.06392	107.0
264.03995	107.0
310.05017	95.0
209.05846	87.0
219.04675	69.0
283.06482	64.0
107.04903	63.0
247.04019	63.0
250.06462	58.0
323.05588	50.0
447.10605	49.0
196.0498	48.0
222.0703	48.0
210.07065	48.0
220.05229	47.0
295.05673	44.0
310.02777	44.0
232.05228	42.0
241.0526	42.0
267.03998	41.0
248.04167	40.0
307.05539	40.0
157.02744	38.0
429.10034	38.0
265.02902	38.0
158.03407	37.0
265.07687	37.0
159.04639	36.0
151.03957	33.0
309.03882	33.0
165.0686	32.0
325.06552	32.0
183.04407	30.0
325.07788	28.0
280.07254	27.0
489.48254	26.0
403.08932	26.0
191.05132	25.0
251.06755	25.0
89.03941	25.0
197.01628	25.0
277.05212	25.0
109.02979	25.0
223.0696	25.0
204.05518	25.0
205.27962	25.0
179.02151	24.0
312.83948	24.0
91.05309	24.0
293.02319	24.0
236.04332	24.0
224.04474	24.0
267.02557	24.0
107.04599	24.0
318.02057	23.0
207.21759	23.0
134.0168	23.0
117.03905	23.0
265.0083	23.0
255.06804	23.0
219.85623	23.0
491.03503	22.0
282.05411	22.0
194.07349	22.0
173.56201	22.0
161.02229	22.0
252.04605	22.0
239.03015	21.0
117.02953	21.0
240.04108	20.0
211.31012	18.0
321.78281	16.0
135.01401	16.0
339.28952	16.0
200.3165	15.0
335.0925	14.0
230.36075	14.0
473.07843	14.0
195.04466	14.0
120.01994	12.0
77.03865	12.0
442.67966	12.0
126.64568	12.0
470.13519	12.0

MSID: 8969
ID: 611
RETENTIONTIME: 35.91067
PRECURSORMZ: 501.3564
AREA: 4456757.5
PRECURSORTYPE: [M+FA-H]-
SMILES: [H][C@@]12CC(C)(C)CC[C@@]1(CC[C@]1(C)C2=CC[C@]2([H])[C@@]3(C)CC[C@H](O)C(C)(C)[C@]3([H])CC[C@@]12C)C(O)=O
NAME: Oleanolic acid
FORMULA: C30H48O3
INCHIKEY: MIJYXULNPSFWEK-GTOFXWBISA-N
CAS: 508-02-1
Molecular Weight: 456.709
Number of References: 7125
Class: Oleanane triterpenoids
Superclass: Triterpenoids
Pathway: Terpenoids
ppm: -1.599999999996271
CMID: CM243
IONMODE: Negative
COLLISIONENERGY: 40±20eV
INSTRUMENTTYPE: AB SCIEX
INSTRUMENT: Q-TOF
Comment:  
Num Peaks: 340
455.35303	248086.0
407.33264	1049.0
409.34711	251.0
453.85181	133.0
501.3584	124.0
453.82468	108.0
393.31998	55.0
501.34741	54.0
407.30695	50.0
391.30081	49.0
456.35663	46.0
300.49231	41.0
300.60776	40.0
501.3233	39.0
299.19342	39.0
453.81216	38.0
456.86722	37.0
296.65463	37.0
301.72598	37.0
300.13763	35.0
298.37582	35.0
301.48621	34.0
303.12415	34.0
453.89563	33.0
456.21439	33.0
321.62936	32.0
405.31329	32.0
322.01587	32.0
310.54639	32.0
309.38263	32.0
305.65958	32.0
454.6658	31.0
301.3179	31.0
299.12906	31.0
299.07486	30.0
501.39566	30.0
296.97012	30.0
501.28384	29.0
298.52811	29.0
320.88867	29.0
456.55121	29.0
297.681	29.0
299.41196	29.0
331.53943	28.0
302.17865	28.0
302.29269	27.0
321.89285	27.0
299.37637	27.0
341.23978	27.0
292.74609	26.0
307.21783	26.0
293.17688	26.0
297.0849	26.0
308.93494	26.0
309.70825	26.0
311.7106	26.0
297.61511	26.0
296.46237	26.0
304.12067	26.0
303.87991	26.0
305.44733	26.0
302.32675	26.0
302.90936	26.0
337.22308	26.0
459.37823	26.0
458.22876	26.0
457.29849	26.0
457.09747	26.0
441.21301	26.0
393.30444	26.0
372.48297	26.0
367.36185	26.0
317.44568	26.0
304.25388	26.0
298.00381	26.0
332.30301	26.0
299.59161	26.0
302.46811	26.0
324.2691	26.0
322.74728	26.0
321.75232	26.0
321.49414	26.0
300.04263	25.0
300.5704	25.0
301.87399	25.0
302.77304	25.0
299.89508	25.0
320.21539	25.0
304.21631	25.0
324.5813	25.0
463.94199	25.0
379.59262	25.0
345.67157	25.0
344.20023	25.0
337.75198	25.0
333.79886	25.0
326.35504	25.0
325.78918	25.0
301.14114	25.0
318.22955	25.0
311.34418	25.0
296.84695	25.0
311.17139	25.0
310.39282	25.0
295.26309	25.0
310.17029	25.0
315.20065	25.0
305.6048	24.0
456.00732	24.0
407.37021	24.0
405.3251	24.0
361.16428	24.0
302.16501	24.0
362.50174	24.0
351.97964	24.0
305.53632	24.0
329.08511	24.0
315.55194	24.0
297.79083	24.0
300.97632	24.0
293.92853	24.0
293.48044	24.0
252.03624	24.0
300.53137	24.0
298.64822	24.0
299.85098	24.0
306.72198	23.0
456.72488	23.0
303.49765	23.0
308.44116	23.0
312.72284	23.0
306.43564	23.0
299.44247	23.0
302.61118	23.0
296.27527	23.0
307.97354	23.0
296.57706	23.0
409.31937	23.0
300.65869	23.0
307.36032	23.0
335.19046	23.0
294.44754	23.0
290.4902	22.0
296.08145	22.0
292.57355	22.0
318.62973	22.0
501.2619	22.0
341.05527	22.0
325.87756	22.0
327.33054	22.0
375.26071	22.0
301.45221	22.0
302.00333	22.0
304.42984	22.0
297.76044	22.0
304.0148	22.0
303.33902	22.0
456.62653	21.0
300.69437	21.0
468.22311	21.0
459.9787	21.0
299.64584	21.0
457.80331	21.0
355.51596	21.0
457.68808	21.0
404.14307	21.0
301.18701	21.0
304.70157	21.0
312.34372	21.0
291.31696	21.0
298.32339	21.0
295.8877	21.0
454.87045	21.0
306.20599	20.0
301.39438	20.0
296.53488	20.0
453.7767	20.0
309.07782	20.0
391.29114	20.0
302.39658	20.0
299.26456	20.0
312.42505	20.0
252.84686	19.0
456.32315	19.0
256.26071	19.0
329.86722	19.0
306.25739	19.0
295.99887	19.0
299.35095	19.0
297.01401	18.0
338.97327	18.0
296.37473	18.0
334.54892	18.0
366.74835	18.0
298.87506	18.0
194.28191	17.0
300.02399	17.0
351.07263	17.0
336.43048	17.0
322.23203	17.0
297.57458	16.0
479.15451	16.0
327.56268	16.0
322.6347	16.0
453.47427	16.0
332.9567	16.0
203.90514	15.0
339.68942	15.0
253.30489	15.0
267.04745	15.0
285.11261	15.0
368.44	14.0
497.2446	14.0
481.44229	14.0
496.41296	14.0
492.55643	14.0
480.25479	14.0
483.24243	14.0
476.50443	14.0
471.31134	14.0
470.45071	14.0
487.93808	14.0
489.45776	14.0
475.91888	14.0
108.61177	13.0
431.68164	13.0
442.24417	13.0
211.10336	13.0
438.89377	13.0
437.73541	13.0
436.33511	13.0
434.59811	13.0
460.89697	13.0
433.19064	13.0
429.3024	13.0
444.3699	13.0
428.00885	13.0
426.38559	13.0
425.15704	13.0
422.97708	13.0
129.49463	13.0
420.9675	13.0
418.48776	13.0
417.46671	13.0
443.18167	13.0
446.7988	13.0
194.93626	13.0
190.90479	13.0
462.31506	13.0
465.03525	13.0
111.84827	13.0
469.04352	13.0
195.90549	13.0
197.3817	13.0
199.12593	13.0
192.63382	13.0
200.03209	13.0
414.19376	13.0
201.48898	13.0
189.16066	13.0
204.22269	13.0
205.5824	13.0
149.61049	13.0
114.02223	13.0
450.2706	13.0
448.6554	13.0
416.00735	13.0
369.59125	13.0
413.11227	13.0
349.18527	13.0
257.1676	13.0
254.88617	13.0
253.71495	13.0
342.29523	13.0
344.28925	13.0
347.9183	13.0
352.36005	13.0
364.15741	13.0
354.21725	13.0
356.69681	13.0
357.78326	13.0
359.76056	13.0
250.36156	13.0
248.60599	13.0
258.46637	13.0
259.55698	13.0
330.32983	13.0
260.86652	13.0
262.28244	13.0
264.03943	13.0
267.55499	13.0
271.75525	13.0
274.17728	13.0
276.80389	13.0
277.92758	13.0
279.87863	13.0
281.14481	13.0
282.70029	13.0
286.65082	13.0
288.51907	13.0
103.0155	13.0
412.72623	13.0
362.72925	13.0
365.82437	13.0
221.23593	13.0
394.19443	13.0
395.0484	13.0
397.41486	13.0
398.95468	13.0
401.80374	13.0
224.40358	13.0
406.07266	13.0
247.3692	13.0
219.91679	13.0
216.343	13.0
214.23801	13.0
408.11963	13.0
213.42464	13.0
409.73752	13.0
230.13295	13.0
391.34537	13.0
234.48375	13.0
390.21292	13.0
370.88199	13.0
244.57399	13.0
373.21854	13.0
375.62881	13.0
377.02512	13.0
239.95413	13.0
381.13962	13.0
382.29523	13.0
384.52719	13.0
385.61487	13.0
387.13361	13.0
388.01657	13.0
100.5388	13.0
493.51102	12.0
187.87794	12.0
136.17114	12.0
226.75243	12.0

MSID: 8970
ID: 111
RETENTIONTIME: 15.18205
PRECURSORMZ: 923.226
AREA: 4434711.5
PRECURSORTYPE: [2M-H]-
SMILES: COC1=C(O[C@@H]2O[C@H](CO)[C@@H](O)[C@H](O)[C@H]2O)C=C2OC(=CC(=O)C2=C1O)C1=CC=C(O)C=C1
NAME: tectoridin
FORMULA: C22H22O11
INCHIKEY: GCLAFEGUXXHIFT-IWLDQSELSA-N
CAS: 17680-84-1
Molecular Weight: 462.41
Number of References: 64
Class: Flavones
Superclass: Flavonoids
Pathway: Shikimates and Phenylpropanoids
ppm: 0.6975000000011278
CMID: CM243
IONMODE: Negative
COLLISIONENERGY: 40±20eV
INSTRUMENTTYPE: AB SCIEX
INSTRUMENT: Q-TOF
Comment:  
Num Peaks: 440
461.10883	100692.0
283.02408	3556.0
299.05557	1406.0
462.11243	1153.0
446.08441	1094.0
298.04709	707.0
297.04034	576.0
284.0332	421.0
285.03918	279.0
923.22876	233.0
269.04446	157.0
255.0309	141.0
227.0379	77.0
341.06912	77.0
163.00191	64.0
183.04301	59.0
282.05453	56.0
459.57294	50.0
311.05328	46.0
313.03745	45.0
283.00101	42.0
326.04135	31.0
178.9982	31.0
446.05753	30.0
459.60022	29.0
341.05466	29.0
268.03665	28.0
310.04721	28.0
135.00624	27.0
297.01501	27.0
211.04149	26.0
299.02676	26.0
227.02904	24.0
447.09018	24.0
164.97954	22.0
429.08072	21.0
295.02017	20.0
282.97958	20.0
300.06064	20.0
300.5256	19.0
308.24963	19.0
280.04019	19.0
315.69397	18.0
446.03891	17.0
303.48334	17.0
462.04507	16.0
463.12344	16.0
341.02573	16.0
303.25821	16.0
329.0827	16.0
460.77664	15.0
296.38416	15.0
159.04292	15.0
256.03119	15.0
462.79263	15.0
304.04486	15.0
303.05359	15.0
459.53726	15.0
281.03906	15.0
544.22491	14.0
187.0406	14.0
923.13654	14.0
923.34186	14.0
298.18237	14.0
304.60007	14.0
336.0043	13.0
326.77911	13.0
331.43182	13.0
302.31418	13.0
302.73148	13.0
301.29852	13.0
322.38083	13.0
325.2373	13.0
306.42471	13.0
312.24786	13.0
310.24725	13.0
310.01788	13.0
309.41125	13.0
308.94116	13.0
314.46329	13.0
308.09662	13.0
317.16766	13.0
318.95953	13.0
306.45386	13.0
319.11697	13.0
303.79221	13.0
305.98602	13.0
305.74625	13.0
305.72058	13.0
305.62811	13.0
305.56305	13.0
305.34912	13.0
320.13589	13.0
342.6951	13.0
304.78812	13.0
324.53833	13.0
299.58755	13.0
311.14658	13.0
299.38419	13.0
294.67545	13.0
239.0381	13.0
371.07187	13.0
297.7395	13.0
255.009	13.0
462.24506	13.0
462.18613	13.0
462.52933	13.0
295.20016	13.0
298.02005	13.0
462.72943	13.0
211.98573	13.0
247.0498	13.0
189.99728	13.0
459.7157	13.0
460.12524	13.0
185.02376	13.0
354.03604	13.0
460.42566	13.0
306.22247	12.0
462.01981	12.0
319.61047	12.0
261.81253	12.0
320.9968	12.0
304.85992	12.0
460.66315	12.0
305.59045	12.0
239.03052	12.0
306.24301	12.0
309.30618	12.0
135.00282	12.0
136.98647	12.0
310.95831	12.0
464.16299	12.0
309.9765	12.0
309.82654	12.0
463.04337	12.0
460.50763	12.0
308.72949	12.0
207.79768	12.0
307.30472	12.0
307.061	12.0
318.82489	12.0
234.00046	12.0
311.78256	12.0
304.68384	12.0
299.35538	12.0
297.08084	12.0
333.8501	12.0
300.94168	12.0
300.99435	12.0
331.77063	12.0
298.00146	12.0
301.56375	12.0
301.76105	12.0
302.13373	12.0
302.556	12.0
364.59982	12.0
326.18283	12.0
338.91135	12.0
325.97592	12.0
354.19269	12.0
323.61279	12.0
345.3324	12.0
299.89951	12.0
299.98431	12.0
303.97314	12.0
333.7392	12.0
299.13348	12.0
284.0101	12.0
325.89636	12.0
368.1387	11.0
465.61987	11.0
313.14142	11.0
313.99112	11.0
337.90253	11.0
462.91904	11.0
495.53143	11.0
323.05637	11.0
315.57565	11.0
316.78061	11.0
322.42126	11.0
329.67276	11.0
326.91367	11.0
377.43533	11.0
397.08636	11.0
436.18323	11.0
325.11722	11.0
461.95245	11.0
461.80933	11.0
321.21265	11.0
460.81027	11.0
324.12387	11.0
331.16446	11.0
319.90466	11.0
311.24503	11.0
295.39706	11.0
297.22772	11.0
302.40103	11.0
305.22934	11.0
298.61203	11.0
305.06854	11.0
299.8656	11.0
304.91464	11.0
304.75562	11.0
300.21503	11.0
300.31516	11.0
304.40356	11.0
304.08926	11.0
302.90359	11.0
302.89166	11.0
302.7843	11.0
306.59442	11.0
298.54095	11.0
308.40265	11.0
282.96475	11.0
308.83102	11.0
208.91721	11.0
182.0322	11.0
219.9045	11.0
332.04715	10.0
177.98686	10.0
463.63147	10.0
301.39032	10.0
300.9281	10.0
300.7854	10.0
300.67334	10.0
337.80713	10.0
300.55957	10.0
330.32385	10.0
192.00571	10.0
338.39954	10.0
445.99341	10.0
225.05762	10.0
296.2746	10.0
461.59683	10.0
300.15903	10.0
460.57486	10.0
299.24017	10.0
363.04388	10.0
279.02835	10.0
282.09567	10.0
460.25757	10.0
401.41656	10.0
405.59271	10.0
283.0603	10.0
296.99814	10.0
301.66751	10.0
297.19394	10.0
305.53397	10.0
303.38953	10.0
313.47421	10.0
321.43381	10.0
310.13516	10.0
322.73434	10.0
307.97116	10.0
304.45822	10.0
323.73438	10.0
303.73245	10.0
94.8446	10.0
307.15198	10.0
302.93768	10.0
326.69415	10.0
310.99802	10.0
302.46063	10.0
308.51273	10.0
306.05283	10.0
327.21475	10.0
319.7453	10.0
304.98987	10.0
316.49832	9.0
460.40256	9.0
316.02463	9.0
316.18655	9.0
459.46799	9.0
364.31754	9.0
320.90381	9.0
315.39301	9.0
316.94098	9.0
297.59082	9.0
317.48865	9.0
355.3584	9.0
94.47492	9.0
346.36499	9.0
465.30298	9.0
329.60519	9.0
264.47336	9.0
348.70905	9.0
326.99158	9.0
343.21194	9.0
468.30103	9.0
200.21979	9.0
314.0744	9.0
303.93219	9.0
303.66251	9.0
312.55078	9.0
334.1991	9.0
306.79852	8.0
327.48761	8.0
460.73251	8.0
205.19997	8.0
309.25281	8.0
311.97971	8.0
309.04102	8.0
268.8999	8.0
312.72046	8.0
328.75235	8.0
332.81848	8.0
298.81851	8.0
301.14047	8.0
321.59711	8.0
301.50253	8.0
299.52994	8.0
368.539	8.0
321.77628	8.0
298.67126	8.0
277.03461	7.0
262.47052	7.0
359.86395	7.0
358.80215	7.0
357.0014	7.0
341.34406	7.0
355.84592	7.0
343.33716	7.0
346.70587	7.0
260.1546	7.0
349.2597	7.0
382.38846	7.0
265.01349	7.0
266.12741	7.0
350.56763	7.0
339.2774	7.0
352.11682	7.0
271.47052	7.0
273.91721	7.0
270.04288	7.0
381.25757	7.0
334.74713	7.0
504.3576	7.0
760.12677	7.0
645.33838	7.0
609.09875	7.0
581.08148	7.0
556.66809	7.0
546.48663	7.0
533.40045	7.0
524.80927	7.0
521.93048	7.0
518.21436	7.0
513.05096	7.0
499.70819	7.0
364.83173	7.0
490.66479	7.0
487.17645	7.0
482.77277	7.0
481.17969	7.0
479.36838	7.0
477.05774	7.0
473.6246	7.0
472.65326	7.0
470.33551	7.0
468.93912	7.0
466.57336	7.0
361.10782	7.0
275.45258	7.0
285.06235	7.0
424.06076	7.0
421.55585	7.0
419.74219	7.0
417.99454	7.0
416.06873	7.0
414.71353	7.0
411.086	7.0
409.73499	7.0
408.70486	7.0
287.51294	7.0
375.336	7.0
404.2803	7.0
403.08798	7.0
378.06534	7.0
399.62332	7.0
398.02554	7.0
379.71796	7.0
394.58279	7.0
393.42621	7.0
392.40906	7.0
390.83932	7.0
390.11368	7.0
387.86746	7.0
386.72656	7.0
386.02399	7.0
383.7301	7.0
423.51645	7.0
406.14905	7.0
425.75436	7.0
444.59857	7.0
288.97601	7.0
365.93988	7.0
457.54514	7.0
456.19504	7.0
455.44028	7.0
453.84921	7.0
452.73376	7.0
428.45413	7.0
290.23755	7.0
292.11914	7.0
293.17453	7.0
369.78647	7.0
448.07632	7.0
438.94247	7.0
371.76639	7.0
432.16141	7.0
429.64481	7.0
433.48975	7.0
372.92474	7.0
437.95413	7.0
374.54907	7.0
440.02847	7.0
441.54166	7.0
443.18527	7.0
431.33325	7.0
602.73987	6.0
755.94769	6.0
666.44464	6.0
920.21112	6.0
648.19745	6.0
146.98744	6.0
612.93304	6.0
140.71936	6.0
176.00528	6.0
595.02802	6.0
576.64264	6.0
501.86237	6.0
551.29999	6.0
167.05513	6.0
539.01501	6.0
535.40161	6.0
514.65594	6.0
506.33228	6.0
493.98709	6.0
561.46106	6.0

MSID: 8971
ID: 443
RETENTIONTIME: 31.12403
PRECURSORMZ: 297.1492
AREA: 4388708.5
PRECURSORTYPE: [M-H]-
SMILES: CC(C)C1=C(O)C(=O)C2=C(C=CC3=C2CCCC3(C)C)C1=O
NAME: deoxyneocryptotanshinone
FORMULA: C19H22O3
INCHIKEY: BIDSIGUBHQOWEC-UHFFFAOYSA-N
CAS: 27468-20-8
Molecular Weight: 298.382
Number of References: 13
Class: Abietane diterpenoids
Superclass: Diterpenoids
Pathway: Terpenoids
ppm: 0.13000000001284207
CMID: CM243
IONMODE: Negative
COLLISIONENERGY: 40±20eV
INSTRUMENTTYPE: AB SCIEX
INSTRUMENT: Q-TOF
Comment:  
Num Peaks: 182
297.14902	69817.0
281.11853	16008.0
282.12592	14728.0
241.08559	12235.0
267.10187	8691.0
269.15274	4446.0
280.10968	2965.0
266.09451	2608.0
226.0643	2456.0
239.10692	1992.0
197.05989	1978.0
213.09143	1911.0
198.06744	1803.0
252.07822	1747.0
254.12846	1243.0
225.05391	1055.0
265.08591	741.0
253.12411	703.0
251.07018	703.0
223.07648	414.0
238.0602	374.0
296.14041	355.0
194.07448	330.0
224.08243	329.0
235.11247	268.0
209.06088	267.0
237.05498	258.0
211.03792	247.0
279.10263	232.0
237.09117	202.0
253.08672	199.0
269.12543	186.0
220.0882	182.0
240.08005	172.0
264.11423	170.0
170.03709	157.0
224.04724	150.0
254.09256	149.0
239.06906	146.0
295.13351	138.0
183.04503	137.0
254.1113	132.0
249.09259	128.0
198.03023	126.0
227.0681	126.0
199.07756	123.0
238.101	108.0
208.05113	106.0
228.07855	106.0
222.06987	96.0
280.09329	95.0
253.10542	93.0
268.11108	92.0
263.1062	92.0
155.04913	90.0
242.09473	89.0
211.07347	86.0
239.08723	84.0
212.04489	84.0
225.09064	83.0
255.10039	78.0
248.08437	77.0
196.04942	75.0
282.10455	70.0
251.10431	69.0
236.04587	67.0
250.06259	67.0
265.12418	66.0
281.09229	65.0
185.05908	64.0
142.03928	63.0
241.06581	62.0
296.16907	60.0
199.03612	57.0
250.1013	57.0
229.08533	55.0
184.05069	54.0
234.10451	54.0
235.07645	52.0
221.09758	50.0
200.08194	48.0
236.08197	47.0
267.07626	46.0
185.09372	46.0
269.10294	45.0
171.08067	44.0
264.07602	43.0
195.07985	43.0
213.06142	40.0
195.04292	40.0
237.08513	40.0
169.02852	39.0
207.07625	39.0
297.12372	38.0
211.10905	37.0
279.13699	36.0
223.09987	36.0
198.1019	35.0
170.07413	35.0
210.07024	35.0
145.02742	35.0
167.04823	34.0
214.10185	34.0
241.05061	33.0
223.03845	33.0
251.14775	32.0
171.04353	32.0
240.11343	32.0
180.05644	32.0
251.05	32.0
197.10526	32.0
182.03554	31.0
221.05972	31.0
266.12009	30.0
256.10709	30.0
169.06418	30.0
207.11852	29.0
197.04065	28.0
181.06441	28.0
226.09081	28.0
265.06198	28.0
279.07645	28.0
206.07411	28.0
240.30467	28.0
234.06706	27.0
281.07422	27.0
214.06461	27.0
226.02896	27.0
206.35959	26.0
282.0881	26.0
211.14462	26.0
141.06874	25.0
254.08008	25.0
224.02818	25.0
175.07959	25.0
221.05098	25.0
297.10852	25.0
143.05061	25.0
194.05402	25.0
195.86024	25.0
132.69569	25.0
209.01416	25.0
134.41135	25.0
219.07967	24.0
210.67104	24.0
262.09534	24.0
199.06375	24.0
199.3858	24.0
201.08885	24.0
83.05122	23.0
264.09512	23.0
154.04114	23.0
193.06218	23.0
225.01424	23.0
156.93388	22.0
203.07396	22.0
130.04124	21.0
227.10794	21.0
267.06024	21.0
252.02069	21.0
200.039	21.0
247.07358	20.0
159.08437	20.0
248.06894	20.0
183.7532	20.0
158.07684	19.0
197.54269	19.0
188.04576	19.0
216.07661	19.0
194.75856	19.0
168.60609	19.0
184.03607	18.0
222.04944	18.0
211.01515	18.0
164.98399	18.0
267.47971	18.0
272.04266	17.0
296.86551	17.0
228.89417	17.0
264.06488	16.0
197.31291	15.0
249.06941	15.0

MSID: 8972
ID: 660
RETENTIONTIME: 37.9921
PRECURSORMZ: 343.1548
AREA: 4250695.5
PRECURSORTYPE: [M-H]-
SMILES: [H][C@@]12C[C@@H]3OC(=O)[C@@]1(CCCC2(C)C)C1=C3C(=O)C(C(C)C)=C(O)C1=O
NAME: columbaridione
FORMULA: C20H24O5
INCHIKEY: ZGIOOTXNBWWRKD-SULUTDIPSA-N
CAS: nan
Molecular Weight: 344.408
Number of References: 4
Class: Abietane diterpenoids
Superclass: Diterpenoids
Pathway: Terpenoids
ppm: 0.2500000000509317
CMID: CM243
IONMODE: Negative
COLLISIONENERGY: 40±20eV
INSTRUMENTTYPE: AB SCIEX
INSTRUMENT: Q-TOF
Comment:  
Num Peaks: 233
343.15482	24060.0
315.15921	20420.0
287.16525	10573.0
299.16318	2189.0
271.13272	1501.0
269.15298	1304.0
201.05569	953.0
216.07825	885.0
229.08553	792.0
259.16925	706.0
244.0752	628.0
215.07178	625.0
231.10127	518.0
243.1001	460.0
231.06406	432.0
243.06345	421.0
325.14285	420.0
187.03879	406.0
203.06995	388.0
254.12869	357.0
257.116	337.0
230.09303	318.0
297.14758	287.0
244.10886	282.0
257.08145	252.0
272.14307	238.0
188.08621	228.0
219.0639	221.0
188.04727	219.0
217.08705	208.0
218.05629	193.0
213.09161	186.0
201.04736	174.0
229.04848	172.0
179.06979	165.0
191.07141	160.0
281.15326	154.0
241.08427	144.0
203.10483	133.0
202.06087	133.0
284.13974	130.0
214.06335	123.0
253.12433	123.0
255.13972	123.0
204.08014	122.0
200.04749	121.0
282.12125	120.0
201.0918	119.0
178.06088	119.0
216.04225	115.0
256.11044	115.0
281.11716	114.0
215.033	113.0
259.09515	112.0
243.13673	111.0
215.1048	107.0
216.11423	104.0
258.08575	100.0
199.07635	99.0
285.14594	98.0
240.07722	97.0
242.09189	92.0
283.13538	91.0
228.04326	90.0
190.06563	89.0
173.06033	88.0
258.16125	87.0
175.03827	86.0
214.10347	85.0
241.12076	85.0
228.07875	84.0
269.12247	80.0
299.13098	77.0
253.15862	76.0
187.07361	75.0
343.12762	75.0
150.06734	71.0
161.06065	71.0
227.07272	67.0
203.03227	67.0
227.03288	67.0
172.05182	64.0
214.09344	64.0
151.07671	61.0
227.10666	59.0
163.039	57.0
200.08212	56.0
242.05989	56.0
266.1283	56.0
185.09654	54.0
229.06923	53.0
188.11711	52.0
185.06058	51.0
171.07954	50.0
164.08475	50.0
160.05185	50.0
267.1037	50.0
202.10263	49.0
229.12703	48.0
213.05444	48.0
243.17339	47.0
255.09904	46.0
216.03938	46.0
188.06473	46.0
228.11424	46.0
298.15283	46.0
231.05511	45.0
239.11015	45.0
173.02426	45.0
231.13699	45.0
165.09106	45.0
268.07285	44.0
226.10425	44.0
231.17422	44.0
313.14578	42.0
200.01009	42.0
271.09885	41.0
160.04813	41.0
226.02327	40.0
285.10788	39.0
297.1189	38.0
145.02873	37.0
259.12509	37.0
227.14355	36.0
176.08018	36.0
281.08102	36.0
230.06036	36.0
174.02917	35.0
175.07585	35.0
159.04498	35.0
325.11459	35.0
217.04666	35.0
186.03435	35.0
286.15552	35.0
257.15054	34.0
244.14558	34.0
174.06664	34.0
184.05084	34.0
198.03041	34.0
267.13892	33.0
270.12585	33.0
218.09967	32.0
157.06531	32.0
171.04497	32.0
238.09666	31.0
240.03625	31.0
163.07526	31.0
230.05145	30.0
164.05089	30.0
253.10564	29.0
245.15344	29.0
251.11073	29.0
160.01344	28.0
299.11407	28.0
187.05754	27.0
253.04488	27.0
211.07509	27.0
155.04805	27.0
254.10214	27.0
265.1228	26.0
202.05669	26.0
230.38576	26.0
273.00156	26.0
255.06621	25.0
215.17519	25.0
237.08986	25.0
239.07079	25.0
295.09845	25.0
199.06944	25.0
253.07603	25.0
178.05304	25.0
147.04405	25.0
170.07172	25.0
205.08582	25.0
83.05128	24.0
175.11343	24.0
299.21399	24.0
212.34749	24.0
145.06412	24.0
229.10776	24.0
133.06494	23.0
148.048	23.0
298.1427	23.0
232.0759	23.0
256.14337	23.0
254.08653	23.0
314.10657	23.0
129.0683	23.0
241.15726	23.0
236.12431	22.0
177.10825	22.0
245.11664	22.0
323.12592	22.0
197.06143	22.0
287.10385	22.0
256.73141	22.0
223.07666	22.0
209.6505	22.0
269.09195	22.0
268.1402	22.0
189.02213	22.0
217.12457	22.0
123.08163	21.0
267.06369	21.0
147.08087	21.0
282.08176	21.0
244.04919	21.0
169.06432	21.0
212.05363	21.0
187.01735	21.0
316.15961	20.0
67.02222	20.0
163.11403	20.0
144.02335	20.0
285.13104	20.0
213.01872	20.0
158.03143	20.0
225.09523	20.0
220.47644	20.0
162.0639	19.0
71.01472	19.0
315.58353	19.0
266.09317	19.0
218.04472	19.0
132.01872	19.0
195.07866	19.0
296.10193	18.0
165.08478	18.0
325.10754	18.0
167.10153	18.0
182.07137	18.0
135.04002	17.0
81.57822	12.0

MSID: 8973
ID: 422
RETENTIONTIME: 30.80878
PRECURSORMZ: 331.1906
AREA: 4216333.0
PRECURSORTYPE: [M-H]-
SMILES: [H][C@]12CCC=C(C(O)=O)[C@]1(C)CC[C@@H](C)[C@]2(C)CCC1=CCOC1=O
NAME: 16-oxo-15,16H-hardwickiic acid
FORMULA: C20H28O4
INCHIKEY: WUUOACSBQPHDQM-MPRPZVOOSA-N
CAS: nan
Molecular Weight: 332.44
Number of References: 8
Class: Colensane and Clerodane diterpenoids
Superclass: Diterpenoids
Pathway: Terpenoids
ppm: -0.33499999995001417
CMID: CM243
IONMODE: Negative
COLLISIONENERGY: 40±20eV
INSTRUMENTTYPE: AB SCIEX
INSTRUMENT: Q-TOF
Comment:  
Num Peaks: 186
331.19077	49732.0
243.13861	33951.0
301.18091	31442.0
57.03493	3441.0
230.13049	1089.0
299.1636	1045.0
287.164	679.0
231.13881	636.0
244.14592	548.0
201.09209	544.0
215.10654	491.0
229.12291	425.0
329.17291	392.0
228.11604	327.0
202.09735	250.0
203.10791	243.0
241.12262	238.0
313.18091	237.0
227.1055	225.0
271.13147	194.0
283.17203	173.0
200.0824	158.0
259.16962	130.0
285.14798	123.0
216.11742	118.0
185.05951	108.0
199.07526	107.0
300.16885	106.0
225.12787	98.0
217.12199	95.0
165.09256	87.0
287.20383	86.0
267.13608	83.0
271.16696	78.0
188.0838	64.0
284.14182	63.0
286.15591	63.0
187.07655	58.0
257.15402	57.0
303.19131	53.0
230.11861	53.0
258.12228	51.0
301.1622	50.0
213.09192	49.0
176.08302	48.0
162.06662	46.0
177.09155	44.0
214.10234	44.0
189.08836	42.0
231.12094	40.0
215.14246	37.0
242.1288	36.0
270.12622	36.0
330.0939	36.0
300.18921	36.0
242.3376	35.0
201.06015	34.0
187.04039	33.0
245.15378	31.0
283.13412	30.0
313.14624	29.0
242.30255	28.0
220.7764	28.0
297.15308	26.0
330.07254	26.0
330.1188	26.0
140.90512	25.0
170.07196	25.0
185.04884	25.0
174.06558	25.0
226.92403	25.0
249.07616	25.0
287.1275	25.0
135.08005	25.0
240.03661	24.0
267.12167	24.0
198.06514	24.0
213.12622	24.0
196.88716	24.0
187.11272	24.0
137.09406	23.0
159.04272	23.0
223.06381	23.0
230.0993	23.0
215.06776	23.0
160.84346	23.0
271.10568	23.0
195.07072	23.0
299.11957	23.0
254.1306	23.0
201.04626	23.0
173.4937	23.0
147.37457	22.0
162.0554	22.0
166.13477	22.0
241.1059	22.0
169.73114	22.0
227.3727	22.0
173.06187	21.0
231.09862	21.0
216.08142	21.0
203.03395	21.0
223.91292	21.0
221.86029	21.0
238.28592	21.0
301.14691	20.0
237.73297	20.0
301.73007	20.0
239.4498	20.0
224.19289	20.0
198.4057	20.0
225.09114	20.0
221.67508	20.0
206.218	20.0
331.14624	19.0
172.04564	19.0
241.13934	19.0
219.99718	19.0
189.05605	19.0
311.26712	18.0
168.0576	18.0
198.11063	17.0
182.0703	17.0
189.67458	17.0
181.11226	17.0
253.08574	17.0
160.04836	16.0
259.14124	16.0
236.79475	16.0
210.90184	16.0
164.0762	15.0
272.42621	14.0
273.28192	14.0
150.5694	13.0
137.92546	13.0
293.32175	13.0
296.1293	13.0
170.42078	13.0
143.08958	13.0
145.06549	13.0
298.14819	13.0
145.60384	13.0
168.3459	13.0
328.31177	13.0
309.31442	13.0
327.01068	13.0
157.66133	13.0
156.09013	13.0
154.40755	13.0
314.94583	13.0
153.6795	13.0
305.022	13.0
289.50195	13.0
148.11732	13.0
307.56879	13.0
291.77408	13.0
182.58864	13.0
287.93118	13.0
203.2838	13.0
232.5419	13.0
132.83704	13.0
108.61813	13.0
212.08102	13.0
123.07529	13.0
208.95235	13.0
247.11723	13.0
206.97667	13.0
249.77367	13.0
250.96678	13.0
255.09941	13.0
204.68802	13.0
261.12341	13.0
175.02298	13.0
264.99884	13.0
195.70175	13.0
268.1069	13.0
193.1674	13.0
191.8481	13.0
190.02135	13.0
276.20526	13.0
280.47101	13.0
235.54115	13.0
179.84535	13.0
177.99057	13.0
125.53401	13.0
114.8868	12.0

MSID: 8974
ID: 262
RETENTIONTIME: 27.13252
PRECURSORMZ: 301.1804
AREA: 4006730.5
PRECURSORTYPE: [M-H]-
SMILES: CC(C)C1=CC2=C(C(O)=C1O)C1=C(CC2)C(C)(C)CC[C@H]1O
NAME: salofficinoid E
FORMULA: C19H26O3
INCHIKEY: LWMNDYFZOAJDSH-CQSZACIVSA-N
CAS: nan
Molecular Weight: 302.414
Number of References: 1
Class: Abietane diterpenoids
Superclass: Diterpenoids
Pathway: Terpenoids
ppm: 0.03000000003794412
CMID: CM243
IONMODE: Negative
COLLISIONENERGY: 40±20eV
INSTRUMENTTYPE: AB SCIEX
INSTRUMENT: Q-TOF
Comment:  
Num Peaks: 267
301.18393	39522.0
283.17166	19055.0
267.14053	17494.0
201.09181	10045.0
217.12315	4311.0
281.15659	3864.0
215.1077	3524.0
241.12384	3459.0
265.12286	2500.0
257.15372	2227.0
299.16492	1776.0
243.13829	1133.0
200.08351	1056.0
242.13002	886.0
286.15887	876.0
252.11578	759.0
253.12282	754.0
227.10669	660.0
186.06908	634.0
251.10767	437.0
268.14664	437.0
187.07629	313.0
214.0992	310.0
202.09846	300.0
57.03408	283.0
213.09306	276.0
240.11368	251.0
285.14929	242.0
269.15463	238.0
239.10867	207.0
199.07637	194.0
185.05925	178.0
225.09232	173.0
258.08893	154.0
255.13976	145.0
238.09972	140.0
184.08939	140.0
203.10764	140.0
226.09839	132.0
216.11569	131.0
212.08217	130.0
164.0835	113.0
79.05511	113.0
237.08838	108.0
188.08488	108.0
172.0531	103.0
189.08945	94.0
300.19055	84.0
216.24672	84.0
198.06487	77.0
266.12674	76.0
239.1223	75.0
211.07938	72.0
300.17188	70.0
199.00177	68.0
223.07669	68.0
249.12531	68.0
177.09	66.0
204.63171	66.0
210.74516	63.0
250.09846	61.0
218.53232	61.0
224.08411	60.0
202.64595	58.0
228.11871	58.0
202.53305	56.0
175.03958	55.0
220.17993	55.0
245.11974	55.0
299.13953	55.0
271.13275	55.0
215.38498	54.0
197.12332	54.0
158.03882	53.0
282.24631	53.0
229.12262	52.0
208.72847	52.0
159.04375	52.0
212.12495	52.0
189.46129	51.0
217.6516	50.0
165.08981	50.0
155.87344	50.0
223.96391	49.0
281.13196	49.0
223.14545	49.0
222.75357	49.0
202.79933	49.0
218.85237	48.0
257.13174	48.0
231.66734	48.0
198.20685	48.0
161.98412	47.0
243.12303	47.0
206.35275	47.0
229.08852	47.0
223.27711	47.0
210.9229	46.0
282.15582	46.0
149.09601	46.0
279.13565	46.0
236.03857	45.0
189.0329	45.0
186.08911	45.0
212.76582	44.0
196.92538	44.0
202.04279	44.0
238.09518	43.0
199.08742	43.0
232.60432	43.0
254.13028	43.0
205.78622	43.0
191.98486	43.0
160.99106	42.0
264.16702	42.0
286.47537	42.0
243.08943	42.0
189.13255	42.0
275.79007	41.0
189.54892	41.0
197.2292	41.0
199.11092	41.0
170.60339	41.0
211.74716	40.0
197.79897	40.0
185.32845	40.0
200.83083	40.0
190.32089	40.0
193.06508	40.0
206.51315	39.0
122.03545	39.0
199.77751	39.0
197.66953	39.0
209.06392	39.0
169.37897	38.0
250.13408	38.0
201.68105	37.0
189.6487	37.0
230.099	37.0
207.33864	36.0
150.55957	36.0
208.15729	36.0
202.48985	36.0
171.07826	35.0
204.26765	35.0
210.34303	35.0
144.69046	35.0
149.05536	34.0
203.79767	34.0
133.49792	34.0
240.07271	33.0
163.92799	33.0
174.07181	33.0
242.93526	33.0
265.15634	33.0
137.6689	33.0
184.05219	33.0
239.16621	33.0
210.44957	33.0
213.05589	33.0
209.09506	33.0
198.09381	32.0
199.57132	32.0
199.35004	32.0
202.73239	31.0
286.14066	31.0
226.87947	31.0
280.14276	31.0
195.60286	31.0
200.19989	31.0
259.09677	31.0
258.12512	30.0
239.18893	30.0
205.29485	30.0
239.14804	30.0
272.35153	30.0
182.06873	29.0
172.08908	29.0
179.37134	29.0
210.11018	29.0
246.76144	29.0
225.12906	29.0
225.0791	29.0
198.89816	29.0
183.07832	29.0
203.01276	29.0
282.23315	29.0
201.29739	28.0
97.06691	28.0
200.03781	28.0
146.23531	27.0
273.18771	27.0
280.23126	27.0
57.02742	27.0
210.06618	27.0
186.47539	27.0
184.06679	27.0
184.99931	26.0
187.03746	26.0
227.35173	26.0
171.11542	26.0
186.05705	25.0
200.42719	25.0
217.09573	25.0
201.77423	25.0
242.09344	24.0
130.50185	24.0
264.11292	24.0
143.36597	24.0
202.25304	24.0
213.07877	24.0
126.52985	23.0
197.0587	23.0
244.14867	23.0
214.0863	23.0
285.0914	23.0
191.10797	23.0
257.10504	23.0
226.39445	22.0
203.37151	22.0
214.40594	22.0
174.06406	22.0
193.87962	22.0
112.98735	22.0
178.10271	22.0
208.8544	21.0
199.24496	21.0
221.09924	21.0
196.05098	21.0
247.26781	21.0
195.80562	21.0
151.07188	20.0
245.72418	20.0
184.04553	20.0
261.01074	20.0
268.522	19.0
191.22983	19.0
146.03642	19.0
135.38049	19.0
171.04112	19.0
154.44991	19.0
141.97871	18.0
247.87643	18.0
236.66185	18.0
241.54066	18.0
284.1398	18.0
139.86182	17.0
171.80016	17.0
168.05611	17.0
221.19391	17.0
263.10168	16.0
69.03248	16.0
109.06544	16.0
255.10065	16.0
157.06285	16.0
200.74757	15.0
214.86073	15.0
255.23674	15.0
115.82059	13.0
120.12817	13.0
166.68532	13.0
270.11783	13.0
175.07845	13.0
82.03079	12.0
79.44567	12.0
77.88232	12.0
65.00607	12.0

MSID: 8975
ID: 394
RETENTIONTIME: 30.42478
PRECURSORMZ: 387.1807
AREA: 3797094.5
PRECURSORTYPE: [M-H]-
SMILES: [H][C@]12C[C@H](OC(C)=O)C=C3C(=O)OC[C@@]13CC[C@@H](C)[C@]2(C)CCC1=CCOC1=O
NAME: 2β-Acetoxy-neo-clerodan-3,13-dien-18,19:16,15-diolide
FORMULA: C22H28O6
INCHIKEY: YRAFYYCSVNYHPY-ISKUZMQCSA-N
CAS: nan
Molecular Weight: 388.461
Number of References: 3
Class: Colensane and Clerodane diterpenoids
Superclass: Diterpenoids
Pathway: Terpenoids
ppm: -0.06499999994957761
CMID: CM243
IONMODE: Negative
COLLISIONENERGY: 40±20eV
INSTRUMENTTYPE: AB SCIEX
INSTRUMENT: Q-TOF
Comment:  
Num Peaks: 135
297.14951	28894.0
387.18045	8103.0
327.15921	5843.0
281.11734	2657.0
284.1416	2075.0
59.01382	1321.0
269.11783	1097.0
254.09296	435.0
282.12473	367.0
241.08444	342.0
283.13226	317.0
267.10226	275.0
253.12296	246.0
242.09511	237.0
295.12894	234.0
228.0804	230.0
229.08865	210.0
216.0784	206.0
255.13676	199.0
279.13907	196.0
345.1716	194.0
296.14258	190.0
217.12039	189.0
312.13483	187.0
264.11624	154.0
253.08713	139.0
200.08226	127.0
201.09055	121.0
238.0636	120.0
239.06944	101.0
227.06993	100.0
387.15732	97.0
231.09995	97.0
269.15961	83.0
327.12555	74.0
236.11996	74.0
237.09154	71.0
280.11011	66.0
315.15768	65.0
215.06761	64.0
202.0638	62.0
269.14352	61.0
240.07739	59.0
254.13043	58.0
210.10321	58.0
236.08385	58.0
252.07706	56.0
213.05318	56.0
213.09177	56.0
243.10179	56.0
266.09335	54.0
251.1078	52.0
267.14069	52.0
311.13043	50.0
280.14783	48.0
217.08865	47.0
263.10501	47.0
299.16168	44.0
268.1051	43.0
245.08308	43.0
297.10562	42.0
214.06494	42.0
255.10548	41.0
239.10728	40.0
187.07642	39.0
199.03642	38.0
226.06612	37.0
283.11578	36.0
197.0932	35.0
327.10431	34.0
312.11578	33.0
251.1404	33.0
225.05426	33.0
281.14853	33.0
296.16617	33.0
226.09851	32.0
228.07004	31.0
223.07536	31.0
284.09705	31.0
230.09618	31.0
309.15234	31.0
278.13211	30.0
225.09392	30.0
265.11981	29.0
249.08217	28.0
186.0318	27.0
281.08286	26.0
296.10382	26.0
295.11212	26.0
387.26907	26.0
265.08313	26.0
187.03624	26.0
253.15723	26.0
200.04486	26.0
244.07079	26.0
243.05598	26.0
268.1452	25.0
326.08316	25.0
194.07343	25.0
203.07428	25.0
207.09912	25.0
282.10333	25.0
186.07187	24.0
299.1312	24.0
221.05569	24.0
247.74709	23.0
235.10985	23.0
357.16544	23.0
241.02666	22.0
256.10748	22.0
211.0354	22.0
224.04906	21.0
163.07913	21.0
294.11707	21.0
284.06403	21.0
311.0907	21.0
212.08801	20.0
140.19218	20.0
164.08362	20.0
183.09169	20.0
198.03055	20.0
272.10611	20.0
264.09555	20.0
242.07074	19.0
151.07561	19.0
227.12158	19.0
238.96497	19.0
250.13733	18.0
252.06462	18.0
250.85182	18.0
215.4843	18.0
255.93826	17.0
208.0882	17.0
211.07524	16.0
205.55043	16.0

MSID: 8976
ID: 417
RETENTIONTIME: 30.75813
PRECURSORMZ: 403.2113
AREA: 3756400.0
PRECURSORTYPE: [M-H]-
SMILES: [H][C@]12[C@@H](O)CC=C(C(=O)OC)[C@]1(C)CC[C@@H](COC(C)=O)[C@]2(C)CCC1=COC=C1
NAME: Divinatorin D
FORMULA: C23H32O6
INCHIKEY: WVLBBIUEFLDDRO-YCSIXTNKSA-N
CAS: nan
Molecular Weight: 404.503
Number of References: 2
Class: nan
Superclass: nan
Pathway: nan
ppm: -0.7650000000012369
CMID: CM243
IONMODE: Negative
COLLISIONENERGY: 40±20eV
INSTRUMENTTYPE: AB SCIEX
INSTRUMENT: Q-TOF
Comment:  
Num Peaks: 151
281.1535	32434.0
343.18958	23694.0
313.18073	11882.0
403.2131	11856.0
59.01383	8300.0
311.1633	5623.0
265.12305	5310.0
202.06383	712.0
184.08952	406.0
361.19839	377.0
212.08519	308.0
299.16681	295.0
283.1702	282.0
237.16396	276.0
371.18631	276.0
329.1745	270.0
266.13171	221.0
229.12427	200.0
285.1875	186.0
188.08369	177.0
226.09856	172.0
240.11385	148.0
213.0918	141.0
263.14319	134.0
296.14261	133.0
269.15161	122.0
238.10141	119.0
279.13745	116.0
215.10643	116.0
253.11987	107.0
331.18881	101.0
251.10629	101.0
225.08955	99.0
187.03894	94.0
341.17343	89.0
267.13913	88.0
239.10733	85.0
293.15222	82.0
272.14166	81.0
227.10538	81.0
268.11316	81.0
255.10083	81.0
243.13695	78.0
185.09671	78.0
282.15765	74.0
228.11444	74.0
313.1478	69.0
187.07645	68.0
252.11441	68.0
229.08868	65.0
242.13019	63.0
311.1322	63.0
237.0961	61.0
229.11685	58.0
186.06923	58.0
200.08229	57.0
295.13235	57.0
214.09793	57.0
270.12607	57.0
373.20212	55.0
201.09474	54.0
371.15424	53.0
240.07744	52.0
211.07669	52.0
250.10329	49.0
175.076	48.0
329.16208	48.0
280.14294	47.0
268.14362	47.0
313.21365	43.0
343.16602	43.0
265.15335	42.0
265.10071	42.0
151.07564	41.0
253.0856	40.0
283.13727	38.0
335.21075	36.0
241.08447	36.0
255.13994	35.0
298.15649	35.0
311.10974	34.0
285.13956	34.0
278.69098	32.0
211.1151	32.0
159.04265	32.0
285.16931	32.0
241.12401	32.0
228.07747	32.0
277.12216	31.0
243.10182	31.0
267.0975	31.0
199.07515	31.0
236.08539	31.0
280.11179	29.0
244.14426	28.0
223.07832	28.0
281.11902	27.0
248.11873	26.0
295.14246	26.0
301.17392	26.0
183.04535	26.0
225.0822	25.0
210.04362	25.0
297.14615	25.0
60.37722	25.0
217.08725	25.0
403.17575	25.0
223.11342	24.0
197.43156	24.0
272.12714	24.0
333.20392	24.0
202.04155	24.0
310.15356	24.0
328.11823	24.0
186.06389	23.0
214.06067	23.0
249.09148	23.0
279.96759	23.0
209.09523	23.0
263.13205	23.0
262.13226	23.0
261.12326	23.0
216.11586	23.0
244.10753	23.0
232.12234	22.0
284.10202	22.0
235.15042	22.0
247.11095	22.0
166.52113	22.0
313.11661	22.0
312.16602	22.0
359.18561	22.0
309.14377	22.0
212.04953	22.0
161.09807	21.0
290.24039	21.0
242.10429	21.0
250.71384	21.0
252.0802	21.0
322.71793	20.0
342.06213	20.0
227.51434	20.0
216.55516	20.0
204.07051	19.0
225.04988	19.0
371.14291	19.0
191.84122	19.0
221.0965	17.0
208.90128	16.0
241.07384	15.0
50.59603	12.0

MSID: 8977
ID: 569
RETENTIONTIME: 33.34062
PRECURSORMZ: 471.3479
AREA: 3755049.5
PRECURSORTYPE: [M-H]-
SMILES: [H][C@@]12[C@@H](C)[C@H](C)CC[C@@]1(CC[C@]1(C)C2=CC[C@]2([H])[C@@]3(C)C[C@@H](O)[C@H](O)C(C)(C)[C@]3([H])CC[C@@]12C)C(O)=O
NAME: corosolic acid
FORMULA: C30H48O4
INCHIKEY: HFGSQOYIOKBQOW-ZSDYHTTISA-N
CAS: nan
Molecular Weight: 472.709
Number of References: 895
Class: Ursane and Taraxastane triterpenoids
Superclass: Triterpenoids
Pathway: Terpenoids
ppm: 0.46500000001969966
CMID: CM243
IONMODE: Negative
COLLISIONENERGY: 40±20eV
INSTRUMENTTYPE: AB SCIEX
INSTRUMENT: Q-TOF
Comment:  
Num Peaks: 106
471.34579	52816.0
393.31454	143.0
423.32196	94.0
425.34729	51.0
471.30966	39.0
469.79083	38.0
469.76959	30.0
58.00556	30.0
373.25104	26.0
409.30194	26.0
327.90869	26.0
310.92126	25.0
407.2876	25.0
308.02368	24.0
405.31958	24.0
359.14822	24.0
305.81058	23.0
310.29825	22.0
312.10696	21.0
287.19849	21.0
470.8952	21.0
330.81265	20.0
317.51929	19.0
352.60126	19.0
470.517	19.0
308.90082	18.0
425.32507	18.0
375.94623	17.0
326.56769	17.0
332.05347	17.0
313.48038	17.0
311.77832	15.0
363.4704	14.0
321.04163	14.0
371.49362	13.0
379.6178	13.0
377.10535	13.0
360.15665	13.0
374.71872	13.0
357.95221	13.0
369.46927	13.0
366.26501	13.0
355.29477	13.0
346.96948	13.0
400.17654	13.0
383.16537	13.0
385.2269	13.0
389.21384	13.0
391.29541	13.0
391.84186	13.0
397.45819	13.0
405.28806	13.0
411.6391	13.0
421.28543	13.0
221.16042	13.0
213.49495	13.0
427.2438	13.0
433.82516	13.0
468.20874	13.0
211.72153	13.0
353.23593	13.0
341.36493	13.0
351.24548	13.0
322.08646	13.0
259.52884	13.0
260.76083	13.0
263.12234	13.0
267.79236	13.0
271.48438	13.0
283.16507	13.0
299.92252	13.0
301.17203	13.0
302.77673	13.0
303.87509	13.0
349.68536	13.0
314.4903	13.0
318.17398	13.0
319.3349	13.0
306.49594	13.0
323.23511	13.0
338.58249	13.0
345.72836	13.0
342.78491	13.0
233.15279	13.0
324.53046	13.0
348.16345	13.0
339.99847	13.0
336.3931	13.0
335.19797	13.0
333.79382	13.0
332.45868	13.0
329.3573	13.0
344.08249	13.0
446.83029	12.0
237.05069	12.0
205.70337	12.0
203.52376	12.0
101.19785	12.0
438.44913	12.0
431.70447	12.0
277.85275	12.0
292.02805	12.0
296.38007	12.0
415.22916	12.0
222.54024	12.0
227.16277	12.0

MSID: 8978
ID: 495
RETENTIONTIME: 31.88488
PRECURSORMZ: 329.1759
AREA: 3740437.75
PRECURSORTYPE: [M-H]-
SMILES: CC(C)C1=C(O)C(=O)C2=C(C=CC(C)=C2CCCC(C)(C)O)C1=O
NAME: 4-hydroxy-sapriparaquinone
FORMULA: C20H26O4
INCHIKEY: SETMNJMIFBZFHB-UHFFFAOYSA-N
CAS: nan
Molecular Weight: 330.424
Number of References: 5
Class: Secoabietane diterpenoids
Superclass: Diterpenoids
Pathway: Terpenoids
ppm: 0.61500000003889
CMID: CM243
IONMODE: Negative
COLLISIONENERGY: 40±20eV
INSTRUMENTTYPE: AB SCIEX
INSTRUMENT: Q-TOF
Comment:  
Num Peaks: 178
314.15161	12859.0
298.15616	6075.0
299.16479	4253.0
329.17416	3313.0
297.14923	3289.0
285.18555	1589.0
313.14398	1158.0
283.13364	976.0
257.08139	808.0
229.08696	802.0
271.09717	651.0
271.13425	538.0
258.08725	526.0
281.11707	496.0
286.1571	460.0
230.09299	452.0
245.08133	442.0
215.07172	430.0
282.12775	406.0
269.15454	378.0
256.10883	376.0
243.06645	367.0
243.10156	347.0
201.09314	345.0
267.10364	262.0
329.14038	260.0
284.14133	247.0
311.16296	247.0
253.12271	224.0
285.11111	218.0
298.12234	201.0
231.064	201.0
241.08421	189.0
216.07819	185.0
296.1423	182.0
255.10526	181.0
214.06044	175.0
301.14471	169.0
228.0787	167.0
217.08989	164.0
268.11127	143.0
286.12067	133.0
213.05583	128.0
230.0603	122.0
254.12863	119.0
253.08533	116.0
281.15485	113.0
229.04991	108.0
228.04173	107.0
213.09157	106.0
242.09032	105.0
256.07278	103.0
241.11919	100.0
255.13496	100.0
200.05022	98.0
201.05704	96.0
227.10661	94.0
297.11209	93.0
270.15958	92.0
187.07491	92.0
266.12823	89.0
283.08917	86.0
214.10056	81.0
225.09224	78.0
215.03726	77.0
301.1821	75.0
242.05984	74.0
240.07718	73.0
244.07361	73.0
202.06221	73.0
199.07631	69.0
267.13724	69.0
270.12418	69.0
246.09418	66.0
252.07993	66.0
239.10707	65.0
243.08476	65.0
200.08206	64.0
270.09036	64.0
226.10272	64.0
267.09244	63.0
203.0685	60.0
254.09428	60.0
280.10986	58.0
272.10583	58.0
227.03282	56.0
282.16064	56.0
265.08609	55.0
266.0947	54.0
280.15082	52.0
177.05869	52.0
186.06903	51.0
295.13876	51.0
216.04077	50.0
273.11316	49.0
185.06187	49.0
223.07661	48.0
255.06459	48.0
286.1124	48.0
271.08267	47.0
257.11594	47.0
229.06917	47.0
251.07033	47.0
209.05818	46.0
199.03624	46.0
279.13715	46.0
257.15363	43.0
297.18298	43.0
251.10602	41.0
264.11279	40.0
172.04921	39.0
265.12274	39.0
213.01866	38.0
211.07646	37.0
230.07664	37.0
268.14493	37.0
212.08211	37.0
258.07468	37.0
188.04857	37.0
240.11359	36.0
273.07593	36.0
259.10141	35.0
210.06468	34.0
213.05011	34.0
258.12659	33.0
283.16989	33.0
271.15201	32.0
215.03008	31.0
173.05772	31.0
241.07205	30.0
263.10794	30.0
313.0972	29.0
198.07033	29.0
212.12061	28.0
231.10121	27.0
184.0508	27.0
218.08661	26.0
238.05582	26.0
314.19849	26.0
250.09528	26.0
299.20715	26.0
158.0351	26.0
195.41933	25.0
175.03564	25.0
215.1105	25.0
253.15388	25.0
202.09702	25.0
214.04468	25.0
277.11533	25.0
311.14569	24.0
226.06003	24.0
238.09964	24.0
211.04231	24.0
194.07187	23.0
159.04247	23.0
270.05496	23.0
235.10962	23.0
298.06824	23.0
203.51111	23.0
221.94016	22.0
183.04515	22.0
202.04272	21.0
198.72827	21.0
221.09772	21.0
180.0605	21.0
231.94159	21.0
312.13278	21.0
212.82147	20.0
252.11414	20.0
301.11923	20.0
286.09085	20.0
185.02191	20.0
237.08981	20.0
225.04964	20.0
183.44151	19.0
149.04576	18.0
217.0495	17.0
311.10941	13.0

MSID: 8979
ID: 233
RETENTIONTIME: 25.26647
PRECURSORMZ: 313.1441
AREA: 3728949.25
PRECURSORTYPE: [M-H]-
SMILES: CC(CO)C1=C(O)C(=O)C2=C(C=CC3=C2CCCC3(C)C)C1=O
NAME: neocryptotanshinone
FORMULA: C19H22O4
INCHIKEY: PKEGICXVZMKJPR-UHFFFAOYSA-N
CAS: nan
Molecular Weight: 314.381
Number of References: 1
Class: Abeoabietane diterpenoids
Superclass: Diterpenoids
Pathway: Terpenoids
ppm: 0.11499999999387
CMID: CM243
IONMODE: Negative
COLLISIONENERGY: 40±20eV
INSTRUMENTTYPE: AB SCIEX
INSTRUMENT: Q-TOF
Comment:  
Num Peaks: 111
313.14395	21104.0
280.1098	5174.0
295.13367	2318.0
279.10275	1772.0
296.14224	1382.0
265.08603	953.0
298.1189	818.0
281.11703	737.0
297.11203	638.0
269.11752	616.0
285.14746	487.0
237.09128	381.0
255.10208	292.0
264.07773	244.0
283.09735	236.0
251.11063	213.0
241.08569	197.0
222.06851	196.0
270.12573	186.0
313.13007	178.0
228.07866	159.0
229.08543	149.0
267.13721	132.0
254.09424	129.0
252.1172	127.0
266.09625	122.0
236.08209	112.0
240.07864	108.0
227.06821	101.0
235.07355	101.0
201.09311	97.0
277.12018	92.0
241.12219	82.0
225.054	82.0
250.06116	80.0
252.07678	80.0
253.08839	79.0
282.08987	76.0
238.06181	74.0
251.07184	73.0
226.06293	69.0
211.03801	63.0
280.08685	63.0
283.12866	62.0
200.08481	60.0
294.12177	60.0
297.09683	57.0
268.07114	56.0
240.04375	54.0
265.07169	52.0
262.09863	47.0
185.0605	46.0
214.06183	44.0
312.1362	44.0
263.07138	43.0
199.07489	42.0
209.09637	41.0
194.07184	40.0
296.11191	38.0
199.03758	38.0
239.07372	38.0
197.05724	38.0
227.06377	37.0
312.12408	37.0
281.09406	36.0
268.10321	36.0
298.09525	34.0
215.07169	34.0
279.06839	33.0
213.05579	33.0
171.07692	33.0
242.08113	32.0
235.10959	32.0
280.1557	32.0
229.08099	31.0
239.06009	31.0
237.05659	30.0
226.09973	29.0
249.12825	29.0
221.06273	28.0
198.06616	28.0
296.10181	27.0
225.09074	27.0
281.07764	26.0
267.06677	26.0
295.08826	26.0
212.04927	26.0
269.07898	26.0
223.07803	26.0
220.08975	25.0
207.35405	25.0
283.0578	24.0
282.07178	24.0
263.10474	24.0
183.04645	24.0
222.06122	24.0
257.07819	24.0
270.08066	23.0
261.08655	22.0
192.60944	22.0
255.06297	22.0
187.36563	21.0
186.07167	21.0
236.04898	21.0
272.1058	20.0
285.10779	20.0
239.03133	19.0
263.05231	19.0
237.05208	19.0
251.05942	18.0
298.00394	17.0

MSID: 8980
ID: 215
RETENTIONTIME: 23.64525
PRECURSORMZ: 419.1714
AREA: 3674247.0
PRECURSORTYPE: [M-H]-
SMILES: [H][C@]12[C@@H](O)[C@H](O)C=C3C(=O)OC[C@@]13C[C@@H](OC(C)=O)[C@H](C)[C@]2(C)C[C@@H](O)C1=COC=C1
NAME: Acetic acid (5R,6R,6aR,7S,8R,9R,10aS)-7-((R)-2-furan-3-yl-2-hydroxy-ethyl)-5,6-dihydroxy-7,8-dimethyl-3-oxo-3,5,6,6a,7,8,9,10-octahydro-2-oxa-cyclopenta[d]naphthalen-9-yl ester
FORMULA: C22H28O8
INCHIKEY: IBLBZUYWMXRHOH-LMPOLWKMSA-N
CAS: nan
Molecular Weight: 420.46
Number of References: 1
Class: Colensane and Clerodane diterpenoids
Superclass: Diterpenoids
Pathway: Terpenoids
ppm: 0.8050000000139335
CMID: CM243
IONMODE: Negative
COLLISIONENERGY: 40±20eV
INSTRUMENTTYPE: AB SCIEX
INSTRUMENT: Q-TOF
Comment:  
Num Peaks: 291
359.15012	40621.0
419.16959	4946.0
341.13702	3280.0
346.14185	2075.0
297.11053	1549.0
323.12601	1196.0
331.15475	1187.0
295.13217	1141.0
313.14413	1136.0
326.11307	909.0
59.01379	740.0
283.13211	718.0
347.15009	697.0
283.09753	695.0
255.13977	668.0
328.13043	629.0
311.09399	545.0
298.12247	535.0
327.12186	514.0
299.12598	499.0
280.10999	465.0
301.14316	445.0
296.10703	436.0
288.10034	407.0
344.12427	406.0
270.09048	350.0
309.11258	348.0
285.11292	348.0
230.09457	319.0
252.07849	309.0
281.11557	305.0
271.13275	296.0
269.11609	291.0
218.05777	268.0
231.10132	259.0
257.11761	254.0
242.09499	248.0
267.13736	241.0
258.08737	231.0
419.15555	217.0
298.08527	214.0
285.15094	213.0
282.08841	201.0
308.1062	201.0
325.10583	199.0
257.07993	194.0
273.15048	193.0
301.10916	190.0
243.1032	188.0
284.10184	188.0
259.09677	188.0
311.12854	186.0
269.08237	184.0
229.08409	172.0
279.10129	164.0
294.12363	164.0
253.12126	163.0
267.10056	161.0
253.08543	159.0
219.0654	158.0
317.13901	157.0
190.06432	156.0
316.13181	156.0
255.0647	152.0
315.12448	151.0
313.10428	146.0
240.11673	144.0
295.09851	137.0
217.0871	134.0
300.13287	132.0
241.08583	125.0
268.10818	124.0
282.12622	123.0
237.05222	123.0
329.13519	118.0
315.15927	116.0
272.10434	112.0
240.0788	108.0
203.06999	107.0
227.06981	106.0
303.16028	103.0
330.14688	101.0
254.05693	100.0
272.13989	99.0
287.12881	96.0
241.12233	96.0
281.07779	95.0
270.12589	94.0
256.1058	93.0
258.12827	93.0
273.07767	93.0
213.09309	93.0
297.07846	90.0
312.13812	89.0
188.04596	88.0
285.13275	86.0
225.05414	86.0
287.09064	83.0
254.12874	83.0
149.06137	83.0
269.10162	83.0
277.12524	82.0
216.07973	81.0
245.08142	78.0
265.12128	75.0
298.10388	74.0
251.10612	72.0
243.13678	72.0
256.07288	70.0
271.09406	69.0
266.0932	69.0
273.11163	69.0
215.07037	69.0
307.09286	65.0
359.17981	64.0
151.07674	64.0
227.1067	61.0
239.14351	61.0
243.06654	61.0
200.08354	59.0
286.11914	59.0
252.1158	59.0
389.15396	59.0
175.03702	58.0
232.06998	58.0
214.0634	58.0
280.07065	58.0
283.05963	58.0
203.03371	57.0
259.12988	57.0
288.13525	57.0
239.10565	56.0
238.09822	56.0
288.08539	55.0
177.05486	54.0
265.0878	54.0
244.07677	54.0
316.10046	54.0
241.04935	54.0
163.07779	52.0
239.07234	51.0
226.09692	51.0
305.11743	51.0
301.12784	51.0
341.17139	51.0
260.10342	50.0
269.15305	48.0
293.11514	48.0
242.05843	48.0
251.06888	47.0
214.09778	46.0
219.07845	46.0
238.06197	46.0
191.06874	45.0
331.12445	45.0
266.13156	45.0
150.06616	44.0
323.10663	44.0
257.16159	44.0
137.05721	44.0
297.15271	42.0
202.06509	42.0
228.07584	41.0
285.07321	40.0
202.09711	40.0
200.04892	40.0
347.13004	39.0
231.06558	39.0
240.07576	39.0
215.10916	39.0
227.14212	38.0
288.07376	38.0
201.09184	38.0
315.10886	38.0
419.13351	37.0
300.10233	37.0
236.08223	37.0
341.09903	37.0
357.95963	37.0
275.1286	36.0
245.15195	35.0
314.1535	35.0
283.06952	35.0
287.11554	35.0
211.04099	34.0
296.08176	34.0
244.10585	34.0
164.08353	33.0
121.06381	33.0
326.07947	33.0
165.09109	33.0
201.05435	32.0
312.09659	32.0
213.05164	32.0
323.07318	32.0
278.12708	32.0
245.11516	31.0
230.05743	30.0
310.12061	30.0
187.03615	30.0
262.0972	30.0
227.03882	30.0
198.06903	30.0
313.08002	29.0
273.06635	29.0
209.05969	29.0
341.08096	29.0
274.11594	28.0
327.06696	28.0
264.1145	28.0
279.13239	28.0
226.06453	27.0
263.07312	27.0
217.07556	27.0
323.15945	27.0
255.19139	27.0
283.16507	27.0
302.11597	27.0
343.12042	27.0
242.13156	26.0
262.0639	26.0
265.04633	26.0
268.03601	26.0
249.12532	26.0
241.38091	26.0
224.08559	26.0
287.16199	26.0
281.72995	26.0
345.13324	25.0
357.13562	25.0
282.06537	25.0
293.07993	25.0
339.12149	25.0
296.14578	25.0
276.03732	25.0
178.06223	25.0
187.07498	25.0
328.10913	25.0
239.06628	25.0
247.09538	25.0
247.13387	25.0
311.07153	25.0
237.0869	24.0
220.50121	24.0
204.07878	24.0
277.10568	24.0
249.61862	24.0
135.07875	24.0
251.14182	24.0
249.32474	24.0
342.1416	23.0
250.75865	23.0
246.08661	23.0
222.06718	23.0
346.09448	23.0
290.09674	23.0
179.07245	23.0
238.94669	23.0
303.73004	23.0
256.28918	23.0
225.0894	22.0
253.05116	22.0
253.10568	22.0
210.06761	22.0
161.06068	22.0
257.05008	22.0
299.0701	22.0
275.0896	22.0
231.81793	22.0
272.98544	22.0
221.09489	21.0
268.07932	21.0
321.10831	21.0
212.04512	21.0
346.18738	21.0
309.08502	20.0
235.0752	20.0
190.03867	20.0
266.05807	20.0
317.17215	20.0
243.08487	20.0
286.07938	19.0
224.04602	19.0
278.09116	19.0
314.10141	19.0
186.02904	18.0
199.03909	18.0
270.05991	18.0
167.06738	18.0
385.91724	13.0
65.55046	12.0

MSID: 8981
ID: 133
RETENTIONTIME: 17.76352
PRECURSORMZ: 361.1652
AREA: 3665076.25
PRECURSORTYPE: [M-H]-
SMILES: [H][C@@]12C[C@@H](O)C3=C(C(=O)C(O)=C(C(C)C)C3=O)[C@@]11CCC[C@]2(C)CO[C@H]1O
NAME: conacytone
FORMULA: C20H26O6
INCHIKEY: HWCRIILCNXONSY-SYMKQFHVSA-N
CAS: nan
Molecular Weight: 362.423
Number of References: 3
Class: Abeoabietane diterpenoids
Superclass: Diterpenoids
Pathway: Terpenoids
ppm: 0.08500000006961272
CMID: CM243
IONMODE: Negative
COLLISIONENERGY: 40±20eV
INSTRUMENTTYPE: AB SCIEX
INSTRUMENT: Q-TOF
Comment:  
Num Peaks: 138
299.16525	26219.0
361.16504	25041.0
281.15363	7502.0
215.10651	4518.0
265.12314	3084.0
214.09944	1501.0
200.08513	660.0
284.14175	602.0
255.13847	585.0
317.17422	378.0
266.12863	343.0
241.1241	239.0
231.10304	204.0
199.07523	194.0
251.10794	173.0
201.09067	172.0
279.13922	170.0
243.10193	169.0
297.14459	153.0
225.09258	152.0
256.14523	151.0
213.09187	133.0
226.09863	132.0
283.13242	126.0
256.10764	126.0
271.1669	125.0
257.15714	125.0
269.11636	117.0
281.13391	114.0
185.06081	95.0
267.14084	90.0
172.05203	89.0
237.09166	88.0
217.08878	86.0
216.07851	85.0
282.16107	81.0
315.15787	81.0
186.06796	78.0
238.10301	78.0
184.09093	77.0
253.15581	75.0
216.1145	74.0
230.09184	74.0
217.1234	70.0
202.10149	69.0
212.08385	68.0
343.15344	66.0
240.11546	64.0
236.08548	64.0
200.07405	63.0
230.09778	61.0
215.08784	59.0
249.09312	55.0
253.12309	54.0
240.10939	53.0
185.09944	53.0
250.09564	52.0
188.08511	52.0
269.11478	51.0
229.08434	49.0
223.07402	48.0
239.10439	48.0
263.14487	47.0
171.11563	45.0
187.07652	44.0
175.07866	43.0
255.10094	42.0
298.15997	41.0
211.07677	41.0
189.09102	41.0
231.09412	41.0
228.11749	39.0
242.12724	39.0
197.09743	39.0
188.0475	38.0
254.09622	37.0
289.17874	37.0
266.11746	36.0
241.08609	36.0
187.11134	35.0
198.07062	35.0
264.1116	34.0
315.15265	33.0
252.11452	32.0
280.1496	32.0
281.10764	31.0
211.77306	30.0
247.10796	29.0
173.06055	29.0
233.11865	29.0
282.12323	28.0
271.13306	28.0
265.15186	28.0
203.10509	28.0
97.06705	28.0
242.09525	27.0
301.0296	26.0
245.01576	26.0
280.23813	26.0
251.0676	26.0
202.0667	25.0
241.39941	25.0
242.29337	25.0
232.39853	25.0
251.14363	25.0
235.08144	24.0
259.0939	24.0
233.11118	24.0
215.07347	24.0
227.10695	24.0
197.09193	24.0
359.96936	23.0
168.65858	23.0
225.06026	23.0
121.06609	23.0
317.1376	23.0
269.15332	22.0
149.09978	22.0
226.63495	22.0
214.06219	22.0
329.10004	21.0
272.10947	21.0
361.12222	20.0
328.03143	20.0
283.1011	20.0
300.00256	20.0
153.28035	20.0
299.1246	20.0
246.14986	20.0
209.05566	20.0
218.12453	20.0
199.0462	17.0
201.07401	16.0
263.10358	15.0
130.04376	15.0
340.80466	13.0
325.10971	13.0
80.84761	12.0

MSID: 8982
ID: 376
RETENTIONTIME: 29.98205
PRECURSORMZ: 343.1547
AREA: 3593199.0
PRECURSORTYPE: [M-H]-
SMILES: [H][C@]12CCC=C3C(=O)OC[C@@]13CC(=O)[C@@H](C)[C@]2(C)CCC1=CC(=O)OC1
NAME: 7-Keto-neo-clerodan-3,13-dien-18,19:15,16-diolide
FORMULA: C20H24O5
INCHIKEY: AHZVXBSDOABEEU-WWIODWGFSA-N
CAS: nan
Molecular Weight: 344.408
Number of References: 4
Class: Colensane and Clerodane diterpenoids
Superclass: Diterpenoids
Pathway: Terpenoids
ppm: 0.15000000001919034
CMID: CM243
IONMODE: Negative
COLLISIONENERGY: 40±20eV
INSTRUMENTTYPE: AB SCIEX
INSTRUMENT: Q-TOF
Comment:  
Num Peaks: 187
328.13022	49392.0
343.15469	31917.0
327.12167	11431.0
311.12665	4715.0
244.07358	4235.0
313.10754	2019.0
285.11273	1506.0
229.04987	1221.0
312.09814	1083.0
297.07489	1009.0
299.1275	585.0
295.09665	531.0
257.11746	453.0
243.06641	441.0
271.09552	436.0
285.07635	420.0
267.1004	404.0
311.10419	354.0
300.13779	321.0
201.05562	318.0
310.11871	314.0
298.0834	306.0
269.0806	304.0
270.08551	281.0
257.07977	260.0
296.10349	214.0
216.07672	209.0
325.14096	206.0
284.10333	187.0
309.1124	161.0
311.0921	161.0
283.0957	160.0
255.06454	145.0
245.08742	144.0
215.07169	141.0
286.11899	141.0
241.04768	133.0
272.14456	126.0
283.13196	116.0
268.108	109.0
256.07431	108.0
272.06543	107.0
297.14749	92.0
268.07434	89.0
242.05676	87.0
313.12836	86.0
283.05948	79.0
269.04526	77.0
315.15561	76.0
242.09485	72.0
272.10419	68.0
281.0809	66.0
241.08722	65.0
280.07376	64.0
227.03574	62.0
227.06673	62.0
229.08395	61.0
282.12772	60.0
258.08881	56.0
215.03435	55.0
239.10703	55.0
252.07834	55.0
259.09821	53.0
229.03951	51.0
342.02728	51.0
270.05975	50.0
270.05011	49.0
271.13098	48.0
243.10153	47.0
299.15799	47.0
269.11914	46.0
253.05101	46.0
281.12033	46.0
255.14275	45.0
279.06024	45.0
240.07562	43.0
313.07291	42.0
253.08685	42.0
254.06146	41.0
230.05434	40.0
255.02545	39.0
226.05704	39.0
272.1268	39.0
203.06987	39.0
256.11035	37.0
225.05695	37.0
237.05659	36.0
310.08249	36.0
299.09531	35.0
284.06702	34.0
310.09973	34.0
200.05019	34.0
158.03506	34.0
287.16846	34.0
230.09296	34.0
214.05898	34.0
228.04318	33.0
327.15707	33.0
300.10046	33.0
219.06238	33.0
174.03297	33.0
267.06039	33.0
327.03311	32.0
311.05756	32.0
245.11348	32.0
235.64294	32.0
224.04881	31.0
241.12523	31.0
212.0564	30.0
327.05081	29.0
256.06491	29.0
244.04298	29.0
216.10983	28.0
294.0882	28.0
228.07571	27.0
217.08698	27.0
225.08928	27.0
202.03156	26.0
164.08469	26.0
243.52618	26.0
248.69566	26.0
325.10742	26.0
236.04749	26.0
224.82343	26.0
271.16486	26.0
230.36337	26.0
312.03586	26.0
295.12527	25.0
180.9973	25.0
313.93985	25.0
226.47391	25.0
185.06184	25.0
313.03824	25.0
279.3826	25.0
278.06161	25.0
214.03606	24.0
197.04486	24.0
216.04938	24.0
297.05127	24.0
257.06723	24.0
296.06641	24.0
252.03947	24.0
172.05688	23.0
188.0472	23.0
328.08588	23.0
135.01721	23.0
68.3653	23.0
243.13512	23.0
213.04865	23.0
222.22908	23.0
214.09909	23.0
282.05206	23.0
257.04208	23.0
238.06032	22.0
268.03265	22.0
238.61516	22.0
295.04956	22.0
182.0343	22.0
183.63518	21.0
262.15887	21.0
222.78708	21.0
220.40948	21.0
197.05998	21.0
297.03946	21.0
215.06595	20.0
152.00006	20.0
241.71103	20.0
218.92471	19.0
194.45401	19.0
187.03871	19.0
147.44922	19.0
141.13861	19.0
192.66925	19.0
191.07269	18.0
229.1225	18.0
229.57037	17.0
244.28322	17.0
200.04187	17.0
209.05531	17.0
75.55279	16.0
269.02597	16.0
169.06299	15.0
178.85489	15.0
216.77399	15.0
204.08145	15.0
221.66447	15.0
288.94019	14.0

MSID: 8983
ID: 453
RETENTIONTIME: 31.13638
PRECURSORMZ: 445.1861
AREA: 3382809.25
PRECURSORTYPE: [M-H]-
SMILES: [H][C@]12C[C@H](OC(C)=O)C=C3C(=O)OC[C@@]13C[C@@H](OC(C)=O)[C@@H](C)[C@]2(C)C[C@@H](O)C1=COC=C1
NAME: salvigresin
FORMULA: C24H30O8
INCHIKEY: QNEVSNMXAPYPNG-OLAFXDAZSA-N
CAS: nan
Molecular Weight: 446.497
Number of References: 2
Class: Colensane and Clerodane diterpenoids
Superclass: Diterpenoids
Pathway: Terpenoids
ppm: -0.1449999999749707
CMID: CM243
IONMODE: Negative
COLLISIONENERGY: 40±20eV
INSTRUMENTTYPE: AB SCIEX
INSTRUMENT: Q-TOF
Comment:  
Num Peaks: 108
325.14432	18841.0
445.18771	2987.0
385.16495	1938.0
297.14899	1929.0
59.01372	1879.0
312.13602	1156.0
310.12024	1101.0
281.12015	747.0
309.11221	337.0
254.0941	313.0
253.12253	297.0
313.14551	183.0
295.09482	163.0
282.12427	151.0
267.09863	151.0
59.01071	149.0
373.1636	148.0
243.06322	117.0
297.11356	106.0
269.15433	98.0
216.08092	93.0
239.07056	93.0
253.08514	80.0
269.08203	74.0
296.14038	74.0
307.13541	68.0
279.13531	67.0
255.13948	66.0
264.11737	60.0
165.08965	59.0
282.08972	59.0
164.0871	58.0
238.0632	58.0
372.15414	54.0
240.08154	53.0
241.04755	52.0
293.11981	51.0
218.05319	51.0
268.10785	49.0
251.10583	49.0
190.06274	49.0
267.06183	48.0
280.10965	48.0
244.07497	48.0
242.09166	47.0
218.05753	46.0
283.13016	46.0
151.07657	44.0
229.08531	44.0
256.10864	44.0
284.10648	42.0
297.0899	41.0
283.09555	41.0
296.10669	40.0
312.11008	37.0
445.0968	37.0
373.15039	36.0
311.12817	36.0
263.10776	35.0
253.15681	35.0
213.05281	34.0
228.07706	33.0
269.09329	32.0
292.11139	32.0
297.17938	31.0
265.11459	30.0
192.07693	29.0
225.05682	29.0
325.09665	28.0
175.0381	28.0
251.14464	28.0
256.07416	28.0
255.06439	28.0
324.07336	27.0
211.03932	27.0
268.07419	26.0
280.14407	26.0
219.06369	26.0
357.16852	26.0
309.08124	26.0
245.16087	25.0
237.12431	25.0
312.16718	25.0
278.1333	25.0
100.93587	25.0
254.13156	25.0
257.08121	24.0
370.1355	24.0
291.10135	24.0
310.06506	24.0
210.10002	24.0
226.09814	24.0
229.60881	23.0
270.08694	23.0
326.14453	23.0
203.03625	23.0
343.15088	22.0
373.13715	22.0
445.1402	22.0
399.21872	21.0
415.17484	20.0
312.09103	19.0
178.06332	17.0
277.08905	17.0
221.05969	16.0
133.06482	13.0
100.93095	13.0
53.6398	12.0

MSID: 8984
ID: 561
RETENTIONTIME: 33.17318
PRECURSORMZ: 331.1904
AREA: 3331578.0
PRECURSORTYPE: [M-H]-
SMILES: [H][C@@]12[C@@H](O)C(=O)C3=C(C(O)=C(O)C(=C3)C(C)C)[C@@]1(C)CCCC2(C)C
NAME: 6α-hydroxydemethylcryptojaponol
FORMULA: C20H28O4
INCHIKEY: DLFBGJCOHIZRGA-CMKODMSKSA-N
CAS: nan
Molecular Weight: 332.44
Number of References: 8
Class: Abietane diterpenoids
Superclass: Diterpenoids
Pathway: Terpenoids
ppm: -0.5349999999566535
CMID: CM243
IONMODE: Negative
COLLISIONENERGY: 40±20eV
INSTRUMENTTYPE: AB SCIEX
INSTRUMENT: Q-TOF
Comment:  
Num Peaks: 171
287.20016	81512.0
331.1904	14232.0
244.14717	3284.0
271.16824	2034.0
272.17545	863.0
316.15796	539.0
203.10628	400.0
243.13832	395.0
285.18402	303.0
269.19	274.0
201.09045	272.0
215.10629	233.0
257.1553	216.0
245.15196	194.0
229.12411	188.0
189.09084	159.0
303.1944	148.0
301.18054	144.0
315.14883	115.0
217.12318	90.0
177.09395	76.0
187.07365	74.0
271.13599	68.0
204.11516	62.0
286.25665	60.0
259.20871	50.0
301.12787	48.0
331.16367	48.0
216.12004	46.0
202.09851	46.0
217.16359	45.0
231.13705	45.0
272.1496	44.0
286.19205	42.0
226.13376	40.0
243.21162	40.0
213.09024	39.0
329.17786	39.0
241.19077	38.0
244.12421	37.0
213.12741	36.0
286.26825	36.0
178.10013	36.0
299.1192	36.0
316.13531	36.0
256.14813	35.0
214.10066	34.0
331.14407	34.0
175.07071	32.0
315.13843	31.0
174.06409	30.0
193.08281	30.0
302.14322	30.0
260.08923	29.0
243.12152	28.0
288.20508	27.0
161.06068	27.0
231.13408	27.0
300.12778	27.0
283.1239	26.0
269.16431	26.0
303.14154	26.0
288.51938	26.0
226.12491	26.0
289.30502	26.0
201.23907	26.0
199.80383	26.0
272.13666	25.0
257.07993	25.0
185.06062	25.0
241.11929	25.0
288.00894	25.0
195.76044	25.0
273.09711	24.0
159.04007	24.0
211.10786	24.0
288.12363	24.0
253.12128	24.0
330.0864	24.0
313.12854	23.0
269.22534	23.0
179.60095	23.0
280.10342	23.0
183.85831	23.0
301.11768	22.0
147.0441	22.0
186.06778	22.0
285.14929	22.0
124.62703	22.0
218.47879	22.0
176.08672	22.0
214.40311	22.0
192.58646	22.0
267.13736	21.0
193.8783	21.0
188.08357	21.0
160.9501	21.0
200.08632	21.0
314.14484	20.0
205.11952	20.0
272.09952	20.0
217.1102	20.0
201.8786	20.0
202.83144	20.0
163.07405	19.0
173.06038	19.0
197.89818	19.0
172.05186	19.0
227.95164	19.0
137.05835	19.0
290.87787	18.0
187.06561	18.0
201.79652	17.0
218.98715	16.0
284.10022	16.0
202.26003	16.0
194.88863	16.0
244.09514	16.0
199.07088	14.0
182.20357	13.0
291.65164	13.0
296.99915	13.0
127.9305	13.0
329.1441	13.0
298.1377	13.0
309.40536	13.0
180.36426	13.0
318.58115	13.0
190.29256	13.0
149.05898	13.0
148.04684	13.0
313.10947	13.0
151.03583	13.0
306.72061	13.0
307.36066	13.0
131.46686	13.0
237.5425	13.0
205.68373	13.0
164.07852	13.0
224.94398	13.0
253.81662	13.0
228.09952	13.0
251.08597	13.0
250.15735	13.0
245.54004	13.0
166.19391	13.0
153.97325	13.0
230.12874	13.0
126.86719	13.0
170.18161	13.0
231.49599	13.0
233.45944	13.0
235.76938	13.0
258.08109	13.0
223.53329	13.0
221.70398	13.0
261.03766	13.0
265.11969	13.0
219.9548	13.0
158.00931	13.0
172.05699	13.0
156.6312	13.0
275.96576	13.0
278.10913	13.0
281.38162	13.0
211.71585	13.0
239.3374	13.0
209.76259	13.0
155.09686	13.0
207.80566	13.0
247.06154	13.0

MSID: 8985
ID: 275
RETENTIONTIME: 27.36022
PRECURSORMZ: 691.349
AREA: 3290723.75
PRECURSORTYPE: [2M-H]-
SMILES: [H][C@@]12CC(=O)[C@@]34O[C@@]3(C(=O)C(O)=C(C(C)C)C4=O)[C@@]1(C)CCCC2(C)C
NAME: 8α,9α-epoxy-7-oxoroyleanon
FORMULA: C20H26O5
INCHIKEY: DOXLTWHGRVFSOD-NWJJKOQUSA-N
CAS: nan
Molecular Weight: 346.423
Number of References: 3
Class: Secoabietane diterpenoids
Superclass: Diterpenoids
Pathway: Terpenoids
ppm: 0.3875000000448381
CMID: CM243
IONMODE: Negative
COLLISIONENERGY: 40±20eV
INSTRUMENTTYPE: AB SCIEX
INSTRUMENT: Q-TOF
Comment:  
Num Peaks: 358
345.17001	252276.0
283.17035	26834.0
268.14536	927.0
346.17319	795.0
691.35107	646.0
227.10696	588.0
301.18256	406.0
327.15765	251.0
267.13605	245.0
344.03201	167.0
299.16525	152.0
347.17419	149.0
253.12155	143.0
284.17316	138.0
240.11395	134.0
214.09946	123.0
239.10744	111.0
212.08528	90.0
265.16144	78.0
273.18317	73.0
344.052	69.0
255.13536	64.0
226.10013	58.0
344.15918	52.0
226.98744	48.0
199.07524	45.0
225.09113	43.0
691.31244	43.0
228.11455	43.0
227.14828	42.0
309.14908	41.0
240.10941	40.0
229.80525	40.0
343.99387	37.0
231.38451	37.0
226.30927	37.0
215.10939	36.0
262.43054	36.0
281.15363	35.0
223.951	34.0
230.16464	34.0
283.12915	34.0
200.08238	33.0
234.72424	32.0
248.68527	32.0
252.11142	32.0
270.66241	32.0
230.8203	31.0
343.15347	31.0
255.07123	31.0
238.50816	30.0
329.17288	30.0
209.09814	30.0
265.12317	30.0
282.16437	30.0
211.07394	30.0
251.30353	30.0
315.15787	29.0
227.7612	28.0
201.09206	28.0
240.28091	28.0
271.17337	26.0
244.34944	26.0
255.82094	26.0
227.34462	26.0
227.41698	26.0
251.52556	26.0
251.38425	26.0
228.27727	26.0
229.19553	26.0
244.25148	26.0
304.81506	26.0
243.22258	26.0
239.8591	26.0
230.85005	26.0
231.31302	26.0
239.17709	26.0
189.12201	26.0
232.03592	26.0
238.01691	26.0
226.91515	26.0
236.96805	26.0
345.74335	26.0
213.08904	26.0
344.69348	26.0
318.62866	26.0
190.53329	25.0
345.91635	25.0
243.09888	25.0
346.22787	25.0
231.52158	25.0
229.54703	25.0
220.16858	25.0
231.72128	25.0
221.52199	25.0
249.52608	25.0
346.53589	25.0
228.50815	25.0
344.89352	25.0
343.93213	25.0
235.116	25.0
224.63884	25.0
349.04333	25.0
227.48491	25.0
232.71066	25.0
225.53946	25.0
282.2746	25.0
258.13171	25.0
223.41788	25.0
282.03281	25.0
239.39825	24.0
231.22514	24.0
189.69345	24.0
237.16406	24.0
234.26088	24.0
231.59309	24.0
232.75847	24.0
232.81226	24.0
306.061	24.0
230.79947	24.0
230.52432	24.0
241.11955	24.0
282.23511	24.0
243.30658	24.0
230.0265	24.0
247.2912	24.0
228.85318	24.0
225.78218	24.0
200.06438	24.0
225.23071	24.0
269.52618	23.0
237.01176	23.0
237.67256	23.0
278.88242	23.0
235.8734	23.0
308.38507	23.0
254.46008	23.0
346.82944	23.0
285.76178	23.0
243.05766	23.0
249.77519	23.0
72.91634	23.0
230.1067	23.0
192.29051	23.0
228.21365	23.0
225.5777	23.0
231.87335	23.0
232.39705	23.0
227.19699	23.0
189.72581	23.0
227.67253	22.0
240.41299	22.0
253.77478	22.0
187.08055	22.0
266.25488	22.0
229.27559	22.0
344.11194	22.0
192.59346	22.0
240.61041	22.0
226.69098	22.0
226.54208	22.0
229.06656	22.0
344.72803	22.0
74.26885	22.0
191.7979	22.0
259.24054	22.0
229.33936	21.0
349.98251	21.0
232.33437	21.0
227.01399	21.0
230.07106	21.0
230.22556	21.0
312.59537	21.0
195.12131	21.0
230.76971	21.0
230.92593	21.0
493.24454	21.0
190.95526	21.0
273.40009	20.0
186.06798	20.0
261.74881	20.0
226.47134	20.0
234.67624	20.0
249.94547	20.0
249.09158	20.0
279.36343	20.0
191.84537	20.0
242.88365	20.0
235.45848	20.0
691.27637	20.0
296.87457	19.0
246.23898	19.0
253.35219	19.0
186.77394	19.0
188.07974	19.0
302.181	19.0
235.54263	19.0
214.7921	19.0
156.82016	18.0
222.86932	18.0
315.01706	18.0
252.63568	18.0
212.07387	18.0
351.31198	18.0
188.53799	18.0
188.42102	18.0
244.81195	18.0
191.38853	18.0
236.35942	17.0
346.5687	17.0
348.66653	17.0
237.9323	17.0
247.6378	17.0
195.5141	17.0
242.43364	17.0
230.2746	16.0
230.71765	16.0
346.1149	16.0
241.75407	16.0
266.13184	16.0
236.83691	16.0
227.60605	16.0
340.01151	16.0
313.24844	16.0
417.58765	15.0
317.16901	15.0
190.03754	15.0
262.21957	15.0
268.08762	15.0
473.96289	14.0
492.53143	14.0
289.10049	14.0
275.80991	14.0
202.10568	14.0
475.66144	14.0
480.33093	14.0
306.71237	14.0
483.27789	14.0
487.00293	14.0
511.22202	14.0
547.20496	14.0
551.35449	14.0
579.54028	14.0
592.17609	14.0
598.73077	14.0
603.26331	14.0
647.25452	14.0
376.94415	13.0
358.76831	13.0
373.47476	13.0
367.52594	13.0
381.8558	13.0
364.69846	13.0
362.58456	13.0
361.16135	13.0
286.62656	13.0
357.07126	13.0
354.89105	13.0
353.5217	13.0
182.77393	13.0
384.2247	13.0
204.93326	13.0
262.95111	13.0
382.72507	13.0
259.96317	13.0
388.10614	13.0
391.5574	13.0
126.36265	13.0
184.05109	13.0
463.97253	13.0
456.52081	13.0
445.32922	13.0
443.20737	13.0
438.63419	13.0
436.94174	13.0
430.57037	13.0
419.44077	13.0
209.87912	13.0
415.50507	13.0
409.16772	13.0
408.58951	13.0
404.73868	13.0
401.37875	13.0
397.60706	13.0
142.68573	13.0
351.49371	13.0
181.70445	13.0
170.29933	13.0
322.9873	13.0
322.04114	13.0
320.62979	13.0
197.40001	13.0
202.99068	13.0
195.97307	13.0
276.4657	13.0
279.83664	13.0
310.67133	13.0
157.0471	13.0
169.62398	13.0
168.75781	13.0
166.0666	13.0
302.60672	13.0
164.96422	13.0
158.29274	13.0
300.07211	13.0
160.06569	13.0
297.42996	13.0
162.27237	13.0
294.75912	13.0
293.67404	13.0
292.29788	13.0
291.34769	13.0
289.91696	13.0
325.03381	13.0
273.62845	13.0
206.1308	13.0
148.8918	13.0
173.41243	13.0
177.06416	13.0
151.51173	13.0
327.73709	13.0
216.20378	13.0
151.86633	13.0
152.92169	13.0
207.07669	13.0
218.0826	13.0
175.96089	13.0
154.23599	13.0
342.10938	13.0
145.403	13.0
340.30411	13.0
271.70419	13.0
178.73734	13.0
337.87869	13.0
336.67914	13.0
335.67365	13.0
334.25418	13.0
332.61264	13.0
330.07428	13.0
155.3264	13.0
147.40666	13.0
689.93048	12.0
643.22974	12.0
666.70673	12.0
673.1955	12.0
595.87073	12.0
412.37106	12.0
585.70251	12.0
577.51703	12.0
554.59222	12.0
548.24548	12.0
542.85437	12.0
502.39935	12.0
484.92404	12.0
369.86887	12.0
379.0499	12.0
451.8439	12.0
508.59277	12.0

MSID: 8986
ID: 241
RETENTIONTIME: 25.82098
PRECURSORMZ: 359.1501
AREA: 3288165.0
PRECURSORTYPE: [M-H]-
SMILES: [H][C@@]12[C@@H]3OC(=O)[C@@]1(CCCC2(C)C)C1=C([C@@H]3O)C(=O)C(C(C)C)=C(O)C1=O
NAME: atuntzensin A
FORMULA: C20H24O6
INCHIKEY: OMMKXICLKWYTNA-FORWCCJISA-N
CAS: nan
Molecular Weight: 360.407
Number of References: 4
Class: Abietane diterpenoids
Superclass: Diterpenoids
Pathway: Terpenoids
ppm: 0.6350000000452383
CMID: CM243
IONMODE: Negative
COLLISIONENERGY: 40±20eV
INSTRUMENTTYPE: AB SCIEX
INSTRUMENT: Q-TOF
Comment:  
Num Peaks: 165
359.15009	26464.0
315.15924	7362.0
297.14932	6607.0
281.11719	4902.0
216.07826	4189.0
231.10278	1306.0
215.07179	497.0
256.10892	475.0
254.09438	377.0
257.11603	356.0
201.05573	331.0
228.0773	324.0
300.13452	301.0
282.12784	259.0
267.10052	233.0
313.1441	195.0
359.12967	186.0
287.16364	185.0
213.09164	177.0
299.12766	164.0
271.13434	155.0
227.07127	154.0
241.08429	153.0
259.09677	143.0
203.10486	141.0
253.12125	140.0
213.05447	135.0
341.14062	133.0
229.08556	132.0
239.07082	125.0
269.15302	116.0
230.09604	115.0
295.13214	114.0
238.06497	112.0
242.0965	106.0
280.10831	101.0
188.04729	99.0
173.02299	97.0
283.13046	87.0
214.1035	86.0
264.11606	85.0
297.12064	85.0
237.12608	75.0
255.1022	72.0
296.14072	72.0
200.08214	72.0
272.10754	72.0
188.08356	70.0
266.0932	69.0
228.11575	63.0
210.10451	63.0
187.0388	61.0
200.04474	60.0
272.1431	59.0
297.11218	58.0
265.12125	56.0
279.13727	55.0
150.06854	53.0
253.1602	52.0
199.03908	50.0
216.06099	50.0
265.08618	50.0
151.07433	49.0
254.12715	46.0
214.06339	45.0
185.0193	45.0
187.07631	44.0
273.14722	44.0
253.08386	43.0
198.06625	43.0
217.08275	43.0
229.11964	42.0
145.02875	41.0
185.06326	41.0
331.14758	40.0
226.06305	40.0
194.07195	40.0
257.08304	39.0
243.14134	39.0
243.10318	38.0
186.03035	38.0
285.10959	38.0
186.06642	37.0
195.08278	37.0
271.17307	36.0
269.11285	36.0
267.14374	35.0
256.07443	35.0
359.09998	34.0
231.05217	33.0
255.14288	33.0
287.13043	32.0
297.08517	32.0
241.07213	32.0
252.07846	32.0
243.09554	32.0
179.06982	31.0
213.0802	31.0
285.15091	31.0
271.09726	31.0
240.07574	30.0
211.11211	30.0
201.09183	29.0
185.09924	29.0
203.0602	29.0
357.95221	29.0
229.07962	29.0
258.12354	28.0
236.11832	28.0
228.10835	28.0
215.10626	28.0
279.13235	27.0
241.12231	27.0
172.04927	27.0
225.05707	27.0
283.09915	26.0
281.07285	26.0
264.10175	25.0
222.06863	25.0
315.11404	25.0
236.08522	25.0
254.05847	25.0
174.02919	24.0
177.05223	24.0
320.07028	24.0
232.07294	24.0
238.09821	24.0
212.0451	24.0
357.96146	23.0
235.10971	23.0
357.99295	23.0
357.92441	23.0
178.06221	23.0
123.08164	23.0
223.11472	23.0
305.17557	22.0
209.09508	22.0
296.16766	22.0
175.07587	22.0
288.12857	22.0
249.50258	22.0
225.12906	22.0
269.13855	22.0
251.14645	22.0
239.09503	21.0
247.10152	21.0
270.12265	21.0
222.93338	21.0
281.08762	21.0
282.09003	21.0
201.03629	21.0
211.04239	21.0
249.08975	21.0
227.05798	20.0
245.15807	20.0
184.05486	19.0
163.07527	19.0
148.04921	18.0
268.10815	18.0
314.14304	16.0
209.05968	16.0
226.01593	16.0
318.44653	12.0
121.06488	12.0
71.47513	12.0

MSID: 8987
ID: 295
RETENTIONTIME: 27.93053
PRECURSORMZ: 343.1534
AREA: 3276480.75
PRECURSORTYPE: [M+FA-H]-
SMILES: C[C@@H](CO)C1=CC2=C(C(=O)C1=O)C1=C(C=C2)C(C)(C)CCC1
NAME: R-(+)-grandifolia D
FORMULA: C19H22O3
INCHIKEY: BYUVIYNVJOALKQ-NSHDSACASA-N
CAS: nan
Molecular Weight: 298.382
Number of References: 1
Class: Abietane diterpenoids
Superclass: Diterpenoids
Pathway: Terpenoids
ppm: -1.150000000052387
CMID: CM243
IONMODE: Negative
COLLISIONENERGY: 40±20eV
INSTRUMENTTYPE: AB SCIEX
INSTRUMENT: Q-TOF
Comment:  
Num Peaks: 122
297.14969	21569.0
343.15527	5915.0
228.07906	5606.0
229.08583	1032.0
298.15662	663.0
213.05473	583.0
185.06082	537.0
281.11752	502.0
200.08514	452.0
254.09312	387.0
227.07155	302.0
279.13922	267.0
214.06364	257.0
282.12491	232.0
199.07524	202.0
201.09346	191.0
299.16357	174.0
313.14621	152.0
296.13937	145.0
269.15656	136.0
269.11801	132.0
186.06798	129.0
267.10403	120.0
315.15613	114.0
264.11481	112.0
216.07997	106.0
253.16206	97.0
242.09221	91.0
255.10408	90.0
225.09113	81.0
243.105	79.0
253.08417	77.0
239.10442	76.0
295.13419	72.0
239.07413	71.0
241.08611	67.0
280.14471	65.0
256.10922	64.0
224.08292	61.0
236.08099	60.0
278.12903	59.0
230.09186	59.0
237.09018	58.0
251.10796	55.0
200.07545	55.0
343.12445	51.0
199.04346	50.0
255.14162	47.0
210.10333	43.0
252.07565	40.0
235.07545	40.0
251.14211	40.0
266.09033	40.0
215.07062	38.0
263.10678	36.0
238.0592	36.0
226.10013	35.0
298.13126	35.0
248.08029	34.0
209.05992	34.0
259.13333	33.0
307.19104	32.0
227.06122	32.0
157.06552	32.0
211.07678	32.0
195.04335	32.0
298.00952	31.0
270.01678	31.0
159.04272	31.0
268.11169	30.0
283.13245	30.0
211.03696	29.0
184.05241	29.0
282.11011	28.0
249.08696	28.0
315.11615	28.0
240.11397	28.0
313.03012	28.0
238.09698	27.0
280.10538	27.0
251.06917	27.0
297.09567	26.0
265.0849	26.0
310.12268	26.0
213.04616	26.0
285.0752	25.0
201.08652	25.0
209.09816	25.0
182.18262	25.0
171.0452	25.0
219.26572	25.0
167.73022	25.0
343.08817	25.0
281.15857	25.0
296.18152	24.0
242.06021	24.0
202.05557	24.0
261.12814	24.0
262.09909	23.0
229.06064	23.0
328.05807	23.0
227.10696	23.0
254.0822	23.0
197.948	23.0
223.07257	23.0
299.08905	23.0
172.05461	22.0
284.10217	22.0
213.01471	21.0
295.10052	21.0
287.1673	21.0
246.09764	20.0
213.09047	20.0
223.11499	20.0
254.13683	20.0
226.07657	20.0
258.12384	19.0
130.03706	19.0
218.05368	18.0
216.04686	18.0
125.09332	15.0
277.12067	13.0

MSID: 8988
ID: 257
RETENTIONTIME: 26.66675
PRECURSORMZ: 375.1801
AREA: 3232953.5
PRECURSORTYPE: [M-H]-
SMILES: [H][C@@]12C[C@@H](OC)C3=C(C(=O)C(O)=C(C(C)C)C3=O)[C@@]11CCC[C@]2(C)CO[C@H]1O
NAME: 7-O-methyl conacytone
FORMULA: C21H28O6
INCHIKEY: DDVVXOKUZMNEAW-FMBBDSOGSA-N
CAS: nan
Molecular Weight: 376.45
Number of References: 2
Class: Abietane diterpenoids
Superclass: Diterpenoids
Pathway: Terpenoids
ppm: -0.6649999999694955
CMID: CM243
IONMODE: Negative
COLLISIONENERGY: 40±20eV
INSTRUMENTTYPE: AB SCIEX
INSTRUMENT: Q-TOF
Comment:  
Num Peaks: 139
299.16541	28603.0
375.18011	15352.0
281.15375	7286.0
215.10661	4456.0
265.12329	2925.0
345.17017	1912.0
214.09955	1271.0
255.1386	599.0
316.16537	571.0
200.08246	437.0
251.10652	288.0
284.14355	282.0
266.12878	275.0
201.09076	264.0
301.181	239.0
241.12119	212.0
243.10051	208.0
327.15778	187.0
199.07532	163.0
225.09268	159.0
238.09859	157.0
283.16882	143.0
345.15741	137.0
237.09329	137.0
213.09056	133.0
297.1481	104.0
257.15256	102.0
226.10022	102.0
267.14096	101.0
240.11406	100.0
269.1181	98.0
217.12495	97.0
282.16284	94.0
212.08395	89.0
279.13773	88.0
217.08455	87.0
256.14536	85.0
256.10461	84.0
283.13422	83.0
242.13193	81.0
184.08969	79.0
230.09344	76.0
231.10464	67.0
172.05469	67.0
186.06673	66.0
250.09732	62.0
253.12166	61.0
171.11699	60.0
223.07413	55.0
281.12585	55.0
188.08252	53.0
271.16705	51.0
214.08952	51.0
239.10754	50.0
253.1575	48.0
175.07356	47.0
257.11642	46.0
263.1434	44.0
233.11726	44.0
229.08296	43.0
227.11	43.0
216.11604	42.0
202.1002	40.0
269.15186	39.0
298.18381	38.0
252.11464	37.0
281.18823	36.0
187.07393	36.0
280.14975	35.0
255.17458	34.0
255.10263	34.0
187.11009	33.0
264.1149	33.0
301.14362	33.0
343.15179	33.0
185.05824	32.0
211.0726	32.0
313.1394	31.0
237.131	29.0
265.09616	29.0
171.07985	29.0
215.13821	29.0
197.08928	28.0
189.09381	28.0
203.10799	28.0
301.17081	28.0
264.54318	27.0
266.108	26.0
216.08006	26.0
300.17065	26.0
243.17381	26.0
198.06657	26.0
190.10782	25.0
214.11674	25.0
209.09541	25.0
259.09875	25.0
210.07079	25.0
183.04153	25.0
224.0874	25.0
251.0941	25.0
185.09688	25.0
142.92101	25.0
177.089	24.0
160.04593	24.0
315.1528	24.0
331.14813	24.0
247.3914	24.0
268.11179	23.0
227.45842	23.0
156.51379	23.0
285.14807	23.0
273.14282	23.0
317.16739	22.0
241.08469	22.0
282.1283	22.0
172.0444	22.0
236.0856	22.0
214.40343	22.0
298.15845	21.0
144.05768	21.0
215.78218	21.0
214.0623	21.0
280.23007	20.0
165.396	20.0
141.56503	20.0
243.09135	20.0
228.07767	20.0
254.13069	20.0
231.08977	20.0
345.09555	20.0
166.64136	19.0
210.04239	19.0
227.09525	18.0
256.07797	18.0
287.16409	18.0
329.13394	17.0
129.43591	16.0
223.13118	15.0
135.07896	14.0

MSID: 8989
ID: 405
RETENTIONTIME: 30.59135
PRECURSORMZ: 487.3421
AREA: 3228424.25
PRECURSORTYPE: [M-H]-
SMILES: [H][C@@]12CC[C@]3(C)[C@]([H])(CC=C4[C@]5([H])[C@](C)(O)[C@H](C)CC[C@@]5(CC[C@@]34C)C(O)=O)[C@@]1(C)C[C@@H](O)[C@H](O)C2(C)C
NAME: tormentic acid
FORMULA: C30H48O5
INCHIKEY: OXVUXGFZHDKYLS-BLIWDXROSA-N
CAS: nan
Molecular Weight: 488.708
Number of References: 362
Class: Ursane and Taraxastane triterpenoids
Superclass: Triterpenoids
Pathway: Terpenoids
ppm: -0.24999999993724487
CMID: CM243
IONMODE: Negative
COLLISIONENERGY: 40±20eV
INSTRUMENTTYPE: AB SCIEX
INSTRUMENT: Q-TOF
Comment:  
Num Peaks: 41
487.34201	23864.0
425.34149	251.0
441.33716	168.0
423.32626	165.0
469.33066	142.0
407.32935	89.0
393.31674	65.0
421.31183	62.0
467.31738	50.0
391.29565	41.0
379.30331	31.0
441.31042	30.0
423.30612	28.0
377.27866	28.0
403.29764	26.0
405.29227	26.0
375.30118	26.0
393.29538	25.0
159.0661	25.0
323.9805	25.0
319.3316	24.0
485.74789	24.0
425.28897	24.0
407.3096	23.0
344.09906	23.0
286.978	23.0
96.96091	22.0
409.31213	22.0
385.29056	21.0
58.0056	21.0
347.01712	20.0
485.71768	19.0
467.2814	18.0
335.67526	15.0
437.30188	14.0
330.31967	14.0
485.6033	14.0
486.38263	14.0
264.75961	12.0
151.11174	12.0
479.27533	12.0

MSID: 8990
ID: 200
RETENTIONTIME: 22.5305
PRECURSORMZ: 695.3786
AREA: 3206048.5
PRECURSORTYPE: [2M-H]-
SMILES: CC(C)C1=CC2=CC=C(C)C(CCC(=O)C(C)(C)O)C2(O)C(O)=C1O
NAME: salvilimbinol
FORMULA: C20H28O5
INCHIKEY: PAXBRBHXWXXRQV-UHFFFAOYSA-N
CAS: nan
Molecular Weight: 348.439
Number of References: 2
Class: Secoabietane diterpenoids
Superclass: Diterpenoids
Pathway: Terpenoids
ppm: -0.46249999996916813
CMID: CM243
IONMODE: Negative
COLLISIONENERGY: 40±20eV
INSTRUMENTTYPE: AB SCIEX
INSTRUMENT: Q-TOF
Comment:  
Num Peaks: 152
347.18661	93126.0
317.17566	6371.0
695.37811	2469.0
299.16327	198.0
348.18726	164.0
243.13832	120.0
346.03256	107.0
215.10918	83.0
281.15005	82.0
315.15927	77.0
201.09047	69.0
346.04532	68.0
297.14767	67.0
271.16986	44.0
255.13979	42.0
329.17609	40.0
346.06171	35.0
229.52898	34.0
275.16272	33.0
346.01981	32.0
345.16965	31.0
317.15298	30.0
245.03546	30.0
265.11969	29.0
241.11931	29.0
303.16028	29.0
695.32385	29.0
267.13257	28.0
318.16876	28.0
231.98645	26.0
253.46571	26.0
695.44781	26.0
272.95795	26.0
228.10988	25.0
347.67761	25.0
233.28142	25.0
337.79196	25.0
230.22235	25.0
695.30835	24.0
240.17137	24.0
318.03778	23.0
297.14429	23.0
231.68675	23.0
242.67435	22.0
253.15401	22.0
291.53461	22.0
319.19495	22.0
214.09923	22.0
200.08632	22.0
229.62393	22.0
204.40907	22.0
243.37201	21.0
346.17285	21.0
213.09024	21.0
281.11066	21.0
235.59048	21.0
230.45569	21.0
317.10764	20.0
229.36136	20.0
649.41064	19.0
230.52853	18.0
276.4068	18.0
283.13214	17.0
193.6602	17.0
226.45638	16.0
506.43024	14.0
476.36172	14.0
628.66156	14.0
487.28125	14.0
490.53134	14.0
687.4549	14.0
177.32079	14.0
693.08173	14.0
695.08374	14.0
155.81969	14.0
330.38358	13.0
332.55515	13.0
323.61029	13.0
328.65573	13.0
362.77814	13.0
335.7684	13.0
340.69586	13.0
341.45724	13.0
321.3804	13.0
465.53848	13.0
461.94717	13.0
457.25293	13.0
455.85519	13.0
449.82028	13.0
419.25583	13.0
388.92609	13.0
350.34863	13.0
352.80176	13.0
357.95782	13.0
372.53818	13.0
345.04956	13.0
286.84348	13.0
312.51022	13.0
245.35747	13.0
236.18156	13.0
224.16478	13.0
219.66443	13.0
217.1203	13.0
209.36565	13.0
206.2473	13.0
201.912	13.0
198.9866	13.0
197.85686	13.0
196.593	13.0
194.81755	13.0
191.48318	13.0
190.20071	13.0
185.79405	13.0
175.37534	13.0
169.0631	13.0
156.50621	13.0
154.69102	13.0
152.46533	13.0
237.13516	13.0
222.72729	13.0
247.34792	13.0
263.54507	13.0
311.15448	13.0
307.93436	13.0
302.14835	13.0
288.92706	13.0
149.01236	13.0
279.13565	13.0
276.88403	13.0
248.48892	13.0
267.54727	13.0
274.32516	13.0
262.08295	13.0
250.16974	13.0
260.89688	13.0
258.63199	13.0
256.10739	13.0
251.59985	13.0
668.4873	12.0
398.34314	12.0
304.88998	12.0
325.93274	12.0
291.82562	12.0
428.23221	12.0
644.75739	12.0
436.07379	12.0
480.3154	12.0
620.09479	12.0
605.40759	12.0
499.38089	12.0
485.18018	12.0
84.9008	12.0

MSID: 8991
ID: 648
RETENTIONTIME: 37.06148
PRECURSORMZ: 761.4272
AREA: 3095716.5
PRECURSORTYPE: [M-H]-
SMILES: [H][C@](C)(CC)CCCCCCCCCCC(=O)OC[C@H](CC1=CC(OC)=C(O)C=C1)[C@H](COC(=O)\C=C\C1=CC(OC)=C(O)C=C1)CC1=CC=C(O)C(OC)=C1
NAME: Lignandiester
FORMULA: C45H62O10
INCHIKEY: KMPWSNNOFALAPV-VKYULJBKSA-N
CAS: nan
Molecular Weight: 762.981
Number of References: 1
Class: nan
Superclass: nan
Pathway: Shikimates and Phenylpropanoids
ppm: 0.7249999999885404
CMID: CM243
IONMODE: Negative
COLLISIONENERGY: 40±20eV
INSTRUMENTTYPE: AB SCIEX
INSTRUMENT: Q-TOF
Comment:  
Num Peaks: 426
761.42657	113819.0
193.05008	6989.0
241.21654	3417.0
179.03439	3209.0
134.03705	2484.0
519.20099	2414.0
175.03955	2206.0
383.14993	2110.0
746.40424	1934.0
207.06512	1345.0
537.21216	861.0
161.02458	797.0
135.04456	787.0
504.1759	539.0
160.0159	518.0
178.02818	503.0
148.05156	474.0
343.15479	426.0
149.05893	328.0
61.98875	314.0
311.12671	312.0
369.13419	166.0
368.1264	165.0
162.03146	158.0
553.3468	154.0
133.02765	137.0
147.04404	130.0
192.04453	115.0
103.05534	107.0
746.36414	106.0
473.28876	98.0
489.15485	96.0
310.11703	95.0
132.02095	89.0
758.90753	86.0
296.10526	85.0
174.0679	83.0
367.11813	82.0
136.05128	82.0
133.06493	80.0
567.36182	80.0
491.17117	76.0
552.34515	74.0
173.06032	71.0
328.13208	71.0
357.16696	68.0
342.10886	68.0
219.06387	61.0
159.04619	58.0
177.0157	57.0
381.13608	56.0
745.39062	54.0
717.40125	52.0
758.85901	51.0
475.2038	50.0
323.12589	50.0
731.38062	49.0
181.04872	49.0
187.07759	48.0
341.10254	48.0
577.21027	47.0
295.09506	46.0
270.08557	46.0
342.14148	46.0
188.0862	46.0
252.0784	44.0
689.3277	44.0
328.1232	43.0
117.03255	42.0
758.86975	40.0
162.06761	39.0
309.1142	38.0
745.40936	38.0
122.03653	37.0
519.08044	37.0
131.0517	37.0
163.07399	37.0
137.06059	37.0
491.19504	37.0
488.22617	37.0
504.12314	36.0
487.14487	36.0
353.10333	36.0
324.13531	36.0
338.15366	36.0
135.03546	36.0
490.60052	35.0
489.31299	35.0
193.03102	35.0
355.11749	34.0
322.11624	34.0
311.11288	34.0
297.11041	34.0
175.07452	34.0
490.24921	34.0
497.12485	33.0
758.93994	33.0
473.15881	31.0
343.11307	31.0
537.17126	30.0
397.16333	30.0
382.13852	30.0
337.146	30.0
354.10324	29.0
760.40552	28.0
501.29077	28.0
495.07892	28.0
217.04951	28.0
496.29333	27.0
484.16025	27.0
483.71432	27.0
512.93201	27.0
758.81854	27.0
519.12958	27.0
501.36093	27.0
329.14041	27.0
487.51453	27.0
496.54861	27.0
493.85513	27.0
503.44836	27.0
715.38562	27.0
728.38843	27.0
232.07735	27.0
484.80042	27.0
503.15616	27.0
633.2735	27.0
594.2049	27.0
506.65924	26.0
761.33472	26.0
163.03772	26.0
486.81638	26.0
502.59839	26.0
505.22971	26.0
161.05939	26.0
499.48575	26.0
320.24191	26.0
499.25598	26.0
498.55383	26.0
493.21335	26.0
567.34784	26.0
281.25174	26.0
572.75812	26.0
550.34241	26.0
195.05948	26.0
191.03348	26.0
383.07712	26.0
537.2984	26.0
431.08194	26.0
527.97803	26.0
517.98114	26.0
178.0099	26.0
500.82169	25.0
760.94836	25.0
497.47208	25.0
497.96146	25.0
516.10175	25.0
502.14185	25.0
502.72131	25.0
121.03468	25.0
507.58987	25.0
511.07956	25.0
513.64642	25.0
515.92603	25.0
746.48187	25.0
531.86212	25.0
534.46698	25.0
609.33636	25.0
565.34595	25.0
494.24475	25.0
505.18127	25.0
502.85745	25.0
491.66827	25.0
355.26144	25.0
255.06618	25.0
483.97281	25.0
194.05553	25.0
488.83652	25.0
486.16193	25.0
495.25763	24.0
569.3205	24.0
504.49258	24.0
504.97659	24.0
149.04457	24.0
494.38626	24.0
760.88086	24.0
208.06682	24.0
509.55756	24.0
511.71735	24.0
492.05054	24.0
514.41907	24.0
517.83624	24.0
518.07471	24.0
179.00557	24.0
475.16537	24.0
294.09161	24.0
527.50336	24.0
383.19788	24.0
495.72409	24.0
538.97491	24.0
545.89465	24.0
548.0108	24.0
497.64682	24.0
488.01846	24.0
553.41357	24.0
522.56238	24.0
522.19531	24.0
526.32544	23.0
525.02545	23.0
505.66562	23.0
537.1463	23.0
504.74997	23.0
521.54651	23.0
507.8017	23.0
484.9794	23.0
109.02761	23.0
497.767	23.0
760.33801	23.0
492.56329	23.0
145.44412	23.0
496.62497	23.0
496.12317	23.0
494.65848	23.0
492.10916	22.0
492.30035	22.0
521.63599	22.0
493.90955	22.0
497.27551	22.0
245.07675	22.0
527.81152	22.0
482.86826	22.0
231.067	22.0
518.19287	22.0
547.34619	22.0
499.34351	22.0
145.02989	22.0
487.91461	22.0
746.29187	22.0
495.5802	22.0
537.42322	22.0
174.02785	22.0
490.50726	22.0
485.34393	22.0
523.59485	22.0
491.55103	22.0
500.58939	21.0
499.03281	21.0
497.19473	21.0
177.05739	21.0
201.09177	21.0
503.62634	21.0
529.33795	21.0
502.10016	21.0
516.92969	21.0
761.0943	21.0
519.26123	21.0
313.14401	21.0
483.26859	21.0
146.03168	20.0
492.42856	20.0
160.05182	20.0
492.72415	20.0
563.93347	20.0
746.32397	20.0
498.07291	20.0
475.23584	20.0
268.06961	20.0
498.35269	20.0
241.19067	20.0
515.55017	20.0
498.48386	20.0
715.57422	20.0
491.07568	20.0
746.24377	20.0
177.01309	20.0
161.00223	19.0
619.26086	19.0
647.2735	19.0
599.10376	19.0
493.54617	19.0
517.08331	19.0
498.17563	19.0
509.77423	19.0
509.01834	19.0
495.37531	19.0
489.5188	19.0
499.79877	19.0
508.22327	18.0
207.03975	18.0
194.58109	18.0
283.61337	18.0
525.75494	18.0
325.10043	18.0
553.31683	18.0
493.41565	18.0
493.28729	18.0
531.01105	18.0
495.84619	18.0
566.37787	17.0
524.05878	17.0
508.09302	17.0
731.36206	17.0
493.08722	17.0
521.07922	17.0
488.34085	17.0
526.54785	17.0
493.81598	17.0
517.19916	17.0
490.44437	17.0
171.10258	17.0
339.16284	17.0
535.77863	16.0
513.24701	16.0
165.05078	16.0
533.62512	16.0
538.55212	16.0
261.35092	16.0
528.97302	16.0
488.28241	16.0
506.48734	16.0
504.80057	16.0
545.39368	16.0
496.39151	16.0
544.68951	16.0
487.30481	16.0
561.70087	16.0
193.00653	15.0
698.63275	15.0
95.13831	15.0
460.18698	15.0
542.63452	15.0
478.47769	14.0
582.7406	14.0
477.0885	14.0
574.27545	14.0
728.7558	14.0
575.8183	14.0
727.3739	14.0
724.71411	14.0
720.11328	14.0
578.33539	14.0
579.70923	14.0
713.34674	14.0
741.383	14.0
712.37671	14.0
706.97656	14.0
701.46472	14.0
583.88531	14.0
697.98322	14.0
692.99634	14.0
690.28186	14.0
584.78247	14.0
731.89447	14.0
742.5166	14.0
684.86639	14.0
569.87677	14.0
471.13522	14.0
539.3728	14.0
540.9455	14.0
546.30658	14.0
530.01184	14.0
548.29968	14.0
474.12	14.0
550.62958	14.0
553.74304	14.0
756.61621	14.0
752.93311	14.0
746.97156	14.0
555.5766	14.0
557.09412	14.0
558.16937	14.0
559.9129	14.0
562.43915	14.0
567.67206	14.0
519.72101	14.0
595.87946	14.0
688.24567	14.0
683.49091	14.0
611.46545	14.0
629.11072	14.0
626.08337	14.0
624.90778	14.0
624.00238	14.0
621.30951	14.0
479.83459	14.0
618.29132	14.0
615.82953	14.0
613.24176	14.0
610.18756	14.0
635.90814	14.0
590.08478	14.0
606.81049	14.0
605.22186	14.0
603.96497	14.0
602.64685	14.0
601.03241	14.0
599.86621	14.0
593.40308	14.0
596.75946	14.0
679.5769	14.0
588.52527	14.0
656.87842	14.0
655.26306	14.0
678.7832	14.0
675.29742	14.0
672.5849	14.0
671.59729	14.0
670.5141	14.0
668.33008	14.0
666.09143	14.0
661.25531	14.0
657.91791	14.0
637.633	14.0
481.52426	14.0
652.06836	14.0
649.29309	14.0
647.66718	14.0
586.86115	14.0
646.83258	14.0
642.92828	14.0
641.38477	14.0
639.00366	14.0
468.61978	13.0
750.90302	12.0
705.54004	12.0
631.1756	12.0
737.13086	12.0

MSID: 8992
ID: 588
RETENTIONTIME: 34.18092
PRECURSORMZ: 345.2061
AREA: 2912056.75
PRECURSORTYPE: [M-H]-
SMILES: [H][C@@]12CCC3=C(C(O)=C(OC)C(=C3)C(C)C)[C@]1(CCCC2(C)C)C(O)=O
NAME: 12-O-methylcarnosic acid
FORMULA: C21H30O4
INCHIKEY: QQNSARJGBPMQDI-YCRPNKLZSA-N
CAS: nan
Molecular Weight: 346.467
Number of References: 36
Class: Abietane diterpenoids
Superclass: Diterpenoids
Pathway: Terpenoids
ppm: -0.4849999999692045
CMID: CM243
IONMODE: Negative
COLLISIONENERGY: 40±20eV
INSTRUMENTTYPE: AB SCIEX
INSTRUMENT: Q-TOF
Comment:  
Num Peaks: 136
285.18567	36374.0
345.20599	14627.0
59.01379	10737.0
203.10626	2767.0
303.19608	1089.0
215.10628	743.0
283.16837	523.0
216.11427	462.0
267.13895	440.0
201.09045	230.0
255.1382	216.0
229.1256	215.0
269.15625	215.0
270.1597	169.0
301.18051	159.0
188.08221	126.0
253.12282	105.0
189.08948	94.0
255.13351	89.0
345.16779	88.0
345.17871	83.0
227.10522	72.0
187.07765	71.0
284.17776	61.0
268.14343	60.0
281.15167	55.0
257.15372	46.0
202.09988	43.0
215.09048	42.0
284.2438	41.0
243.13525	37.0
59.00626	36.0
241.12537	33.0
283.13211	33.0
251.14803	32.0
217.12172	31.0
244.1395	30.0
317.16516	30.0
229.11374	28.0
185.06328	28.0
286.46045	26.0
172.05313	26.0
214.10352	26.0
200.07523	25.0
203.06998	25.0
204.09137	25.0
219.70941	25.0
301.15674	25.0
177.09525	24.0
285.14102	24.0
229.23381	24.0
267.10855	23.0
216.08835	23.0
297.14597	23.0
267.17416	23.0
241.11015	22.0
173.06294	22.0
199.06949	21.0
242.13004	21.0
239.10716	21.0
299.2547	21.0
192.59868	20.0
189.33328	20.0
189.07198	20.0
203.68027	19.0
215.07899	18.0
244.02934	18.0
299.12766	18.0
230.12724	17.0
218.83211	17.0
327.16614	15.0
194.75467	15.0
305.6907	13.0
157.74229	13.0
125.09646	13.0
272.36447	13.0
276.02106	13.0
279.17001	13.0
156.05202	13.0
154.03644	13.0
151.07191	13.0
148.29358	13.0
127.37728	13.0
146.03528	13.0
339.54541	13.0
135.06622	13.0
303.10229	13.0
139.55281	13.0
344.04617	13.0
315.1575	13.0
323.67545	13.0
313.1701	13.0
287.67499	13.0
159.64949	13.0
290.21014	13.0
293.30963	13.0
294.52347	13.0
308.26779	13.0
190.13722	13.0
161.80472	13.0
163.07654	13.0
227.55112	13.0
225.40833	13.0
224.3026	13.0
223.10158	13.0
221.37164	13.0
183.07304	13.0
183.83173	13.0
212.99875	13.0
211.01253	13.0
209.80228	13.0
208.06972	13.0
206.14462	13.0
186.06242	13.0
196.3665	13.0
192.92361	13.0
175.07199	13.0
231.08791	13.0
232.63571	13.0
233.63602	13.0
266.67657	13.0
262.05756	13.0
259.8634	13.0
165.07851	13.0
166.72707	13.0
168.09041	13.0
254.12874	13.0
170.07047	13.0
252.11113	13.0
247.46959	13.0
245.05843	13.0
239.4586	13.0
238.29773	13.0
236.27335	13.0
249.94983	13.0
328.12509	12.0

MSID: 8993
ID: 598
RETENTIONTIME: 35.22618
PRECURSORMZ: 277.2162
AREA: 2902530.0
PRECURSORTYPE: [M-H]-
SMILES: CC\C=C/C\C=C/C\C=C/CCCCCCCC(O)=O
NAME: (9Z,12Z,15Z)-octadeca-9-12,15-trienoic acid
FORMULA: C18H30O2
INCHIKEY: DTOSIQBPPRVQHS-PDBXOOCHSA-N
CAS: 463-40-1
Molecular Weight: 278.435
Number of References: 21116
Class: Unsaturated fatty acids
Superclass: Fatty Acids and Conjugates
Pathway: Fatty acids
ppm: -0.5549999999630018
CMID: CM243
IONMODE: Negative
COLLISIONENERGY: 40±20eV
INSTRUMENTTYPE: AB SCIEX
INSTRUMENT: Q-TOF
Comment:  
Num Peaks: 26
277.21634	8864.0
59.01224	113.0
71.01303	102.0
259.20535	82.0
233.22888	75.0
275.20148	72.0
127.07565	48.0
205.19933	46.0
277.19351	34.0
58.00626	34.0
233.15561	23.0
276.29913	23.0
163.14395	22.0
196.9926	22.0
179.17848	20.0
141.0909	20.0
182.13074	19.0
206.13745	19.0
185.38701	16.0
97.06109	15.0
113.05289	13.0
136.31636	12.0
229.15656	12.0
267.48459	12.0
79.06033	12.0
59.02277	12.0

MSID: 8994
ID: 150
RETENTIONTIME: 18.70708
PRECURSORMZ: 637.1769
AREA: 2873241.75
PRECURSORTYPE: [M+FA-H]-
SMILES: [H][C@@]1(O[C@@H]2[C@@H](O)[C@@H](O)[C@@H](CO)O[C@H]2OC2=CC=C(C=C2)C2=CC(=O)C3=C(O2)C=C(OC)C=C3O)O[C@@H](C)[C@H](O)[C@H](O)[C@H]1O
NAME: genkwanin 4'-[O-α-L-rhamnopyranosyl-(1->2)-β-D-galactopyranoside]
FORMULA: C28H32O14
INCHIKEY: BYPZWJJKOJGVCM-GXQDQMLYSA-N
CAS: nan
Molecular Weight: 592.554
Number of References: 1
Class: Flavones
Superclass: Flavonoids
Pathway: Shikimates and Phenylpropanoids
ppm: 0.03500000002532033
CMID: CM243
IONMODE: Negative
COLLISIONENERGY: 40±20eV
INSTRUMENTTYPE: AB SCIEX
INSTRUMENT: Q-TOF
Comment:  
Num Peaks: 111
283.05997	52793.0
268.03635	5023.0
591.17566	2549.0
637.17902	229.0
284.06754	114.0
239.03326	83.0
240.04115	56.0
267.03046	50.0
268.01709	41.0
305.08527	40.0
282.13809	37.0
591.13995	34.0
267.06406	32.0
281.04529	30.0
59.01236	30.0
283.88269	27.0
284.05597	26.0
212.04536	26.0
282.04434	25.0
167.04733	25.0
196.37634	25.0
126.65124	25.0
205.07349	23.0
143.0322	22.0
211.03839	22.0
203.11629	22.0
187.57513	21.0
637.27295	20.0
200.04639	19.0
297.07205	19.0
190.60495	18.0
290.05539	17.0
268.73419	17.0
184.73061	17.0
589.17731	14.0
190.77805	13.0
156.57867	13.0
149.36299	13.0
150.99869	13.0
154.93245	13.0
155.62556	13.0
274.05627	13.0
278.24664	13.0
136.79266	13.0
269.64359	13.0
158.03535	13.0
163.05923	13.0
164.3347	13.0
192.57988	13.0
140.78889	13.0
288.52136	13.0
284.6488	13.0
285.97208	13.0
261.8772	13.0
291.69547	13.0
131.03172	13.0
309.34543	13.0
313.06479	13.0
321.07184	13.0
345.16821	13.0
372.56128	13.0
383.5148	13.0
388.08301	13.0
441.2243	13.0
101.01975	13.0
266.04721	13.0
233.5929	13.0
258.78192	13.0
207.07953	13.0
214.82655	13.0
213.47375	13.0
256.62665	13.0
185.2274	13.0
209.23129	13.0
208.25929	13.0
206.13925	13.0
217.46411	13.0
187.82333	13.0
203.93355	13.0
188.93353	13.0
200.71454	13.0
197.33261	13.0
193.97943	13.0
216.4328	13.0
212.61186	13.0
219.01059	13.0
238.40233	13.0
252.40384	13.0
248.22531	13.0
244.18111	13.0
220.69637	13.0
175.03851	13.0
183.15808	13.0
243.19205	13.0
236.96355	13.0
231.91364	13.0
223.01848	13.0
226.16788	13.0
230.33852	13.0
234.90884	13.0
394.29642	12.0
424.30228	12.0
426.50989	12.0
365.3627	12.0
488.28317	12.0
580.16052	12.0
61.72929	12.0
104.84566	12.0
634.67004	12.0
68.35084	12.0
168.05507	12.0

MSID: 8995
ID: 305
RETENTIONTIME: 28.1606
PRECURSORMZ: 389.1969
AREA: 2857825.75
PRECURSORTYPE: [M-H]-
SMILES: [H][C@@]12CC(=O)[C@]3([H])[C@]([C@@H]1O)([C@H](O)C[C@]1([H])[C@@](C)(COC(C)=O)CCC[C@@]31C)C(=O)C2=C
NAME: 7α,14β-dihydroxy-18β-acetoxy-ent-kaur-16-ene-11,15-dione
FORMULA: C22H30O6
INCHIKEY: DBSKAPJFXJMMFM-SDCGZXQLSA-N
CAS: 1486564-01-5
Molecular Weight: 390.477
Number of References: 1
Class: Kaurane and Phyllocladane diterpenoids
Superclass: Diterpenoids
Pathway: Terpenoids
ppm: 0.48500000002604793
CMID: CM243
IONMODE: Negative
COLLISIONENERGY: 40±20eV
INSTRUMENTTYPE: AB SCIEX
INSTRUMENT: Q-TOF
Comment:  
Num Peaks: 124
329.17639	23873.0
281.15359	15854.0
389.19492	7415.0
299.16522	5108.0
59.01384	4113.0
265.12311	2750.0
217.08731	390.0
311.1651	386.0
347.18326	342.0
212.0824	234.0
266.1286	221.0
217.12338	200.0
184.09224	168.0
251.10791	125.0
213.09186	112.0
226.10008	94.0
202.06389	82.0
359.18756	79.0
253.12306	77.0
237.16251	74.0
263.14008	73.0
225.08961	72.0
255.09933	71.0
283.16864	71.0
297.14792	69.0
243.10037	68.0
283.13403	68.0
389.1698	68.0
279.14246	67.0
269.15491	64.0
215.10649	63.0
298.15488	61.0
301.18253	61.0
229.12137	60.0
238.09996	59.0
256.10916	53.0
284.14008	53.0
229.08578	52.0
239.10739	51.0
255.13689	50.0
185.10075	46.0
250.10181	45.0
280.1463	43.0
317.17242	41.0
217.07864	40.0
329.14261	40.0
201.09064	39.0
202.09868	39.0
270.12292	37.0
225.08667	36.0
269.14685	35.0
174.03065	35.0
240.11847	34.0
216.07417	34.0
331.18713	32.0
174.06554	32.0
299.12625	31.0
188.0824	31.0
230.09329	31.0
266.11902	30.0
282.16104	30.0
199.0752	30.0
296.13931	30.0
175.07475	30.0
151.07687	29.0
163.07669	29.0
303.19467	29.0
271.16849	29.0
237.09314	29.0
343.15341	29.0
241.12256	28.0
293.15396	28.0
285.15121	26.0
260.94296	26.0
281.10596	26.0
280.2348	26.0
227.1143	26.0
228.11894	25.0
276.03107	25.0
202.04579	25.0
214.09799	25.0
315.16129	25.0
221.13588	25.0
252.11604	25.0
257.15396	25.0
225.91458	24.0
188.07971	24.0
200.04633	24.0
211.07248	24.0
268.14371	24.0
279.11136	24.0
328.08105	24.0
227.10544	24.0
236.0704	23.0
267.13602	23.0
184.06966	23.0
327.19656	23.0
311.12366	22.0
216.11447	22.0
253.15733	22.0
251.09239	22.0
187.04033	22.0
185.05679	21.0
227.07002	21.0
173.06053	21.0
241.07999	21.0
268.09879	21.0
203.10367	21.0
189.09505	20.0
222.06593	20.0
237.90961	20.0
249.09309	20.0
329.10355	20.0
243.08815	19.0
328.16797	17.0
328.05798	17.0
267.10239	17.0
215.57784	16.0
228.07457	16.0
271.13141	16.0
218.93373	15.0
223.07253	15.0
77.59836	12.0
305.04074	12.0

MSID: 8996
ID: 551
RETENTIONTIME: 32.9821
PRECURSORMZ: 471.348
AREA: 2837043.25
PRECURSORTYPE: [M-H]-
SMILES: [H][C@@]12CC(C)(C)CC[C@@]1(CC[C@]1(C)C2=CC[C@]2([H])[C@@]3(C)CC[C@H](O)[C@@](C)(CO)[C@]3([H])CC[C@@]12C)C(O)=O
NAME: hedaragenin
FORMULA: C30H48O4
INCHIKEY: PGOYMURMZNDHNS-MYPRUECHSA-N
CAS: 465-99-6
Molecular Weight: 472.709
Number of References: 347
Class: Oleanane triterpenoids
Superclass: Triterpenoids
Pathway: Terpenoids
ppm: 0.565000000051441
CMID: CM243
IONMODE: Negative
COLLISIONENERGY: 40±20eV
INSTRUMENTTYPE: AB SCIEX
INSTRUMENT: Q-TOF
Comment:  
Num Peaks: 107
471.34778	43663.0
407.33292	454.0
425.34109	216.0
423.32184	83.0
393.30859	53.0
405.32144	48.0
407.31909	47.0
469.79068	46.0
471.31165	42.0
453.33487	41.0
312.52567	34.0
409.31174	29.0
283.16992	27.0
407.30722	26.0
411.32114	26.0
391.29916	26.0
389.28519	25.0
377.28589	25.0
373.25095	25.0
333.21249	25.0
306.55414	24.0
205.15872	23.0
407.26178	22.0
315.0983	22.0
305.60672	21.0
311.09561	21.0
309.43796	21.0
315.74875	20.0
312.06015	19.0
317.07959	18.0
309.81705	17.0
375.25906	15.0
100.48487	15.0
328.58633	15.0
61.98798	14.0
470.19193	14.0
208.96475	13.0
388.24832	13.0
357.11514	13.0
358.53223	13.0
361.46979	13.0
364.13522	13.0
367.21194	13.0
371.81067	13.0
245.93599	13.0
110.31876	13.0
235.09912	13.0
379.25717	13.0
383.21509	13.0
384.22412	13.0
466.24002	13.0
210.81477	13.0
228.0787	13.0
223.4234	13.0
397.93066	13.0
405.29382	13.0
463.20224	13.0
161.02335	13.0
353.24872	13.0
177.12386	13.0
212.5273	13.0
423.2493	13.0
200.81412	13.0
411.18015	13.0
408.29007	13.0
354.75217	13.0
262.58881	13.0
351.30045	13.0
321.50314	13.0
269.14972	13.0
269.85709	13.0
274.46292	13.0
259.29849	13.0
293.13181	13.0
299.16483	13.0
300.16669	13.0
301.733	13.0
302.55856	13.0
303.43985	13.0
307.05673	13.0
255.15219	13.0
350.09192	13.0
320.06143	13.0
317.61514	13.0
324.1882	13.0
339.27286	13.0
265.38751	13.0
347.35434	13.0
344.36398	13.0
343.12573	13.0
342.15414	13.0
325.21698	13.0
340.72284	13.0
348.71906	13.0
338.04742	13.0
336.05542	13.0
334.95407	13.0
331.73047	13.0
330.06668	13.0
295.24478	12.0
176.00609	12.0
445.39883	12.0
277.63889	12.0
125.09532	12.0
231.1042	12.0
216.2193	12.0
413.92303	12.0

MSID: 8997
ID: 240
RETENTIONTIME: 25.66622
PRECURSORMZ: 331.19
AREA: 2806404.5
PRECURSORTYPE: [M-H]-
SMILES: [H][C@@]12C[C@H](O)C3=C[C@](C)(CC(=O)[C@@]3(O)[C@@]1(C)CCC(=O)C2(C)C)C=C
NAME: Salvipimarone
FORMULA: C20H28O4
INCHIKEY: ZBZPCFDHBJLKTD-SIDKUJJXSA-N
CAS: nan
Molecular Weight: 332.44
Number of References: 7
Class: Pimarane and Isopimarane diterpenoids
Superclass: Diterpenoids
Pathway: Terpenoids
ppm: -0.9349999999699321
CMID: CM243
IONMODE: Negative
COLLISIONENERGY: 40±20eV
INSTRUMENTTYPE: AB SCIEX
INSTRUMENT: Q-TOF
Comment:  
Num Peaks: 88
301.18042	22003.0
331.19028	16082.0
201.09177	1798.0
245.1534	1286.0
203.10899	594.0
214.09914	579.0
229.12254	559.0
283.16992	414.0
269.15134	301.0
299.16483	273.0
267.13565	257.0
213.09158	249.0
313.18387	193.0
243.13518	176.0
244.14554	164.0
286.15549	155.0
241.12224	143.0
285.14917	127.0
230.12717	122.0
258.12503	120.0
253.12274	114.0
200.08208	110.0
185.06055	110.0
240.11209	96.0
215.10764	95.0
227.10663	88.0
257.15363	82.0
303.19766	76.0
228.11421	66.0
273.18439	66.0
300.17007	64.0
214.08194	60.0
270.12259	59.0
231.13696	58.0
199.07632	57.0
188.0835	56.0
268.14655	50.0
71.0502	49.0
271.12943	47.0
226.09685	46.0
202.09564	46.0
187.07893	44.0
243.10005	44.0
186.06638	44.0
313.16479	44.0
239.17978	38.0
160.05182	38.0
201.06955	35.0
331.15463	35.0
189.09076	34.0
329.16705	34.0
229.09883	33.0
256.11197	33.0
190.09665	27.0
216.1142	27.0
330.11118	26.0
282.16068	26.0
225.08932	26.0
245.12274	25.0
223.11905	25.0
283.09412	25.0
265.12436	25.0
255.13655	25.0
287.12869	24.0
158.03511	24.0
271.16815	24.0
222.10797	23.0
242.12842	23.0
226.50343	23.0
244.10576	23.0
266.13943	23.0
172.04922	23.0
313.14575	22.0
173.09509	22.0
184.08801	22.0
205.12085	21.0
281.15158	21.0
295.16739	21.0
151.07669	20.0
244.37051	20.0
220.78477	17.0
257.11594	17.0
213.07585	16.0
218.46278	16.0
177.08997	14.0
131.02928	14.0
281.11053	13.0
83.98828	12.0

MSID: 8998
ID: 227
RETENTIONTIME: 24.85628
PRECURSORMZ: 389.1967
AREA: 2803904.75
PRECURSORTYPE: [M-H]-
SMILES: [H][C@@]12C[C@@H](OC(C)=O)C3=C(C(=O)C(O)=C(C(C)C)C3=O)[C@@]1(CO)CCCC2(C)C
NAME: 20-hydroxy-7α-acetoxyroyleanone
FORMULA: C22H30O6
INCHIKEY: RXQXVLKXTRZOMJ-ALLJEULLSA-N
CAS: nan
Molecular Weight: 390.477
Number of References: 1
Class: Abietane diterpenoids
Superclass: Diterpenoids
Pathway: Terpenoids
ppm: 0.2850000000194086
CMID: CM243
IONMODE: Negative
COLLISIONENERGY: 40±20eV
INSTRUMENTTYPE: AB SCIEX
INSTRUMENT: Q-TOF
Comment:  
Num Peaks: 71
329.17599	13425.0
281.15491	12524.0
389.19641	4855.0
59.01378	1913.0
265.1228	1868.0
311.16476	1211.0
202.06366	276.0
347.18652	208.0
299.16656	129.0
212.08215	129.0
266.12991	127.0
184.08804	110.0
251.10608	104.0
283.1683	99.0
237.16376	96.0
213.09161	87.0
296.14236	74.0
229.12111	72.0
295.13379	66.0
281.12207	59.0
269.15137	59.0
228.11572	56.0
226.1013	56.0
255.10062	55.0
279.13559	54.0
237.08835	51.0
238.09818	51.0
317.16858	50.0
229.08849	49.0
227.10814	47.0
265.10367	46.0
225.09082	43.0
187.03745	43.0
280.14597	43.0
263.14136	37.0
253.12277	37.0
188.08084	36.0
186.06372	33.0
201.09041	32.0
211.07509	32.0
202.04973	30.0
251.10297	27.0
311.12848	27.0
215.10623	26.0
197.06143	26.0
281.50641	26.0
239.06775	26.0
198.05383	25.0
270.12906	25.0
371.17468	25.0
209.09787	25.0
268.10812	25.0
253.0885	24.0
293.15866	24.0
329.12271	23.0
328.09311	23.0
316.1683	23.0
200.0835	23.0
240.11365	22.0
203.07274	22.0
250.09534	22.0
243.1062	21.0
345.17502	19.0
202.03304	16.0
248.11543	16.0
281.104	16.0
277.12354	13.0
329.21332	13.0
72.81092	12.0
148.97168	12.0
275.99008	12.0

MSID: 8999
ID: 381
RETENTIONTIME: 30.11195
PRECURSORMZ: 359.1502
AREA: 2768711.5
PRECURSORTYPE: [M-H]-
SMILES: [H][C@@]12C[C@@H](O)C3=C(C(=O)C(O)=C(C(C)C)C3=O)[C@@]11CCC[C@]2(C)C(=O)OC1
NAME: deacetylsessein
FORMULA: C20H24O6
INCHIKEY: SCNLTHYRBWAFLC-QMOQROQPSA-N
CAS: nan
Molecular Weight: 360.407
Number of References: 3
Class: Abietane diterpenoids
Superclass: Diterpenoids
Pathway: Terpenoids
ppm: 0.7350000000201362
CMID: CM243
IONMODE: Negative
COLLISIONENERGY: 40±20eV
INSTRUMENTTYPE: AB SCIEX
INSTRUMENT: Q-TOF
Comment:  
Num Peaks: 240
359.14841	20842.0
315.15942	6704.0
216.0424	2707.0
272.10608	2560.0
203.0352	2430.0
259.09689	1654.0
287.16544	1326.0
331.15491	1099.0
231.10291	832.0
175.03969	670.0
297.1478	495.0
259.17099	488.0
269.15317	465.0
137.02287	460.0
165.05469	422.0
193.04887	409.0
245.08002	385.0
152.0461	350.0
258.09064	349.0
271.16837	309.0
232.07307	303.0
165.08992	301.0
215.03458	293.0
243.06514	286.0
153.05482	259.0
243.17355	244.0
201.01834	239.0
313.14081	206.0
203.10776	202.0
175.11095	184.0
187.03891	178.0
299.12613	157.0
241.08292	149.0
213.09175	148.0
187.11258	140.0
189.01686	139.0
203.02682	136.0
228.11736	131.0
215.07048	131.0
300.13809	128.0
217.04825	125.0
217.08575	123.0
230.05606	120.0
229.08716	119.0
257.0816	115.0
244.07077	114.0
285.14941	112.0
201.05444	111.0
124.05271	110.0
271.13129	108.0
229.04567	107.0
314.15192	104.0
215.10638	103.0
199.04056	101.0
254.12729	99.0
137.05841	96.0
109.02872	95.0
198.03329	95.0
244.10748	92.0
189.05457	91.0
297.13599	88.0
167.07001	87.0
282.12308	87.0
147.04297	86.0
246.08826	84.0
83.04955	79.0
204.04111	73.0
200.04623	70.0
303.15359	70.0
272.13516	69.0
227.10681	68.0
298.12091	68.0
271.09579	67.0
188.04739	66.0
230.09468	64.0
257.11929	64.0
253.12138	64.0
243.10025	63.0
216.0755	61.0
281.11569	61.0
244.14268	61.0
227.17914	60.0
245.15666	60.0
228.08334	59.0
255.13832	58.0
331.11926	58.0
153.09239	57.0
215.02452	57.0
211.03966	55.0
174.03316	55.0
172.05194	55.0
214.06207	54.0
149.06024	54.0
201.09193	53.0
198.07188	53.0
197.09456	52.0
253.15723	52.0
279.13577	52.0
241.15742	52.0
159.11548	49.0
287.14056	49.0
231.06569	49.0
205.05231	49.0
164.04597	48.0
229.12126	47.0
259.12842	47.0
166.06145	47.0
239.07094	47.0
185.06204	46.0
203.07008	46.0
243.13843	46.0
207.0681	45.0
173.09523	45.0
242.09358	45.0
285.11139	45.0
200.08224	45.0
256.10748	44.0
283.09436	44.0
225.16298	43.0
259.15048	43.0
256.14352	43.0
219.1032	43.0
275.09137	42.0
185.09668	42.0
157.06541	42.0
151.0383	42.0
162.0291	41.0
226.06464	41.0
159.04509	40.0
341.13718	40.0
171.08095	40.0
194.06114	40.0
213.16467	40.0
161.02223	39.0
218.09259	38.0
187.07239	38.0
150.03264	38.0
177.05493	37.0
223.07535	37.0
147.11778	37.0
287.12561	37.0
145.03001	36.0
188.11589	36.0
172.08919	36.0
194.05432	36.0
193.02303	36.0
273.1506	34.0
131.04845	33.0
286.15738	33.0
183.11554	33.0
203.01147	33.0
359.11502	33.0
231.17735	32.0
297.09378	32.0
165.07481	32.0
171.04379	32.0
123.00676	31.0
331.18341	31.0
259.0575	31.0
225.09097	31.0
215.05612	30.0
160.05443	30.0
269.11942	30.0
270.09384	30.0
315.11249	30.0
135.04239	30.0
247.17094	29.0
201.01279	28.0
312.12616	28.0
141.05501	28.0
357.95425	28.0
201.1322	28.0
171.11809	27.0
327.16098	27.0
121.06602	27.0
122.03879	27.0
136.0491	27.0
316.13196	27.0
200.11827	26.0
296.14594	26.0
227.16879	26.0
239.11183	26.0
297.11572	25.0
67.05354	25.0
189.12593	25.0
119.04881	25.0
176.04652	25.0
169.10136	25.0
158.03523	25.0
211.03255	25.0
149.02557	25.0
146.03534	25.0
216.11438	25.0
127.07469	25.0
222.06438	25.0
93.06939	25.0
245.05396	25.0
97.03226	24.0
227.0345	24.0
183.07712	24.0
252.11748	24.0
299.16339	24.0
177.08751	23.0
253.08556	23.0
152.04005	23.0
107.05	23.0
237.66336	23.0
238.06056	23.0
143.04965	23.0
260.10037	23.0
133.0639	23.0
272.06085	23.0
267.10706	23.0
188.01382	23.0
175.02544	22.0
215.17821	22.0
202.02899	22.0
243.19341	22.0
239.03914	22.0
217.02228	22.0
190.09952	22.0
191.11215	22.0
215.38367	22.0
211.07381	22.0
178.0623	21.0
151.03468	21.0
303.11951	21.0
168.86331	21.0
254.09451	21.0
177.01845	21.0
255.12738	21.0
210.0663	20.0
189.08688	20.0
190.02795	20.0
233.07217	20.0
165.02199	18.0
237.13376	18.0
229.02788	17.0
79.05607	12.0
99.08124	12.0

MSID: 9000
ID: 129
RETENTIONTIME: 17.50748
PRECURSORMZ: 361.1653
AREA: 2762385.75
PRECURSORTYPE: [M-H]-
SMILES: [H][C@]1(CC(=O)C2=C(C(O)=C(O)C(C(C)C)=C2O)[C@@]1(C)CCC(O)=O)C(C)=C
NAME: candesalvone B
FORMULA: C20H26O6
INCHIKEY: UJXCXNZYTUFKHP-YBTHPKLGSA-N
CAS: nan
Molecular Weight: 362.423
Number of References: 3
Class: Abeoabietane diterpenoids
Superclass: Diterpenoids
Pathway: Terpenoids
ppm: 0.18500000004451067
CMID: CM243
IONMODE: Negative
COLLISIONENERGY: 40±20eV
INSTRUMENTTYPE: AB SCIEX
INSTRUMENT: Q-TOF
Comment:  
Num Peaks: 139
317.17615	22862.0
299.16541	15691.0
281.15378	5937.0
361.16525	2718.0
217.08601	1763.0
297.14984	1706.0
265.12329	1481.0
315.15979	653.0
257.11804	610.0
255.13705	553.0
215.10808	438.0
216.07719	397.0
258.12711	203.0
274.12125	187.0
217.12209	165.0
241.1212	155.0
214.09956	144.0
202.06403	138.0
243.10054	135.0
174.03207	133.0
284.14194	130.0
233.11729	125.0
271.13321	122.0
259.1319	110.0
217.10477	108.0
273.15094	103.0
184.09103	97.0
231.09723	96.0
215.06929	92.0
283.1293	92.0
212.08539	86.0
281.12585	85.0
256.10464	84.0
204.07912	83.0
199.07533	82.0
164.0838	80.0
279.13773	77.0
201.09077	75.0
241.08472	74.0
213.09343	73.0
200.08386	70.0
189.05344	68.0
188.08388	63.0
316.16891	61.0
165.08885	60.0
266.1272	60.0
271.16867	58.0
189.09114	55.0
188.04762	54.0
191.07176	52.0
203.07172	52.0
269.11652	51.0
175.03729	51.0
171.08115	50.0
229.08595	48.0
251.10498	47.0
191.10695	47.0
230.09198	47.0
302.14709	46.0
289.18225	45.0
255.12299	45.0
299.13324	44.0
179.10683	44.0
297.1279	43.0
242.09233	42.0
298.15002	42.0
163.07431	42.0
159.04651	41.0
253.12012	40.0
225.0883	40.0
289.10233	40.0
226.09877	38.0
181.08597	37.0
269.15347	37.0
257.09763	36.0
215.06499	36.0
256.14383	35.0
218.08995	33.0
219.10344	33.0
190.10379	32.0
174.06953	30.0
202.10022	30.0
343.15546	30.0
216.11174	29.0
301.13855	28.0
175.07358	28.0
228.07326	27.0
265.06909	26.0
298.18384	26.0
297.18698	26.0
267.11377	26.0
316.11145	26.0
296.13953	26.0
146.03314	26.0
151.07458	26.0
285.14975	26.0
295.12927	26.0
217.04706	26.0
187.04448	25.0
361.14105	25.0
173.02072	25.0
149.06161	25.0
257.08191	25.0
319.33542	25.0
274.10181	25.0
252.07735	25.0
130.03937	24.0
281.08646	24.0
255.09952	24.0
234.84291	24.0
239.10605	24.0
273.11047	24.0
178.09911	23.0
237.09331	23.0
225.08536	23.0
186.07076	22.0
184.05649	22.0
216.37096	22.0
252.10844	21.0
316.14453	21.0
176.08441	21.0
199.88168	21.0
264.11334	20.0
283.11777	20.0
227.07166	20.0
209.66365	20.0
254.0948	19.0
209.05295	19.0
205.45941	19.0
284.12045	19.0
185.09555	19.0
172.047	19.0
97.06518	18.0
259.08618	16.0
119.55059	16.0
160.01497	14.0
220.36053	14.0
299.20776	13.0
55.19158	12.0

MSID: 9001
ID: 455
RETENTIONTIME: 31.14878
PRECURSORMZ: 345.1695
AREA: 2753048.0
PRECURSORTYPE: [M-H]-
SMILES: [H][C@@]12CC(=O)[C@]3([H])[C@]([C@@H]1O)([C@H](O)C[C@]1([H])C(C)(C)C(=O)CC[C@@]31C)C(=O)C2=C
NAME: 7α,14β-dihydroxy-ent-kaur-16-ene-3,11,15-trione
FORMULA: C20H26O5
INCHIKEY: OLSLELPNBFYALP-CRVIWPIJSA-N
CAS: 1486563-98-7
Molecular Weight: 346.423
Number of References: 2
Class: Kaurane and Phyllocladane diterpenoids
Superclass: Diterpenoids
Pathway: Terpenoids
ppm: -0.6999999999379725
CMID: CM243
IONMODE: Negative
COLLISIONENERGY: 40±20eV
INSTRUMENTTYPE: AB SCIEX
INSTRUMENT: Q-TOF
Comment:  
Num Peaks: 128
345.16946	15092.0
273.18597	10805.0
301.18042	8933.0
259.16919	5725.0
218.09384	3456.0
203.10619	1741.0
204.11507	1395.0
189.09074	656.0
232.11015	639.0
190.09799	533.0
283.16992	510.0
216.11562	410.0
217.08557	350.0
299.1665	325.0
203.0713	297.0
201.09036	291.0
285.14917	267.0
188.08484	257.0
217.12453	234.0
215.10764	160.0
219.10155	158.0
227.10365	153.0
244.14705	152.0
243.13974	145.0
231.10121	144.0
175.07451	127.0
327.15714	114.0
243.09851	109.0
203.08665	99.0
188.04991	97.0
284.13968	90.0
205.12224	90.0
214.0977	86.0
202.06361	85.0
174.03171	83.0
204.0759	82.0
257.18817	75.0
271.13104	68.0
317.17377	62.0
216.07964	61.0
187.11375	61.0
269.1192	61.0
312.13971	59.0
300.16666	58.0
230.08853	54.0
190.08855	53.0
185.09918	53.0
229.12254	50.0
201.05287	50.0
257.15048	48.0
270.12741	47.0
245.10585	47.0
177.09126	45.0
231.08781	45.0
218.07214	44.0
301.14813	43.0
286.15216	43.0
146.03758	41.0
255.13811	41.0
174.06918	40.0
187.07222	40.0
189.08267	37.0
241.08574	35.0
267.13565	35.0
189.04901	34.0
191.10657	33.0
215.07173	33.0
283.12872	33.0
297.14584	31.0
243.12141	31.0
229.08104	30.0
244.11034	30.0
259.14554	30.0
268.14816	28.0
188.12244	28.0
244.09656	28.0
232.08778	27.0
171.07823	27.0
242.09337	26.0
283.19794	26.0
199.07907	25.0
189.11229	25.0
257.11908	25.0
149.02425	25.0
259.11716	25.0
230.1331	25.0
215.06024	25.0
160.04933	25.0
273.14389	24.0
281.15485	24.0
130.04803	24.0
172.05435	24.0
258.12186	24.0
219.08705	24.0
271.1149	23.0
286.14386	23.0
183.05576	23.0
299.14447	23.0
200.07515	23.0
256.10727	23.0
330.1485	23.0
199.06802	22.0
317.14584	22.0
216.72501	22.0
176.08275	22.0
345.12762	22.0
258.32172	22.0
169.48091	21.0
186.06636	21.0
228.11568	21.0
218.04756	21.0
135.08325	21.0
161.0631	20.0
223.11172	20.0
172.08647	19.0
204.14165	19.0
301.10904	18.0
274.19043	18.0
212.08211	18.0
298.16122	17.0
266.12344	17.0
233.11234	16.0
156.15228	16.0
258.1077	16.0
209.00722	15.0
173.02295	14.0
312.09647	13.0
147.08559	13.0

MSID: 9002
ID: 148
RETENTIONTIME: 18.69438
PRECURSORMZ: 347.1853
AREA: 2685257.5
PRECURSORTYPE: [M-H]-
SMILES: [H][C@@]12CC(=O)[C@]3([H])[C@]([C@@H]1O)([C@H](O)C[C@]1([H])C(C)(C)[C@@H](O)CC[C@@]31C)C(=O)C2=C
NAME: 3β,7α,14β-trihydroxy-ent-kaur-16-ene-11,15-dione
FORMULA: C20H28O5
INCHIKEY: PXZCGMKCJOVSST-ZZHJHLMKSA-N
CAS: 1486563-97-6
Molecular Weight: 348.439
Number of References: 1
Class: Kaurane and Phyllocladane diterpenoids
Superclass: Diterpenoids
Pathway: Terpenoids
ppm: -0.5499999999756255
CMID: CM243
IONMODE: Negative
COLLISIONENERGY: 40±20eV
INSTRUMENTTYPE: AB SCIEX
INSTRUMENT: Q-TOF
Comment:  
Num Peaks: 129
347.18521	26763.0
299.16531	9277.0
281.15369	9261.0
265.1232	2099.0
215.10655	1394.0
329.17294	1003.0
255.13696	695.0
213.0905	162.0
200.0838	141.0
243.09892	140.0
214.10092	126.0
212.08389	117.0
284.14017	108.0
201.0921	106.0
184.08965	101.0
275.08997	100.0
251.10335	98.0
186.06935	95.0
269.11966	89.0
304.09747	87.0
299.13315	86.0
241.12569	80.0
311.16522	78.0
226.09869	77.0
239.10748	76.0
279.13928	74.0
266.13031	71.0
199.07803	70.0
240.114	67.0
301.18091	66.0
276.09952	65.0
317.16733	64.0
225.08969	63.0
229.08736	59.0
255.11977	59.0
267.1377	59.0
151.07693	57.0
285.14966	54.0
256.14059	53.0
297.14465	53.0
329.13385	52.0
270.12143	51.0
283.13248	51.0
228.11311	49.0
230.09189	49.0
172.05208	49.0
253.11848	48.0
287.16235	46.0
255.10255	45.0
304.09064	45.0
171.11694	42.0
299.19919	40.0
188.08247	39.0
202.09737	39.0
260.10535	39.0
241.08463	39.0
329.14984	38.0
271.16858	37.0
202.06256	37.0
252.11456	37.0
231.09863	36.0
203.10374	36.0
256.10925	35.0
185.09816	35.0
236.08705	35.0
251.11887	33.0
228.07761	33.0
237.16411	32.0
259.09552	32.0
257.15405	32.0
295.12918	32.0
227.07452	32.0
215.0764	30.0
303.11975	29.0
245.117	28.0
217.12201	28.0
282.15948	28.0
265.08813	28.0
283.17368	27.0
254.12906	27.0
237.09323	27.0
244.10768	27.0
229.12589	27.0
238.0955	27.0
299.1145	26.0
346.03479	26.0
276.11417	26.0
286.07974	25.0
216.11598	25.0
197.0961	25.0
218.08553	25.0
303.16235	25.0
155.91158	25.0
223.07846	25.0
263.14017	25.0
158.03659	25.0
242.09073	25.0
216.07568	24.0
298.14822	23.0
221.11266	22.0
208.1039	22.0
264.11166	22.0
317.1394	22.0
217.0816	22.0
242.13034	22.0
296.13605	22.0
81.45986	21.0
289.18048	21.0
269.1582	21.0
269.08432	21.0
198.06929	21.0
179.84143	21.0
346.02206	21.0
255.17139	20.0
347.14142	20.0
205.11838	20.0
203.08699	19.0
163.21559	19.0
281.09949	18.0
272.41492	18.0
250.09415	18.0
161.02237	17.0
166.69441	17.0
212.06392	16.0
284.12531	16.0
202.05699	16.0
268.11172	16.0
240.0791	15.0
188.14828	13.0

MSID: 9003
ID: 400
RETENTIONTIME: 30.56608
PRECURSORMZ: 329.1389
AREA: 2659525.0
PRECURSORTYPE: [M-H]-
SMILES: C[C@H]1CO[C@@]2(OC(=O)C3=C2C=CC2=C3CCCC2(C)C)[C@H]1C(O)=O
NAME: epi-danshenspiroketallactone D
FORMULA: C19H22O5
INCHIKEY: SOVXETGLOOCGAS-FUVFPRGESA-N
CAS: nan
Molecular Weight: 330.381
Number of References: 1
Class: Illudalane sesquiterpenoids
Superclass: Sesquiterpenoids
Pathway: Terpenoids
ppm: 0.0
CMID: CM243
IONMODE: Negative
COLLISIONENERGY: 40±20eV
INSTRUMENTTYPE: AB SCIEX
INSTRUMENT: Q-TOF
Comment:  
Num Peaks: 219
329.13895	33217.0
283.13394	4275.0
301.14331	1400.0
258.08908	1181.0
268.10992	1093.0
245.08157	1029.0
286.08453	860.0
253.08559	854.0
273.07782	800.0
284.13998	751.0
299.09229	737.0
311.12872	689.0
255.13835	668.0
314.11374	630.0
230.05905	538.0
246.08983	404.0
267.10391	392.0
313.10791	358.0
300.13474	334.0
312.13483	327.0
257.08008	309.0
296.10553	292.0
273.11343	289.0
286.11929	271.0
297.1124	268.0
229.04866	265.0
243.06822	264.0
271.09583	250.0
295.09531	243.0
231.06572	240.0
215.07051	232.0
269.11624	231.0
285.11307	229.0
281.08124	227.0
240.11383	225.0
258.05292	223.0
299.12616	210.0
273.14902	209.0
187.03893	179.0
218.05646	169.0
301.18069	168.0
215.03317	168.0
232.07309	160.0
271.05875	153.0
243.13693	145.0
230.09322	141.0
242.09512	139.0
285.14944	133.0
255.10081	130.0
239.10732	121.0
244.07539	121.0
241.08902	114.0
269.08252	114.0
268.09869	109.0
229.08571	106.0
190.06444	104.0
202.0652	103.0
217.08578	100.0
225.05722	99.0
329.17804	96.0
284.10532	93.0
273.06003	91.0
203.07289	90.0
272.10773	90.0
256.07462	90.0
257.11618	88.0
227.07143	87.0
240.07893	86.0
243.10333	82.0
201.05585	82.0
225.08954	81.0
214.09935	81.0
238.0621	80.0
257.04398	80.0
274.08044	79.0
271.13132	78.0
282.12146	77.0
284.11685	76.0
216.07985	75.0
254.09299	74.0
313.14432	73.0
256.11066	72.0
239.07097	72.0
175.03841	69.0
237.05386	69.0
233.08116	68.0
227.11127	67.0
268.07306	66.0
243.02699	66.0
213.05461	66.0
281.11572	61.0
241.04948	60.0
218.0955	59.0
258.12369	59.0
280.07245	54.0
311.11319	53.0
270.12283	52.0
282.09021	52.0
273.13446	52.0
230.02043	51.0
265.12302	51.0
284.069	51.0
252.07707	50.0
298.08038	50.0
299.16171	49.0
174.03059	49.0
217.04538	48.0
213.09035	48.0
214.06352	48.0
269.10501	47.0
187.07643	46.0
327.1185	45.0
231.10146	45.0
215.11072	45.0
174.07195	44.0
301.11273	43.0
287.08914	42.0
228.04196	42.0
328.12708	42.0
266.09497	42.0
212.04524	42.0
267.06708	42.0
239.14365	41.0
270.08905	40.0
202.02484	40.0
286.05304	40.0
173.05919	39.0
268.14682	39.0
256.03857	38.0
203.03662	38.0
260.05618	38.0
255.06172	36.0
245.12143	36.0
188.07697	36.0
328.06143	36.0
201.09056	35.0
237.09155	35.0
190.02663	34.0
200.04626	34.0
227.10388	34.0
297.07355	34.0
285.05356	34.0
295.07849	34.0
251.10782	33.0
297.14783	33.0
267.13431	33.0
299.06519	33.0
199.07375	32.0
266.1333	32.0
141.19229	32.0
189.05727	31.0
186.06387	31.0
314.15195	30.0
226.09706	30.0
281.05991	29.0
311.16153	29.0
266.05981	29.0
223.07684	29.0
200.08643	29.0
274.11935	28.0
259.06226	28.0
185.05939	28.0
228.08041	28.0
189.01823	28.0
172.04938	27.0
259.10165	27.0
83.05135	27.0
265.08316	26.0
224.04614	26.0
199.03783	26.0
257.15073	26.0
209.09946	26.0
205.08739	25.0
228.42957	25.0
328.04016	25.0
210.07057	25.0
176.08812	25.0
159.04387	25.0
177.09013	25.0
273.0228	25.0
190.02393	25.0
196.05112	25.0
145.02766	25.0
205.47322	24.0
144.06107	24.0
214.05493	24.0
197.09322	24.0
240.10017	24.0
293.11697	24.0
241.1179	24.0
184.09218	23.0
253.0482	23.0
229.11536	23.0
246.07292	23.0
249.09454	22.0
179.07124	22.0
227.03305	22.0
226.06172	22.0
158.03403	21.0
143.04851	21.0
314.0773	21.0
216.93576	21.0
211.08095	21.0
192.3461	21.0
245.03711	21.0
294.09525	20.0
218.03911	20.0
198.10361	20.0
250.08778	20.0
229.3689	20.0
284.08881	20.0
230.01302	19.0
242.02048	19.0
210.03226	19.0
197.05884	19.0
204.0761	18.0
122.4199	18.0
220.48825	17.0
80.02989	12.0

MSID: 9004
ID: 356
RETENTIONTIME: 29.48082
PRECURSORMZ: 345.1698
AREA: 2649653.75
PRECURSORTYPE: [M-H]-
SMILES: [H][C@]12CCC=C3C(=O)OC[C@@]13C[C@@H](O)[C@@H](C)[C@]2(C)CCC1=CCOC1=O
NAME: 7α-hydroxy-ent-clerodan-3,13-dien-18,19:16,15-diolide
FORMULA: C20H26O5
INCHIKEY: GMKZQTXTISTVFH-ACLXAEORSA-N
CAS: 100343-68-8
Molecular Weight: 346.423
Number of References: 2
Class: Colensane and Clerodane diterpenoids
Superclass: Diterpenoids
Pathway: Terpenoids
ppm: -0.3999999999564352
CMID: CM243
IONMODE: Negative
COLLISIONENERGY: 40±20eV
INSTRUMENTTYPE: AB SCIEX
INSTRUMENT: Q-TOF
Comment:  
Num Peaks: 90
301.18069	25662.0
243.13844	16559.0
345.1698	8510.0
57.03415	1929.0
299.16339	1641.0
317.17581	567.0
283.16852	370.0
244.14729	228.0
201.09056	194.0
241.1255	143.0
228.11443	142.0
217.08722	140.0
215.1064	133.0
227.10683	131.0
343.15872	111.0
203.10638	107.0
200.08365	98.0
199.07512	88.0
216.08128	81.0
284.14493	68.0
271.13129	66.0
297.14783	65.0
267.1391	62.0
229.12128	62.0
165.09245	59.0
301.13992	52.0
213.09177	52.0
202.0986	52.0
283.13229	52.0
285.14615	51.0
269.11783	49.0
330.1506	46.0
162.0715	46.0
164.08237	45.0
345.1225	44.0
230.09322	41.0
317.14093	40.0
330.11325	40.0
215.06763	40.0
174.03188	39.0
299.1329	39.0
187.07643	38.0
217.12617	34.0
185.06204	34.0
327.12558	33.0
281.15347	32.0
188.08502	32.0
253.12453	32.0
57.02454	31.0
242.32982	30.0
345.14435	29.0
300.18732	29.0
312.13138	27.0
268.14841	27.0
286.15573	27.0
256.10751	26.0
258.12527	26.0
271.11517	26.0
202.6196	25.0
202.09164	25.0
209.09378	25.0
297.11237	25.0
229.08421	25.0
243.10791	25.0
267.09747	25.0
225.12479	24.0
215.11932	24.0
202.05963	24.0
242.35422	23.0
257.11774	23.0
330.09546	23.0
156.0937	23.0
315.06903	23.0
284.11685	22.0
187.98161	22.0
273.15063	22.0
201.82027	22.0
206.15459	22.0
174.85966	21.0
299.1109	21.0
216.05392	21.0
271.08939	21.0
255.13835	21.0
312.08292	19.0
301.61594	19.0
177.09143	19.0
135.45467	19.0
233.09909	18.0
343.13876	18.0
79.44925	12.0

MSID: 9005
ID: 214
RETENTIONTIME: 23.60715
PRECURSORMZ: 345.1698
AREA: 2644295.75
PRECURSORTYPE: [M-H]-
SMILES: [H][C@@]12C[C@@H](O)C3=C(C(=O)C(O)=C(C(C)C)C3=O)[C@]1(CCCC2(C)C)C=O
NAME: deacetylnemorone
FORMULA: C20H26O5
INCHIKEY: ANIQKNXCSIWOOD-XAAFQQQXSA-N
CAS: nan
Molecular Weight: 346.423
Number of References: 2
Class: Abietane diterpenoids
Superclass: Diterpenoids
Pathway: Terpenoids
ppm: -0.3999999999564352
CMID: CM243
IONMODE: Negative
COLLISIONENERGY: 40±20eV
INSTRUMENTTYPE: AB SCIEX
INSTRUMENT: Q-TOF
Comment:  
Num Peaks: 454
345.1716	65917.0
327.15921	9493.0
216.0798	6931.0
297.14948	5164.0
281.11896	4198.0
315.15942	2801.0
231.10141	1823.0
215.0719	1436.0
254.0945	1321.0
299.12952	1183.0
329.14069	1103.0
267.10226	1033.0
228.07889	1016.0
256.10904	917.0
201.0558	761.0
282.12634	709.0
296.14087	667.0
312.10019	624.0
269.08087	562.0
257.11615	537.0
217.08717	531.0
300.13809	474.0
213.056	457.0
241.08594	415.0
203.07005	408.0
229.08714	370.0
309.20572	363.0
283.0993	355.0
284.10529	354.0
311.09241	342.0
239.07092	341.0
280.11011	334.0
271.13449	334.0
230.09615	315.0
273.11337	312.0
227.07138	312.0
255.10077	310.0
283.12238	309.0
269.10013	292.0
264.11304	279.0
313.14081	270.0
272.10446	263.0
301.14328	260.0
253.0871	252.0
238.06357	234.0
243.10023	232.0
247.20479	221.0
173.02435	211.0
330.14346	209.0
311.12695	198.0
259.09689	197.0
242.0966	195.0
213.09174	194.0
188.04602	194.0
265.21707	190.0
240.07889	180.0
200.0462	179.0
317.17752	176.0
214.06491	174.0
233.08261	173.0
295.12894	172.0
269.11459	168.0
266.09494	166.0
311.11142	162.0
200.08499	162.0
279.13742	157.0
271.09579	150.0
187.07504	144.0
317.13742	142.0
280.14453	141.0
202.06238	140.0
230.08278	139.0
256.0918	136.0
261.07574	132.0
291.19373	128.0
295.09695	128.0
298.12091	126.0
219.10027	126.0
297.11404	125.0
265.12457	125.0
199.03915	120.0
281.09598	117.0
285.10974	115.0
232.07603	112.0
284.13828	108.0
171.10269	106.0
299.11935	102.0
187.04156	98.0
219.06837	98.0
268.07462	98.0
284.12344	97.0
258.05286	96.0
254.0867	96.0
241.12242	95.0
244.00957	95.0
230.0605	94.0
312.13309	94.0
210.1046	92.0
243.06512	92.0
297.0769	91.0
268.1131	90.0
231.06567	90.0
309.11273	89.0
215.10924	88.0
201.07524	87.0
174.03313	87.0
255.13518	87.0
226.06316	84.0
253.10268	84.0
273.14575	83.0
213.076	83.0
256.0777	81.0
258.08905	81.0
237.13072	80.0
201.09329	80.0
241.06616	79.0
244.07687	78.0
301.1127	77.0
260.07352	74.0
248.54768	74.0
255.36205	73.0
228.09811	73.0
178.09756	71.0
245.08153	71.0
165.11757	70.0
211.03821	70.0
192.30937	70.0
244.11053	70.0
251.07054	70.0
286.11761	69.0
265.08313	69.0
232.69107	68.0
217.06699	68.0
201.11273	68.0
179.0712	67.0
270.12762	67.0
257.09729	67.0
240.43712	67.0
255.11798	67.0
265.11819	67.0
330.11499	66.0
251.14348	65.0
255.06636	65.0
214.10072	64.0
273.13281	64.0
317.16357	64.0
150.0674	64.0
271.11676	64.0
57.03485	64.0
234.02995	64.0
209.84209	64.0
247.22943	64.0
218.05786	63.0
309.1489	63.0
226.37982	61.0
238.07565	61.0
242.06766	61.0
241.05553	60.0
274.11932	60.0
205.08875	60.0
234.72258	60.0
190.02794	59.0
294.09018	59.0
224.04463	59.0
236.02214	58.0
301.12628	58.0
218.92636	58.0
269.05838	57.0
237.09453	57.0
227.28392	57.0
166.34926	57.0
173.06171	57.0
294.12711	57.0
232.07007	57.0
177.09009	57.0
225.05569	56.0
250.94952	56.0
222.46439	56.0
217.50291	56.0
226.14856	56.0
330.12747	56.0
229.05602	55.0
225.33638	55.0
195.28944	55.0
245.11832	55.0
204.9317	54.0
265.09747	54.0
227.10089	53.0
316.95258	53.0
286.08447	53.0
240.04399	53.0
248.96161	53.0
274.08688	52.0
258.12524	51.0
272.035	51.0
59.01377	51.0
231.71365	51.0
231.92389	51.0
172.05447	51.0
260.12723	51.0
176.19984	51.0
198.06909	51.0
225.41429	51.0
289.07367	51.0
179.22063	50.0
313.11481	50.0
239.65422	50.0
125.09867	50.0
334.83966	50.0
259.11737	49.0
171.0822	49.0
225.0939	49.0
225.12181	48.0
274.035	48.0
228.22385	48.0
267.06384	48.0
245.15512	48.0
190.06303	48.0
253.12137	48.0
226.03076	47.0
240.05614	47.0
191.1067	47.0
197.06017	47.0
171.04633	47.0
197.11928	47.0
189.05588	46.0
240.261	46.0
197.61594	46.0
244.08911	46.0
243.04527	46.0
203.09378	45.0
266.12848	45.0
185.06067	45.0
199.07646	45.0
268.09064	44.0
179.10527	44.0
344.04453	44.0
327.12024	44.0
295.11716	44.0
188.05811	44.0
222.65576	44.0
287.09244	44.0
139.11359	43.0
301.23505	43.0
197.8335	43.0
252.0817	43.0
281.14523	43.0
177.0536	43.0
228.41028	43.0
287.12561	42.0
151.07797	42.0
184.67055	42.0
218.66852	42.0
218.02026	42.0
270.08899	42.0
229.11679	42.0
204.08165	41.0
271.07806	41.0
225.86737	41.0
146.0365	41.0
219.33371	41.0
175.03577	41.0
150.49837	41.0
71.01143	40.0
283.2262	40.0
241.11179	40.0
212.49034	40.0
272.14001	39.0
327.19641	39.0
301.18408	39.0
181.06729	39.0
315.0864	39.0
285.07831	39.0
215.36928	39.0
195.03226	38.0
232.19241	38.0
251.10468	38.0
309.08347	38.0
233.13495	38.0
237.05533	38.0
184.05093	38.0
239.10423	38.0
225.19234	38.0
267.14706	38.0
259.0575	38.0
226.27228	38.0
309.16437	38.0
253.14163	37.0
172.31276	37.0
156.36539	37.0
236.09285	37.0
198.02913	37.0
207.39655	37.0
263.10501	36.0
324.68414	36.0
233.36676	36.0
83.04951	36.0
168.27333	36.0
249.09142	36.0
212.0452	36.0
230.81418	36.0
215.8481	35.0
228.11438	35.0
213.1189	35.0
229.32881	35.0
212.08369	35.0
97.06406	35.0
281.62982	35.0
342.61105	35.0
241.95187	35.0
185.02205	35.0
252.6324	35.0
252.12834	35.0
57.42155	35.0
257.51828	34.0
191.07016	34.0
227.50395	34.0
230.6907	34.0
236.12296	34.0
282.06879	33.0
230.04416	33.0
220.07979	33.0
271.17157	33.0
225.65108	33.0
279.06378	33.0
228.06262	33.0
197.4893	33.0
247.70082	33.0
144.061	32.0
286.22031	32.0
143.04845	32.0
188.26364	32.0
212.12221	31.0
185.09665	31.0
256.14664	31.0
127.11219	31.0
274.68869	31.0
246.08672	31.0
227.02563	31.0
280.10355	31.0
301.35065	31.0
200.56734	31.0
177.93294	30.0
199.11238	30.0
254.14445	30.0
235.11131	30.0
222.06581	30.0
249.74406	30.0
257.0816	30.0
247.06316	30.0
248.09708	30.0
195.90712	29.0
197.11378	29.0
189.02222	29.0
153.12508	29.0
344.01184	29.0
263.20349	28.0
161.06569	28.0
172.08788	28.0
221.21877	28.0
207.03426	28.0
289.13028	28.0
227.75069	28.0
230.22093	28.0
188.08363	28.0
277.37646	27.0
195.08286	27.0
295.08856	27.0
243.59518	27.0
193.98335	27.0
213.13463	26.0
281.21255	26.0
186.03177	26.0
215.04749	26.0
240.10013	26.0
111.08126	26.0
245.22566	26.0
178.06619	26.0
275.13519	26.0
246.12665	26.0
289.18356	25.0
187.11121	25.0
185.05667	25.0
221.05858	25.0
157.05557	25.0
228.52722	25.0
183.04131	25.0
223.77354	25.0
129.09059	25.0
232.95107	25.0
211.0752	25.0
215.03024	24.0
228.30818	24.0
144.32794	24.0
232.63281	24.0
71.04939	24.0
207.10472	24.0
174.06543	24.0
217.0136	24.0
302.15356	23.0
328.13589	23.0
203.03378	23.0
261.4588	23.0
191.09181	23.0
288.13705	23.0
213.31909	23.0
279.12268	23.0
204.04108	23.0
228.03304	22.0
137.09621	22.0
253.04504	22.0
245.77342	22.0
302.12122	21.0
329.11227	21.0
233.88165	21.0
231.0627	21.0
259.0827	21.0
209.00879	21.0
164.08609	21.0
300.10416	21.0
170.07179	21.0
298.15982	20.0
119.27433	20.0
176.04779	20.0
234.22624	20.0
191.26378	20.0
218.09111	20.0
203.05191	20.0
141.06776	19.0
311.07513	19.0
95.05144	19.0
113.09673	18.0
206.08707	18.0
157.12184	18.0
290.07852	18.0
287.16379	15.0
149.0614	15.0
121.06814	15.0
256.04321	15.0
226.72325	14.0
321.10495	14.0
141.14221	13.0
110.08134	13.0
265.15646	13.0
133.22884	13.0
138.33159	13.0
139.41983	13.0
148.0576	13.0
153.98787	13.0
155.14203	13.0
159.06233	13.0
85.98884	12.0
81.07926	12.0
55.05115	12.0

MSID: 9006
ID: 498
RETENTIONTIME: 31.8973
PRECURSORMZ: 315.1602
AREA: 2626894.75
PRECURSORTYPE: [M-H]-
SMILES: [H][C@]12CCCC[C@@]1([H])[C@@H]([C@@H](C)C=C2)C1=CC(OCC)=C(C=O)C(=O)O1
NAME: solanapyrone R
FORMULA: C19H24O4
INCHIKEY: KCOWVKVOYPFKNH-HNSFDTNUSA-N
CAS: nan
Molecular Weight: 316.397
Number of References: 2
Class: 2-pyrone derivatives
Superclass: Cyclic polyketides
Pathway: Polyketides
ppm: 0.5649999999945976
CMID: CM243
IONMODE: Negative
COLLISIONENERGY: 40±20eV
INSTRUMENTTYPE: AB SCIEX
INSTRUMENT: Q-TOF
Comment:  
Num Peaks: 193
315.16028	31847.0
297.14865	17009.0
269.15402	5689.0
282.12558	5509.0
281.11819	4302.0
215.10722	2882.0
254.12971	1760.0
267.10153	1559.0
172.05273	1060.0
253.12379	792.0
271.16922	606.0
241.08528	567.0
239.1051	477.0
266.09421	399.0
243.13928	321.0
213.09117	314.0
200.08308	313.0
259.09775	313.0
280.10934	258.0
238.06142	219.0
188.08582	200.0
226.06255	196.0
227.06929	170.0
252.07945	167.0
269.13315	167.0
296.14172	166.0
171.0446	144.0
252.11678	134.0
197.0954	132.0
242.09291	131.0
239.07179	124.0
238.09767	113.0
198.0672	113.0
185.05885	111.0
228.11525	111.0
154.04216	98.0
300.13895	98.0
229.05244	95.0
254.09225	89.0
265.08557	89.0
214.09729	88.0
225.05656	87.0
285.15027	86.0
287.16299	85.0
256.10989	81.0
226.05812	79.0
253.08797	79.0
216.04036	78.0
255.13605	75.0
244.07162	73.0
194.07288	73.0
211.07607	72.0
271.13376	71.0
251.06985	71.0
184.05179	70.0
235.11218	68.0
243.06447	67.0
199.07732	66.0
264.11548	66.0
197.05965	63.0
259.17026	61.0
285.1106	61.0
299.12866	61.0
240.07521	60.0
226.10083	60.0
229.08505	59.0
228.07976	59.0
213.05685	57.0
227.10323	56.0
224.04697	56.0
223.0762	56.0
237.09087	55.0
254.10629	55.0
315.19504	55.0
201.05666	55.0
209.05779	53.0
199.03864	52.0
214.0629	50.0
210.06856	50.0
83.04932	48.0
243.10721	48.0
169.06523	47.0
257.12015	47.0
279.10229	46.0
269.11386	46.0
298.15729	46.0
212.04463	46.0
186.07002	45.0
263.10587	45.0
283.13477	42.0
187.07455	42.0
188.04822	41.0
268.11557	41.0
268.14764	41.0
295.13315	41.0
297.1149	40.0
215.06989	39.0
237.05469	39.0
232.07391	39.0
231.10524	38.0
201.08998	38.0
315.14114	38.0
216.07634	38.0
212.08313	38.0
221.05798	37.0
215.13164	37.0
256.14438	37.0
201.01778	36.0
267.13513	36.0
200.04845	36.0
225.12709	36.0
272.10211	36.0
208.0537	35.0
225.09476	35.0
250.101	35.0
230.05394	35.0
279.13828	35.0
173.05997	35.0
170.03433	35.0
224.09094	34.0
296.13162	34.0
296.17038	34.0
181.06549	33.0
187.11206	33.0
185.09883	32.0
272.1344	32.0
231.06505	32.0
209.09319	32.0
210.10545	32.0
222.06668	31.0
156.05656	31.0
211.03908	31.0
143.05043	30.0
187.03973	30.0
185.05486	30.0
269.17813	29.0
238.08559	29.0
236.08319	29.0
83.05557	29.0
254.07664	29.0
230.09404	28.0
229.12062	28.0
182.07362	28.0
198.03275	27.0
281.0788	26.0
244.05632	26.0
218.0891	26.0
271.09988	26.0
195.85042	26.0
203.06952	26.0
202.06044	26.0
268.09955	25.0
180.05359	25.0
215.03111	25.0
251.06676	25.0
241.12178	25.0
198.7569	25.0
265.12225	25.0
183.04216	25.0
298.6394	25.0
314.13889	25.0
267.06631	24.0
253.15028	24.0
314.09027	24.0
211.11305	24.0
227.05453	24.0
203.1058	23.0
196.43878	23.0
220.74507	22.0
185.88438	22.0
167.05055	22.0
234.07126	22.0
241.05334	22.0
235.08066	22.0
255.09695	22.0
68.48506	21.0
210.66652	21.0
213.16122	21.0
174.03139	21.0
228.03687	21.0
183.08058	20.0
251.149	20.0
228.09602	20.0
174.31183	19.0
230.02869	19.0
269.09299	19.0
244.9659	18.0
158.03726	18.0
144.05713	18.0
146.03494	18.0
177.95729	17.0
262.09818	17.0
147.11739	16.0

MSID: 9007
ID: 390
RETENTIONTIME: 30.39947
PRECURSORMZ: 345.1698
AREA: 2564368.0
PRECURSORTYPE: [M-H]-
SMILES: [H][C@]12CCC=C(C)[C@@]11COC(=O)[C@H](C[C@@H]1O)[C@]2(C)CCC1=CCOC1=O
NAME: Salvimadrensin
FORMULA: C20H26O5
INCHIKEY: UGJRFUBZMMXTKY-MHZKCTCGSA-N
CAS: nan
Molecular Weight: 346.423
Number of References: 2
Class: Colensane and Clerodane diterpenoids
Superclass: Diterpenoids
Pathway: Terpenoids
ppm: -0.3999999999564352
CMID: CM243
IONMODE: Negative
COLLISIONENERGY: 40±20eV
INSTRUMENTTYPE: AB SCIEX
INSTRUMENT: Q-TOF
Comment:  
Num Peaks: 208
345.1698	33539.0
317.17404	3401.0
299.16339	3293.0
217.12329	2147.0
245.15361	1809.0
301.1416	1629.0
327.16098	1368.0
243.13844	1128.0
231.10143	723.0
285.14944	720.0
203.10637	585.0
244.14423	548.0
312.13483	520.0
282.12473	396.0
269.11621	384.0
271.16998	378.0
255.13989	375.0
311.12698	344.0
243.10332	336.0
301.17899	336.0
201.09055	333.0
113.06137	315.0
273.14902	278.0
229.12274	274.0
284.1449	273.0
270.12604	247.0
283.13556	235.0
315.15942	219.0
281.15182	215.0
343.15326	214.0
179.07124	195.0
309.14719	193.0
256.11063	183.0
330.14526	173.0
287.16379	170.0
297.11404	166.0
215.10927	163.0
297.1478	147.0
73.03007	147.0
283.17181	137.0
303.1553	136.0
227.10683	129.0
298.15643	118.0
315.12466	115.0
214.09932	112.0
202.09999	96.0
271.1329	92.0
257.11304	90.0
230.09766	89.0
289.18027	89.0
241.12245	88.0
309.21088	88.0
266.13489	84.0
240.11382	78.0
257.15228	77.0
71.05109	76.0
269.15479	75.0
267.13428	75.0
268.11151	73.0
228.11441	73.0
200.08365	73.0
230.13034	73.0
213.08891	70.0
255.10236	70.0
245.13521	67.0
197.11656	67.0
266.1221	66.0
313.13736	66.0
187.0724	64.0
285.11472	63.0
164.08612	63.0
209.1575	59.0
245.11987	59.0
286.11597	58.0
241.09052	57.0
178.06232	57.0
59.01457	57.0
253.12451	57.0
258.09064	56.0
300.13303	55.0
229.08421	53.0
181.08446	53.0
285.16763	52.0
273.18787	51.0
253.15723	50.0
267.10388	49.0
201.0836	49.0
291.19373	49.0
251.10625	48.0
239.10577	47.0
216.11295	47.0
231.14163	47.0
327.18048	46.0
177.09143	45.0
283.15533	44.0
227.10239	44.0
85.06423	44.0
101.0246	43.0
215.06905	42.0
252.07706	42.0
256.14511	41.0
203.06729	40.0
258.1221	40.0
227.14519	39.0
188.08232	39.0
344.03726	38.0
216.07695	37.0
284.10693	37.0
254.12886	37.0
269.07767	36.0
271.15063	35.0
255.17587	35.0
256.10278	35.0
153.08997	35.0
100.01628	35.0
302.11102	34.0
165.09119	34.0
287.15717	34.0
273.11502	33.0
301.1076	33.0
217.0901	33.0
270.16306	32.0
253.084	32.0
243.06056	32.0
101.05906	32.0
185.05937	32.0
242.09358	32.0
265.1246	31.0
99.04615	31.0
138.03233	31.0
294.12714	31.0
240.07285	31.0
345.13885	30.0
317.13916	30.0
295.13568	30.0
217.07133	29.0
87.04731	29.0
282.10828	29.0
317.12869	27.0
259.09848	27.0
228.07448	27.0
327.08661	26.0
250.09706	26.0
259.17416	26.0
296.10886	26.0
259.08588	26.0
343.12424	26.0
233.12003	26.0
245.07695	26.0
272.14001	26.0
231.07018	25.0
298.12939	25.0
224.04173	25.0
185.09935	25.0
344.05725	25.0
204.11105	25.0
268.14038	24.0
297.09549	24.0
299.20236	24.0
164.04599	24.0
244.10902	24.0
327.12378	24.0
212.48323	24.0
285.08826	24.0
232.11186	24.0
236.13802	24.0
175.07986	24.0
201.05167	23.0
218.09259	23.0
344.01364	23.0
191.06613	23.0
233.15739	23.0
268.10028	22.0
123.04587	22.0
162.06775	22.0
343.17865	22.0
193.08562	22.0
186.06787	22.0
189.05995	22.0
247.12938	22.0
299.78195	22.0
281.11899	22.0
283.10095	22.0
199.07236	22.0
250.92628	21.0
235.07681	21.0
73.02505	21.0
219.13509	21.0
212.07945	21.0
211.11081	21.0
149.05905	21.0
122.03663	20.0
175.03839	20.0
205.11963	20.0
311.10278	20.0
197.09595	20.0
275.12711	20.0
309.142	19.0
101.01968	19.0
287.13226	19.0
293.11194	19.0
226.09999	19.0
315.09161	18.0
255.09297	17.0
342.6582	17.0
58.00261	17.0
69.03581	12.0
81.54025	12.0

MSID: 9008
ID: 442
RETENTIONTIME: 31.12403
PRECURSORMZ: 287.1651
AREA: 2556405.25
PRECURSORTYPE: [M-H]-
SMILES: [H][C@@]12C[C@@H]3OC[C@@]1(CCCC2(C)C)C1=CC(=O)C(C)=C[C@@]31O
NAME: yunnannin A
FORMULA: C18H24O3
INCHIKEY: MIQYKENQAGSZSZ-PLYYQAHHSA-N
CAS: nan
Molecular Weight: 288.387
Number of References: 3
Class: Podocarpane diterpenoids
Superclass: Diterpenoids
Pathway: Terpenoids
ppm: 0.38000000000693035
CMID: CM243
IONMODE: Negative
COLLISIONENERGY: 40±20eV
INSTRUMENTTYPE: AB SCIEX
INSTRUMENT: Q-TOF
Comment:  
Num Peaks: 50
287.16541	3328.0
271.13287	432.0
243.10023	214.0
229.08418	150.0
231.10139	144.0
257.12085	113.0
216.07837	102.0
243.17352	73.0
216.11435	68.0
272.14322	63.0
244.10747	63.0
259.1694	60.0
203.06728	57.0
215.0676	48.0
227.1068	47.0
269.15958	46.0
228.08037	45.0
188.05006	45.0
187.03621	44.0
229.12273	41.0
203.10635	37.0
204.08026	36.0
201.09053	36.0
255.10077	36.0
257.10513	36.0
213.09317	35.0
175.11353	35.0
201.05165	33.0
145.03	29.0
137.05841	28.0
271.11835	27.0
230.09317	26.0
239.10574	26.0
202.06795	26.0
199.07509	26.0
174.06674	25.0
218.09546	24.0
161.06323	24.0
211.07805	24.0
255.13518	24.0
287.11731	23.0
269.1178	23.0
173.05528	22.0
254.12727	21.0
213.05028	21.0
148.04927	18.0
172.05321	18.0
200.04622	17.0
155.60468	12.0
76.41158	12.0

MSID: 9009
ID: 260
RETENTIONTIME: 26.86063
PRECURSORMZ: 361.1647
AREA: 2458461.25
PRECURSORTYPE: [M-H]-
SMILES: [H][C@@]12[C@@H]3OC(=O)[C@@]1(CCCC2(C)C)C1=C(O)C(O)=C(C=C1[C@@H]3O)C(C)CO
NAME: 16-Hydroxyrosmanol
FORMULA: C20H26O6
INCHIKEY: CVXJXNWPXLHWHD-MMKQEVOBSA-N
CAS: nan
Molecular Weight: 362.423
Number of References: 2
Class: Abietane diterpenoids
Superclass: Diterpenoids
Pathway: Terpenoids
ppm: -0.41499999997540726
CMID: CM243
IONMODE: Negative
COLLISIONENERGY: 40±20eV
INSTRUMENTTYPE: AB SCIEX
INSTRUMENT: Q-TOF
Comment:  
Num Peaks: 141
317.17392	25364.0
299.16327	8148.0
271.16824	3625.0
361.16467	1434.0
243.10168	867.0
281.15335	775.0
284.14148	732.0
256.10895	672.0
256.14658	631.0
273.18289	519.0
228.11578	467.0
253.15868	357.0
266.12997	350.0
230.09459	333.0
256.12463	290.0
216.07974	281.0
241.08586	267.0
283.13379	235.0
298.15631	224.0
255.14291	223.0
228.07881	209.0
258.12515	207.0
214.09637	168.0
200.08495	158.0
242.09044	150.0
215.10486	144.0
215.07184	143.0
229.08559	142.0
188.08359	140.0
238.13753	123.0
265.12448	117.0
269.11771	106.0
280.14279	101.0
227.06836	99.0
238.09825	99.0
213.08881	99.0
241.12234	92.0
282.15915	91.0
201.05437	87.0
199.07364	81.0
253.12129	71.0
226.09694	70.0
200.04477	70.0
271.13602	67.0
201.08908	64.0
213.05594	63.0
243.13986	63.0
228.09361	63.0
331.15475	61.0
270.16455	59.0
257.11606	59.0
258.12042	58.0
317.15125	56.0
187.07634	55.0
251.10925	54.0
185.06062	52.0
231.10431	51.0
227.10524	51.0
325.19946	48.0
300.17191	48.0
316.13358	47.0
289.13351	46.0
212.12071	46.0
255.09756	45.0
223.13377	44.0
225.08795	43.0
202.09851	41.0
188.04732	40.0
230.12875	39.0
315.15927	39.0
269.15948	39.0
297.146	39.0
284.10022	38.0
259.05267	37.0
250.0954	36.0
159.04501	35.0
186.06511	35.0
229.07373	35.0
271.12634	33.0
229.12117	33.0
214.05339	33.0
259.17563	30.0
175.03961	30.0
165.08859	30.0
257.1506	30.0
223.11183	30.0
199.03772	30.0
285.15262	29.0
299.13446	29.0
273.13919	28.0
187.03616	28.0
239.1087	28.0
230.07379	27.0
264.11453	27.0
224.08121	26.0
281.10736	26.0
237.09143	26.0
231.04922	26.0
192.54434	26.0
231.72701	25.0
256.08386	25.0
243.07878	25.0
232.07745	25.0
228.05959	25.0
266.10281	24.0
243.05283	24.0
210.58174	24.0
150.06737	24.0
207.06239	24.0
302.10239	23.0
244.10587	23.0
298.11911	23.0
239.06934	23.0
135.07762	23.0
210.06479	23.0
189.08949	23.0
183.04391	22.0
333.16617	22.0
185.10326	22.0
361.12933	22.0
258.04962	22.0
245.15044	22.0
197.05875	22.0
313.14587	22.0
263.14304	21.0
325.14117	20.0
317.00998	20.0
171.0386	20.0
203.10071	20.0
287.17032	20.0
172.05315	20.0
238.07407	20.0
267.13898	20.0
198.07042	20.0
230.05447	19.0
125.09756	19.0
321.50681	18.0
174.19591	16.0
316.11792	15.0
343.14041	13.0
142.71599	12.0

MSID: 9010
ID: 161
RETENTIONTIME: 19.17745
PRECURSORMZ: 345.1702
AREA: 2315172.75
PRECURSORTYPE: [M-H]-
SMILES: [H][C@@]12CCC3=C(C(=O)C(O)=C(C(C)C)C3=O)[C@@]11CCC[C@]2(C)CO[C@H]1O
NAME: 7-dehydroxyconacytone
FORMULA: C20H26O5
INCHIKEY: RZFFOXODHLOLEI-MTBPISGOSA-N
CAS: 1492900-07-8
Molecular Weight: 346.423
Number of References: 1
Class: Abeoabietane diterpenoids
Superclass: Diterpenoids
Pathway: Terpenoids
ppm: 5.6843418860808015e-11
CMID: CM243
IONMODE: Negative
COLLISIONENERGY: 40±20eV
INSTRUMENTTYPE: AB SCIEX
INSTRUMENT: Q-TOF
Comment:  
Num Peaks: 123
281.15378	17524.0
345.16837	13554.0
317.17441	3279.0
327.15958	1877.0
316.16718	1474.0
299.16544	1108.0
265.12012	464.0
217.08601	455.0
343.15366	425.0
230.09346	232.0
227.10709	232.0
266.13199	218.0
302.11478	211.0
274.12128	207.0
299.15356	154.0
216.07864	150.0
243.10207	145.0
317.16046	129.0
279.13937	113.0
229.08743	111.0
243.13719	106.0
215.07217	85.0
256.11249	81.0
273.14932	72.0
327.14365	71.0
280.14651	71.0
238.10315	69.0
241.12273	66.0
301.14194	64.0
213.09058	64.0
297.14984	62.0
315.16153	62.0
231.10318	60.0
240.11409	59.0
202.05986	54.0
203.108	51.0
239.10909	51.0
266.12402	51.0
187.07663	50.0
188.04494	50.0
284.13699	50.0
59.01389	49.0
251.10809	48.0
257.11646	48.0
174.03207	48.0
295.13266	45.0
201.09079	44.0
175.0386	42.0
283.16556	42.0
281.12094	40.0
187.0378	39.0
250.09735	38.0
215.10951	38.0
200.0811	38.0
204.08191	38.0
287.16248	38.0
317.20581	37.0
165.08885	36.0
244.11084	36.0
236.08563	35.0
273.11047	34.0
189.09384	34.0
344.0304	33.0
191.0704	33.0
225.08243	33.0
217.12065	33.0
267.13779	32.0
299.11969	32.0
315.01376	31.0
215.06499	31.0
171.07986	31.0
259.13031	31.0
265.09781	30.0
271.16547	30.0
212.08255	30.0
281.10452	29.0
289.17227	29.0
274.09857	29.0
253.12013	29.0
345.13016	27.0
217.06583	27.0
317.10291	26.0
285.15143	26.0
245.12016	26.0
316.12015	25.0
330.03534	25.0
219.09911	25.0
275.16479	25.0
192.68327	24.0
184.08838	24.0
237.08879	24.0
246.12234	24.0
227.58844	24.0
155.10565	23.0
281.18826	23.0
255.10109	23.0
252.11623	23.0
226.61592	23.0
209.17899	22.0
211.07263	22.0
228.11319	22.0
139.11148	22.0
241.08624	21.0
185.06358	21.0
164.08255	21.0
287.01312	21.0
218.06248	21.0
232.78101	21.0
229.74007	20.0
226.09877	20.0
218.0914	20.0
298.15677	20.0
213.082	20.0
159.04651	20.0
257.15887	20.0
271.13159	19.0
231.80638	19.0
209.01472	19.0
254.09169	19.0
217.35303	18.0
216.04266	18.0
199.07259	17.0
171.04401	13.0

MSID: 9011
ID: 54
RETENTIONTIME: 12.56653
PRECURSORMZ: 895.1921
AREA: 2314046.5
PRECURSORTYPE: [2M-H]-
SMILES: OC[C@H]1OC(OC2=CC=C(C=C2O)C2=CC(=O)C3=C(O2)C=C(O)C=C3O)[C@H](O)[C@@H](O)[C@@H]1O
NAME: luteolin-4'-O-glucoside
FORMULA: C21H20O11
INCHIKEY: UHNXUSWGOJMEFO-MKJMBMEGSA-N
CAS: 6920-38-3
Molecular Weight: 448.383
Number of References: 22
Class: Flavones
Superclass: Flavonoids
Pathway: Shikimates and Phenylpropanoids
ppm: -0.602500000013606
CMID: CM243
IONMODE: Negative
COLLISIONENERGY: 40±20eV
INSTRUMENTTYPE: AB SCIEX
INSTRUMENT: Q-TOF
Comment:  
Num Peaks: 1157
447.09406	115712.0
285.04724	49010.0
895.19513	10059.0
284.03134	8546.0
448.09473	4512.0
327.05157	1788.0
448.45755	804.0
286.04343	547.0
448.17557	516.0
445.62924	375.0
448.07605	311.0
445.60236	310.0
256.03882	268.0
285.0274	264.0
199.0394	250.0
175.04117	216.0
133.02901	186.0
217.05138	169.0
255.02914	161.0
331.69727	160.0
227.03328	145.0
299.05365	140.0
283.90097	139.0
201.01994	136.0
315.65546	135.0
300.0723	134.0
357.06409	127.0
298.50693	125.0
292.94128	120.0
269.04745	120.0
296.28955	113.0
296.1463	112.0
298.07901	111.0
291.39966	111.0
291.16736	110.0
448.42023	110.0
448.71475	108.0
326.36301	108.0
213.05626	106.0
293.68762	105.0
290.50934	104.0
448.54672	104.0
337.11072	104.0
303.7442	102.0
300.14865	101.0
292.45709	100.0
292.69162	100.0
295.52139	100.0
151.00233	99.0
340.80307	99.0
288.64795	98.0
241.05125	98.0
297.67169	98.0
289.97714	97.0
306.71426	97.0
380.38971	97.0
200.73265	97.0
288.77606	96.0
581.70691	96.0
313.68384	95.0
314.2009	95.0
341.53021	94.0
336.51584	92.0
293.36215	92.0
294.96109	91.0
293.99985	91.0
292.52911	91.0
290.65289	91.0
304.4136	91.0
295.0351	91.0
309.47476	91.0
354.33066	90.0
302.21011	90.0
288.23215	89.0
290.97186	89.0
223.03905	89.0
287.12598	89.0
301.23032	89.0
446.09448	88.0
393.91946	88.0
448.66287	88.0
205.02309	88.0
301.50403	87.0
429.09058	87.0
311.92068	87.0
325.50732	87.0
448.40363	87.0
298.02997	86.0
329.90372	86.0
313.60403	86.0
297.36426	86.0
320.92813	85.0
293.60037	85.0
313.39771	85.0
295.15283	85.0
305.39511	84.0
243.0303	83.0
299.42294	83.0
211.03847	83.0
314.82956	83.0
291.79764	83.0
296.85956	83.0
301.90546	82.0
287.87482	82.0
302.38208	82.0
448.95749	82.0
303.56332	82.0
285.81161	82.0
300.92618	81.0
288.71948	81.0
297.51794	81.0
322.94174	81.0
292.73517	81.0
331.50824	81.0
303.28357	80.0
314.97208	80.0
362.94849	80.0
307.27533	80.0
329.26193	80.0
297.81363	80.0
315.07635	80.0
265.15359	80.0
314.1575	80.0
277.16971	78.0
322.13098	78.0
295.83966	78.0
207.61827	78.0
291.1239	77.0
291.03702	77.0
292.28128	76.0
309.13376	76.0
445.54654	76.0
298.12296	76.0
316.51553	75.0
291.55347	75.0
295.58032	75.0
290.13226	75.0
293.50305	75.0
300.78857	74.0
292.75024	74.0
320.73169	74.0
297.59903	74.0
448.4866	74.0
294.8501	73.0
290.48264	73.0
313.76709	73.0
291.30103	73.0
290.43423	73.0
320.29691	73.0
324.34232	72.0
520.95074	72.0
340.60968	72.0
306.02179	72.0
327.10648	72.0
322.31378	72.0
257.57516	71.0
357.35281	71.0
296.54581	71.0
298.57797	70.0
297.71393	70.0
295.49448	70.0
290.44592	70.0
293.2179	70.0
291.77924	70.0
288.79938	70.0
292.2428	70.0
294.62314	70.0
300.40488	69.0
292.91614	69.0
449.53867	69.0
292.88599	69.0
296.25922	69.0
305.09741	69.0
296.66388	68.0
312.35669	68.0
297.04013	68.0
305.78198	68.0
298.33099	68.0
308.51941	68.0
298.9436	68.0
310.34363	68.0
214.65013	68.0
448.6131	68.0
289.48376	67.0
294.35928	67.0
298.78107	67.0
357.1048	67.0
292.58942	67.0
239.03337	67.0
295.17639	67.0
458.65991	67.0
309.81598	67.0
295.26556	67.0
291.67389	66.0
295.67966	66.0
299.89081	66.0
291.20746	66.0
287.83328	66.0
297.86264	66.0
308.03967	66.0
299.54666	65.0
298.17877	65.0
602.17224	65.0
310.61798	65.0
309.27151	65.0
320.45642	65.0
296.5863	65.0
191.2789	64.0
295.19492	64.0
294.54749	64.0
298.83017	64.0
293.0318	64.0
297.17517	64.0
206.74576	64.0
199.74739	64.0
317.02097	64.0
355.70529	64.0
299.10614	64.0
291.95157	64.0
318.08197	64.0
309.62811	64.0
317.42911	64.0
247.59016	64.0
448.6297	64.0
294.32568	63.0
228.42241	63.0
288.88925	63.0
299.20609	63.0
295.62241	63.0
306.78287	63.0
292.00845	63.0
312.16806	63.0
295.55676	63.0
319.2392	63.0
304.70755	63.0
310.29361	63.0
300.68671	63.0
332.8129	63.0
409.2175	63.0
215.03195	62.0
314.91125	62.0
293.16592	62.0
301.72342	62.0
294.20306	62.0
223.23506	62.0
299.08752	62.0
304.29913	62.0
291.74078	62.0
307.50024	62.0
316.72812	62.0
307.08997	62.0
257.04581	62.0
310.80096	62.0
407.24091	62.0
296.49356	62.0
296.96756	62.0
328.65271	62.0
292.37839	61.0
304.80328	61.0
313.90759	61.0
295.39517	61.0
387.76306	61.0
298.75061	61.0
307.138	61.0
190.30771	61.0
185.0609	60.0
311.55933	60.0
291.51166	60.0
296.95743	60.0
292.08545	60.0
627.51654	60.0
454.11392	60.0
296.10922	60.0
312.82068	60.0
240.42374	60.0
294.08884	60.0
287.46457	60.0
307.68573	60.0
552.91498	60.0
306.96814	59.0
192.95793	59.0
287.72696	59.0
299.4043	59.0
303.95587	59.0
188.1631	59.0
322.5459	59.0
328.97589	59.0
301.75064	59.0
310.86829	59.0
312.14038	59.0
339.43954	59.0
326.81253	59.0
302.98007	58.0
446.54343	58.0
296.18506	58.0
441.69366	58.0
296.34012	58.0
287.34338	58.0
290.78314	58.0
285.84305	58.0
307.93484	58.0
286.62009	58.0
312.45706	58.0
303.97977	58.0
308.6398	58.0
353.22552	58.0
344.98831	57.0
290.61118	57.0
219.36008	57.0
290.35748	57.0
194.1705	57.0
309.84872	57.0
294.75931	57.0
309.31113	57.0
291.99005	57.0
339.68857	57.0
438.03378	57.0
365.30301	57.0
386.88617	57.0
300.48804	57.0
212.29793	57.0
305.24796	57.0
316.24902	56.0
305.51492	56.0
316.07489	56.0
313.04416	56.0
306.22397	56.0
334.58209	56.0
304.0993	56.0
338.28043	56.0
322.48962	56.0
302.47403	56.0
322.23291	56.0
310.00388	56.0
296.90005	56.0
294.69205	55.0
306.91153	55.0
327.40762	55.0
298.7049	55.0
294.5206	55.0
303.31427	55.0
588.30328	55.0
316.29257	55.0
198.03075	55.0
298.30222	55.0
297.0975	55.0
311.58698	55.0
290.0889	55.0
320.11642	55.0
296.82919	55.0
297.26633	55.0
324.07956	55.0
300.3353	55.0
345.5542	55.0
200.09216	54.0
312.56613	54.0
298.43246	54.0
249.60666	54.0
307.57922	54.0
446.5993	54.0
306.52393	54.0
293.7984	54.0
313.07535	54.0
249.97191	54.0
309.74356	54.0
304.97256	54.0
296.70267	54.0
189.05611	54.0
321.05096	54.0
317.69086	54.0
324.98459	54.0
449.85223	54.0
290.94849	54.0
530.07611	54.0
318.70227	53.0
315.8486	53.0
405.45047	53.0
318.25839	53.0
301.36121	53.0
308.85834	53.0
301.11136	53.0
295.311	53.0
293.51648	53.0
330.32004	53.0
342.78369	53.0
298.05704	53.0
288.0676	53.0
324.8204	53.0
294.72232	53.0
288.99078	53.0
585.81671	53.0
333.64771	52.0
296.64871	52.0
413.05573	52.0
308.43683	52.0
407.59076	52.0
445.56308	52.0
297.15997	52.0
284.55145	52.0
200.01875	52.0
356.62381	52.0
185.61951	52.0
457.83395	52.0
450.08902	52.0
326.54526	52.0
321.20715	52.0
329.07004	52.0
329.21216	52.0
317.07501	52.0
295.1293	51.0
328.00861	51.0
303.6145	51.0
302.00925	51.0
295.85144	51.0
295.90366	51.0
220.71391	51.0
305.13846	51.0
300.52539	51.0
298.85217	51.0
308.36804	51.0
372.11365	51.0
309.57642	51.0
568.94562	50.0
313.46185	50.0
187.88918	50.0
316.38312	50.0
299.72296	50.0
304.65283	50.0
443.54172	50.0
306.27365	50.0
298.9165	50.0
300.12149	50.0
252.69496	50.0
293.70609	50.0
295.66113	50.0
289.88544	50.0
320.79483	50.0
203.00891	50.0
323.366	50.0
212.04688	50.0
288.47162	50.0
289.33548	50.0
217.03117	49.0
289.36212	49.0
291.23251	49.0
323.84866	49.0
321.52664	49.0
300.29794	49.0
325.09933	49.0
186.70042	49.0
301.81699	49.0
340.33682	49.0
319.84839	49.0
348.18967	49.0
291.35284	49.0
311.01508	49.0
304.86484	49.0
325.86786	49.0
346.83148	49.0
299.45007	49.0
460.74274	49.0
448.4389	48.0
171.04526	48.0
293.08377	48.0
307.44702	48.0
293.93268	48.0
293.57016	48.0
313.32663	48.0
313.55896	48.0
183.04286	48.0
300.98053	48.0
335.51779	48.0
308.09641	48.0
311.88611	48.0
319.27771	48.0
308.82047	48.0
398.7211	48.0
330.88626	48.0
330.97177	48.0
317.92654	48.0
289.25055	47.0
315.44846	47.0
290.83325	47.0
292.13565	47.0
346.35382	47.0
305.1778	47.0
289.83209	47.0
323.69009	47.0
369.85968	47.0
302.70569	47.0
406.42316	47.0
307.33197	47.0
341.77457	47.0
191.93362	47.0
293.87225	47.0
317.23022	47.0
297.48587	47.0
245.85663	47.0
384.94125	47.0
294.88876	47.0
448.26886	47.0
291.59528	47.0
312.62326	47.0
337.38586	47.0
287.96622	47.0
297.97083	46.0
305.36603	46.0
296.75327	46.0
322.06772	46.0
329.50363	46.0
314.56204	46.0
332.14865	46.0
297.54498	46.0
332.6825	46.0
302.51151	46.0
322.88718	46.0
317.15698	46.0
299.64496	46.0
291.06876	46.0
301.19974	46.0
321.00357	46.0
344.26477	46.0
227.50571	46.0
321.42307	46.0
205.41026	46.0
306.29251	46.0
318.13785	46.0
313.18106	46.0
328.76813	46.0
187.04045	46.0
316.77866	46.0
298.55597	46.0
446.64691	46.0
303.4166	46.0
157.42906	45.0
323.15646	45.0
214.45076	45.0
289.05072	45.0
229.04741	45.0
229.48038	45.0
312.78778	45.0
307.0076	45.0
287.69376	45.0
342.6713	45.0
245.63097	45.0
308.99432	45.0
311.16708	45.0
334.06464	45.0
250.05707	45.0
349.22284	45.0
321.69699	45.0
319.68555	45.0
193.0137	45.0
316.35004	45.0
294.25009	45.0
299.15695	45.0
292.63968	45.0
303.8688	45.0
291.88129	45.0
292.41357	45.0
457.75015	45.0
300.76141	44.0
295.76724	44.0
368.4072	44.0
328.90662	44.0
289.13562	44.0
300.01633	44.0
206.03249	44.0
295.73691	44.0
293.31854	44.0
316.02094	44.0
323.565	44.0
299.32806	44.0
295.82449	44.0
146.4559	44.0
305.00504	44.0
90.85326	44.0
340.8555	44.0
319.05377	44.0
336.42603	44.0
332.5289	44.0
194.69621	44.0
261.50821	44.0
318.79144	44.0
293.41077	44.0
160.44136	43.0
295.08218	43.0
342.40125	43.0
285.54181	43.0
342.16391	43.0
284.46558	43.0
316.70895	43.0
297.05701	43.0
370.8981	43.0
233.81155	43.0
358.11404	43.0
348.38702	43.0
288.34521	42.0
194.59648	42.0
296.07214	42.0
177.01994	42.0
449.0965	42.0
290.15726	42.0
620.95215	42.0
318.99954	42.0
317.62106	42.0
297.57709	42.0
339.26276	42.0
291.81271	42.0
267.08978	42.0
296.42441	42.0
218.83826	42.0
430.30856	42.0
310.13492	42.0
297.29504	42.0
190.06056	42.0
380.60941	42.0
301.96161	42.0
294.92575	42.0
328.70065	42.0
384.46683	42.0
600.21533	42.0
361.48358	42.0
300.96185	42.0
319.77835	42.0
294.98294	42.0
360.26324	42.0
555.12085	42.0
312.87091	42.0
315.93564	42.0
356.88275	42.0
210.8493	42.0
327.66815	41.0
310.72845	41.0
362.70227	41.0
348.091	41.0
314.88345	41.0
317.2529	41.0
602.87177	41.0
311.47464	41.0
315.73203	41.0
306.0509	41.0
191.01353	41.0
294.41641	41.0
209.24413	41.0
195.38823	41.0
290.71301	41.0
303.0585	41.0
250.41026	41.0
309.06491	41.0
300.54578	41.0
309.55402	41.0
293.10556	40.0
198.35611	40.0
295.69986	40.0
304.53662	40.0
305.70493	40.0
197.06041	40.0
453.00439	40.0
295.2908	40.0
295.45911	40.0
310.19528	40.0
426.69016	40.0
437.05258	40.0
449.00107	40.0
194.83287	40.0
194.46399	40.0
317.54251	40.0
317.47797	40.0
316.85187	40.0
446.31583	40.0
446.73798	40.0
296.98611	40.0
302.25436	40.0
323.25507	40.0
325.66812	40.0
282.75702	40.0
588.95428	40.0
354.7308	40.0
356.19305	40.0
331.38879	40.0
246.38512	40.0
332.95047	40.0
324.71277	40.0
671.09131	40.0
313.05801	40.0
381.5155	40.0
333.20963	40.0
313.1308	40.0
339.04453	40.0
298.45786	39.0
331.04306	39.0
337.45602	39.0
351.38193	39.0
297.33218	39.0
350.02853	39.0
328.23032	39.0
292.34155	39.0
296.20358	39.0
353.63791	39.0
326.06058	39.0
414.87082	39.0
288.51651	39.0
289.5704	39.0
199.05598	39.0
321.85861	39.0
333.73895	39.0
449.83145	39.0
306.31479	39.0
448.37875	39.0
306.8309	39.0
452.18356	39.0
307.3869	39.0
306.41934	39.0
328.17355	38.0
327.33499	38.0
294.07037	38.0
211.01286	38.0
422.33807	38.0
423.26633	38.0
247.87531	38.0
328.05826	38.0
373.90851	38.0
559.17749	38.0
314.2738	38.0
330.14389	38.0
288.297	38.0
328.48053	38.0
388.69696	38.0
334.3797	38.0
324.44989	38.0
315.62241	38.0
338.45877	38.0
296.39914	38.0
291.93149	38.0
454.47083	37.0
305.85391	37.0
207.01338	37.0
203.1373	37.0
197.01093	37.0
399.38428	37.0
379.6929	37.0
313.79135	37.0
450.14307	37.0
289.6254	37.0
296.8815	37.0
286.32504	37.0
173.02327	37.0
91.77875	37.0
298.80817	37.0
297.76801	37.0
645.71124	37.0
251.93742	37.0
285.86624	37.0
186.60945	37.0
309.03391	37.0
333.29007	37.0
449.20029	37.0
302.44339	37.0
318.46631	37.0
311.77887	37.0
260.90994	36.0
335.16989	36.0
371.53772	36.0
452.68555	36.0
335.86765	36.0
325.38898	36.0
324.19241	36.0
321.90781	36.0
454.3602	36.0
292.96811	36.0
445.91043	36.0
312.07291	36.0
210.10486	36.0
195.08173	36.0
297.01819	36.0
445.53	36.0
304.2291	36.0
224.62134	36.0
327.72842	36.0
309.96075	36.0
197.89435	36.0
294.02502	36.0
297.99448	36.0
331.59561	35.0
287.77014	35.0
210.03105	35.0
312.97311	35.0
360.19446	35.0
283.02551	35.0
221.66933	35.0
455.59467	35.0
306.61823	35.0
190.63206	35.0
306.16913	35.0
449.16501	35.0
191.5065	35.0
450.11813	35.0
296.47333	35.0
409.67722	35.0
321.35986	35.0
321.77075	35.0
188.81381	35.0
194.33018	35.0
381.22864	35.0
200.41644	35.0
300.84464	35.0
200.04645	35.0
446.6676	34.0
284.6572	34.0
302.82156	34.0
307.76303	34.0
286.27701	34.0
315.04333	34.0
339.15634	34.0
299.84164	34.0
317.35757	34.0
191.39946	34.0
297.9556	34.0
287.04633	34.0
330.45532	34.0
300.36246	34.0
273.0231	34.0
319.47897	34.0
379.32092	34.0
290.67294	34.0
423.01855	34.0
292.19424	34.0
293.63559	34.0
451.13882	34.0
314.02386	34.0
289.06403	34.0
202.12805	34.0
290.40085	34.0
300.17917	33.0
299.77551	33.0
453.96158	33.0
199.53708	33.0
315.50586	33.0
446.19171	33.0
852.21674	33.0
189.44814	33.0
325.46494	33.0
334.28122	33.0
320.0148	33.0
450.77905	33.0
201.3672	33.0
339.84921	33.0
307.20837	33.0
401.27701	33.0
126.52125	33.0
297.65817	33.0
297.43015	33.0
248.7132	33.0
145.02661	32.0
433.4426	32.0
508.55115	32.0
334.88129	32.0
202.46512	32.0
357.90283	32.0
252.90828	32.0
387.07687	32.0
247.22665	32.0
340.94409	32.0
584.01672	32.0
187.24809	32.0
479.69189	32.0
359.72256	32.0
580.09955	32.0
248.19611	32.0
316.14279	32.0
307.81287	32.0
303.90976	32.0
287.19733	32.0
321.27383	32.0
315.14243	32.0
328.57104	32.0
318.00687	32.0
317.59836	32.0
328.8338	32.0
298.61182	32.0
290.55109	32.0
302.66483	32.0
325.82367	32.0
293.91254	31.0
631.56335	31.0
88.37629	31.0
297.38791	31.0
303.47119	31.0
449.4473	31.0
197.11815	31.0
304.67334	31.0
314.3988	31.0
346.15338	31.0
149.02333	31.0
456.79315	31.0
291.00027	31.0
454.72763	31.0
392.93469	31.0
348.78378	31.0
306.00293	31.0
349.58163	31.0
296.05191	31.0
313.98047	31.0
324.40225	31.0
354.5224	31.0
309.35248	31.0
290.29239	31.0
320.33722	31.0
337.91672	31.0
248.83832	31.0
218.02197	31.0
450.6543	31.0
416.13239	31.0
301.3085	31.0
190.74701	31.0
453.89481	30.0
450.36331	30.0
320.65103	30.0
420.336	30.0
288.95416	30.0
431.54251	30.0
316.43192	30.0
337.215	30.0
188.38078	30.0
306.3645	30.0
329.32767	30.0
291.63373	30.0
336.83029	30.0
298.67444	30.0
386.19113	30.0
192.06389	30.0
307.61359	30.0
141.07143	30.0
193.42479	30.0
298.1568	30.0
336.08124	30.0
449.21896	29.0
394.48721	29.0
450.04956	29.0
303.78516	29.0
315.99655	29.0
289.8721	29.0
303.65887	29.0
325.30771	29.0
288.608	29.0
314.09326	29.0
208.76419	29.0
377.203	29.0
449.64038	29.0
319.38446	29.0
473.75006	29.0
318.43137	29.0
316.59045	29.0
335.62003	29.0
446.58481	29.0
338.06793	29.0
250.36842	29.0
286.39133	29.0
190.54149	29.0
448.76245	29.0
320.44064	29.0
294.81815	29.0
314.66974	28.0
248.1452	28.0
394.7868	28.0
311.23618	28.0
402.5256	28.0
391.29031	28.0
294.65842	28.0
210.54796	28.0
251.35178	28.0
451.01401	28.0
192.56636	28.0
329.41653	28.0
263.67746	28.0
450.43399	28.0
294.60968	28.0
327.55649	28.0
450.57532	28.0
449.51166	28.0
289.76541	28.0
461.52078	28.0
197.70979	28.0
449.78577	28.0
242.02225	28.0
371.2471	28.0
227.20448	28.0
410.78796	27.0
192.41011	27.0
196.05267	27.0
321.18256	27.0
295.79251	27.0
366.12137	27.0
321.57407	27.0
287.9313	27.0
236.20601	27.0
346.88983	27.0
312.69598	27.0
351.53064	27.0
352.69934	27.0
313.73065	27.0
338.79214	27.0
355.19205	27.0
327.00552	27.0
247.81056	27.0
289.16727	27.0
201.57014	27.0
373.29333	27.0
382.57208	27.0
625.21765	27.0
269.03461	27.0
183.03755	27.0
308.17719	26.0
243.98997	26.0
299.27216	26.0
619.02338	26.0
578.98688	26.0
329.75433	26.0
445.99728	26.0
190.94588	26.0
330.53366	26.0
262.5925	26.0
185.02626	26.0
302.55408	26.0
448.81641	26.0
322.66199	26.0
349.33633	26.0
327.93411	26.0
383.01276	26.0
449.69025	26.0
204.40099	26.0
356.99561	26.0
475.37561	25.0
307.85925	25.0
451.89209	25.0
451.36972	25.0
499.45618	25.0
452.32516	25.0
567.70599	25.0
506.77057	25.0
188.04625	25.0
426.99567	25.0
287.02475	25.0
286.02023	25.0
202.02364	25.0
375.6944	25.0
289.69705	25.0
217.31114	25.0
200.98524	25.0
351.84283	25.0
221.87642	25.0
242.64728	25.0
199.23563	25.0
198.85431	25.0
249.29268	25.0
446.24963	25.0
270.19717	25.0
326.19144	25.0
325.02341	24.0
219.96385	24.0
328.38293	24.0
453.30042	24.0
305.94299	24.0
312.2511	24.0
225.57486	24.0
623.00116	24.0
268.03165	24.0
308.93579	24.0
215.23878	24.0
450.75616	24.0
334.6824	24.0
450.69174	24.0
343.85971	24.0
350.26123	24.0
299.50089	24.0
315.27628	24.0
290.04553	24.0
395.24808	24.0
389.11411	24.0
318.64108	24.0
324.00024	23.0
247.02498	23.0
186.14955	23.0
287.38986	23.0
304.46143	23.0
313.23477	23.0
339.98462	23.0
195.7854	23.0
209.85226	23.0
308.24423	23.0
330.07983	23.0
446.52481	23.0
72.99162	23.0
175.03081	23.0
286.81741	22.0
489.92075	22.0
576.09686	22.0
389.52567	22.0
404.47104	22.0
173.06192	22.0
287.57083	22.0
312.95233	22.0
283.67001	21.0
307.03848	21.0
253.23698	21.0
318.29507	21.0
496.4144	21.0
208.3046	21.0
378.6022	21.0
288.38181	21.0
399.84824	21.0
200.59393	21.0
184.30766	21.0
444.65817	20.0
358.93549	20.0
384.70111	20.0
323.98264	20.0
892.20618	20.0
139.04909	20.0
332.44855	19.0
266.1991	18.0
301.44113	18.0
353.14087	18.0
465.19073	18.0
281.04544	18.0
108.54774	18.0
63.02552	18.0
296.0098	18.0
169.06079	17.0
127.54662	17.0
158.85388	17.0
170.0388	17.0
471.17874	17.0
244.81668	16.0
65.00381	16.0
461.39249	15.0
813.0799	14.0
772.95599	14.0
733.18689	14.0
476.55707	14.0
605.534	14.0
616.79852	14.0
645.5744	14.0
600.85132	14.0
226.02956	13.0
167.17651	13.0
458.77527	13.0
151.03844	13.0
452.45016	13.0
100.11922	13.0
271.05905	13.0
106.96095	13.0
274.96664	13.0
119.04999	13.0
462.15424	13.0
95.73062	12.0

MSID: 9012
ID: 642
RETENTIONTIME: 36.78395
PRECURSORMZ: 255.2319
AREA: 2305908.25
PRECURSORTYPE: [M-H]-
SMILES: CCCCCCCCCCCCCCCC(O)=O
NAME: 1-hexadecylcarboxylic acid
FORMULA: C16H32O2
INCHIKEY: IPCSVZSSVZVIGE-UHFFFAOYSA-N
CAS: 57-10-3
Molecular Weight: 256.429
Number of References: 44089
Class: Branched fatty acids
Superclass: Fatty Acids and Conjugates
Pathway: Fatty acids
ppm: -0.5049999999755528
CMID: CM243
IONMODE: Negative
COLLISIONENERGY: 40±20eV
INSTRUMENTTYPE: AB SCIEX
INSTRUMENT: Q-TOF
Comment:  
Num Peaks: 5
255.23201	9400.0
237.21954	56.0
255.20071	41.0
235.20578	21.0
235.18925	13.0

MSID: 9013
ID: 311
RETENTIONTIME: 28.27643
PRECURSORMZ: 343.155
AREA: 2305745.25
PRECURSORTYPE: [M-H]-
SMILES: [H][C@]12C[C@@H](O)C=C3C(=O)OC[C@@]13CC[C@]1(C)O[C@H](C[C@]21C)C1=COC=C1
NAME: salvisplendin D
FORMULA: C20H24O5
INCHIKEY: NGOVWADMNNYPDU-UYGWLRSGSA-N
CAS: 918802-68-3
Molecular Weight: 344.408
Number of References: 3
Class: Colensane and Clerodane diterpenoids
Superclass: Diterpenoids
Pathway: Terpenoids
ppm: 0.4500000000007276
CMID: CM243
IONMODE: Negative
COLLISIONENERGY: 40±20eV
INSTRUMENTTYPE: AB SCIEX
INSTRUMENT: Q-TOF
Comment:  
Num Peaks: 149
313.14423	20514.0
229.08713	5137.0
343.155	4209.0
270.08896	2120.0
231.10287	1586.0
214.06203	1317.0
285.14774	1178.0
297.1123	1142.0
283.09763	1001.0
267.13745	955.0
201.0919	768.0
252.11433	598.0
251.10776	450.0
255.10075	415.0
269.15472	405.0
257.08316	400.0
242.09506	364.0
185.06067	360.0
295.13562	349.0
186.0665	342.0
230.09465	276.0
216.07692	252.0
280.10843	241.0
269.11618	237.0
213.05457	231.0
255.06477	220.0
226.09995	191.0
312.13821	190.0
271.1377	188.0
298.12088	186.0
254.05858	184.0
228.07739	161.0
241.08743	147.0
271.09738	143.0
213.0903	132.0
188.04736	124.0
215.06902	123.0
227.07285	122.0
256.11057	112.0
237.093	112.0
240.07887	107.0
270.12115	103.0
238.09982	99.0
284.13824	98.0
269.14508	96.0
268.14514	95.0
252.10811	86.0
185.09532	77.0
253.12135	74.0
199.04054	73.0
265.08627	69.0
239.14207	68.0
279.10138	67.0
158.03644	62.0
268.07458	62.0
296.10208	62.0
187.03621	59.0
253.0824	57.0
282.09015	55.0
269.08084	52.0
227.10973	52.0
281.08118	48.0
200.08221	48.0
252.07545	48.0
239.10876	46.0
239.06787	46.0
343.10239	46.0
281.11893	44.0
222.06873	43.0
229.0649	43.0
254.0898	42.0
159.04382	42.0
226.09111	42.0
186.0331	41.0
228.1114	41.0
241.15738	41.0
231.07758	39.0
296.13916	39.0
312.11572	39.0
211.07236	38.0
199.07784	37.0
242.06003	37.0
225.05275	36.0
203.10773	36.0
186.05315	36.0
299.16672	35.0
212.08511	35.0
243.10022	35.0
311.12863	35.0
270.05356	34.0
225.09389	34.0
201.07663	34.0
226.0602	34.0
215.10635	33.0
189.08954	33.0
241.1209	33.0
198.1008	33.0
254.12881	32.0
267.10223	31.0
297.14606	31.0
257.15536	31.0
224.08566	30.0
295.10535	30.0
315.12112	30.0
214.04485	29.0
183.08371	29.0
235.07227	29.0
315.16284	29.0
173.06172	29.0
224.11792	28.0
269.20453	27.0
213.01883	26.0
241.0479	26.0
227.03447	26.0
298.0972	25.0
184.08681	25.0
201.0433	25.0
188.08229	25.0
212.04376	25.0
216.44991	25.0
238.06506	25.0
251.07207	25.0
196.05244	25.0
209.09515	25.0
266.13483	24.0
256.08551	24.0
172.05319	24.0
251.08914	24.0
228.32739	23.0
236.08231	23.0
297.07687	23.0
236.11992	22.0
130.04478	22.0
267.06061	22.0
253.04968	22.0
202.06236	22.0
125.0976	22.0
157.06294	21.0
143.08595	21.0
295.17432	21.0
243.13687	20.0
208.50226	18.0
158.02905	17.0
230.69962	17.0
197.02306	17.0
209.05833	16.0
285.07001	16.0
341.98956	13.0
323.87994	12.0

MSID: 9014
ID: 680
RETENTIONTIME: 38.7088
PRECURSORMZ: 471.3474
AREA: 2268591.25
PRECURSORTYPE: [M-H]-
SMILES: [H][C@@]12CC[C@]3(C)[C@]([H])(CC=C4[C@]5([H])[C@@H](C)[C@H](C)CC[C@@]5(CC[C@@]34C)C(O)=O)[C@@]1(C)CC[C@H](O)[C@@]2(C)CO
NAME: 23-hydroxyursolic acid
FORMULA: C30H48O4
INCHIKEY: NZCULBURCGAPSF-PQWKYGPVSA-N
CAS: 94414-19-4
Molecular Weight: 472.709
Number of References: 48
Class: Ursane and Taraxastane triterpenoids
Superclass: Triterpenoids
Pathway: Terpenoids
ppm: -0.034999999968476914
CMID: CM243
IONMODE: Negative
COLLISIONENERGY: 40±20eV
INSTRUMENTTYPE: AB SCIEX
INSTRUMENT: Q-TOF
Comment:  
Num Peaks: 112
471.3475	30962.0
409.34714	6689.0
393.3161	4380.0
427.35678	2588.0
453.34085	233.0
367.33557	162.0
377.28946	126.0
427.33856	75.0
361.25363	43.0
393.28116	41.0
351.30389	38.0
407.32675	37.0
453.3179	37.0
427.3082	35.0
175.1107	34.0
393.26367	34.0
427.27176	32.0
469.77765	31.0
471.29648	30.0
409.28967	26.0
304.13092	26.0
306.82663	25.0
345.2366	25.0
410.3483	24.0
351.30023	24.0
409.25403	24.0
393.35883	24.0
311.29236	23.0
367.3187	22.0
278.06802	22.0
427.40738	22.0
331.82657	21.0
313.05197	20.0
349.28229	19.0
283.15161	18.0
469.74582	17.0
328.01834	15.0
470.47195	14.0
343.82788	13.0
342.16116	13.0
352.97061	13.0
360.43329	13.0
347.32858	13.0
345.61697	13.0
357.32593	13.0
437.77844	13.0
381.75549	13.0
365.37875	13.0
374.03058	13.0
384.13367	13.0
385.98611	13.0
390.00986	13.0
339.87177	13.0
393.73184	13.0
402.12378	13.0
411.15012	13.0
418.77631	13.0
425.23581	13.0
456.2897	13.0
340.63586	13.0
101.87073	13.0
337.32199	13.0
285.26477	13.0
335.43079	13.0
276.5563	13.0
274.27133	13.0
273.80447	13.0
270.31235	13.0
268.50732	13.0
266.87466	13.0
266.05621	13.0
264.56799	13.0
263.57977	13.0
261.04846	13.0
258.55298	13.0
253.15218	13.0
248.85464	13.0
241.19052	13.0
237.49547	13.0
213.7438	13.0
193.17107	13.0
189.11218	13.0
280.19821	13.0
279.1239	13.0
286.95432	13.0
318.73813	13.0
333.80246	13.0
330.42062	13.0
328.97324	13.0
326.00134	13.0
324.56897	13.0
295.11841	13.0
321.48889	13.0
320.07175	13.0
323.10983	13.0
317.24857	13.0
300.3277	13.0
297.72833	13.0
298.41476	13.0
315.68243	13.0
332.40125	13.0
302.22461	13.0
307.57153	13.0
309.5928	13.0
313.81482	13.0
233.15106	12.0
226.08345	12.0
219.85002	12.0
117.30808	12.0
167.11153	12.0
161.09656	12.0
450.80692	12.0

MSID: 9015
ID: 219
RETENTIONTIME: 23.95518
PRECURSORMZ: 347.1867
AREA: 2228536.5
PRECURSORTYPE: [M-H]-
SMILES: [H][C@]12C\C(=C/CC(=O)[C@H](C)C[C@H](OC(=O)C(\C)=C\C)[C@@H]1C(C)C)C(=O)O2
NAME: scapiformolactone C
FORMULA: C20H28O5
INCHIKEY: HUEVISBHRKDDOJ-LCJGHQFKSA-N
CAS: 1501939-84-9
Molecular Weight: 348.439
Number of References: 1
Class: Germacrane sesquiterpenoids
Superclass: Sesquiterpenoids
Pathway: Terpenoids
ppm: 0.8500000000140062
CMID: CM243
IONMODE: Negative
COLLISIONENERGY: 40±20eV
INSTRUMENTTYPE: AB SCIEX
INSTRUMENT: Q-TOF
Comment:  
Num Peaks: 82
317.17578	19402.0
347.18677	10182.0
299.16507	1897.0
217.08577	931.0
301.14331	402.0
315.15768	366.0
257.11774	246.0
285.14944	197.0
301.17728	195.0
216.07983	183.0
283.13391	164.0
329.17624	159.0
269.11783	135.0
297.1478	127.0
230.09468	122.0
174.03058	109.0
284.13666	104.0
299.14645	90.0
229.08865	85.0
302.15527	84.0
203.06729	74.0
281.11404	74.0
243.10027	72.0
215.07048	68.0
273.1474	68.0
283.16687	66.0
231.10292	64.0
258.12839	58.0
327.16098	55.0
345.1716	52.0
215.10495	50.0
201.08916	47.0
267.10068	44.0
202.06519	41.0
241.12549	39.0
301.12631	39.0
218.09259	38.0
256.11063	37.0
259.13	36.0
200.04486	36.0
214.10362	35.0
227.11125	33.0
246.12975	32.0
214.06351	31.0
315.11945	31.0
241.08748	29.0
204.07748	28.0
329.15491	27.0
299.11935	27.0
177.05624	27.0
316.13895	26.0
329.13361	26.0
200.08365	26.0
273.17975	26.0
225.12625	26.0
261.11847	25.0
228.07448	25.0
257.14758	25.0
245.07542	24.0
242.09358	24.0
205.08456	24.0
319.43134	24.0
239.10881	23.0
313.14255	23.0
213.05174	23.0
178.09891	23.0
201.05167	23.0
285.18414	23.0
347.13568	23.0
267.13269	23.0
228.11737	23.0
282.12967	22.0
188.04875	21.0
216.85065	20.0
245.14595	20.0
221.2523	19.0
260.10672	19.0
155.83932	19.0
301.0957	17.0
222.742	16.0
311.15805	13.0
190.04417	12.0

MSID: 9016
ID: 466
RETENTIONTIME: 31.367
PRECURSORMZ: 283.1696
AREA: 2226876.5
PRECURSORTYPE: [M-H]-
SMILES: CC(C)C1=CC2=C(C=C1O)C1=CCCC(C)(C)C1CC2=O
NAME: 6-Hydroxy-7-isopropyl-1,1-dimethyl-2,3,10,10a-tetrahydro-1H-phenanthren-9-one
FORMULA: C19H24O2
INCHIKEY: XHMVYEBKUJRROR-UHFFFAOYSA-N
CAS: nan
Molecular Weight: 284.398
Number of References: 1
Class: Abietane diterpenoids
Superclass: Diterpenoids
Pathway: Terpenoids
ppm: -0.20499999999401552
CMID: CM243
IONMODE: Negative
COLLISIONENERGY: 40±20eV
INSTRUMENTTYPE: AB SCIEX
INSTRUMENT: Q-TOF
Comment:  
Num Peaks: 73
283.16965	13656.0
267.13861	7826.0
201.09018	869.0
281.1546	458.0
268.14468	432.0
253.12405	416.0
227.10936	357.0
252.11702	312.0
251.10425	228.0
265.12253	172.0
240.11641	119.0
213.08852	119.0
202.10101	103.0
237.09111	103.0
212.08476	93.0
249.12653	86.0
241.1205	79.0
214.0975	79.0
200.08328	74.0
198.06877	71.0
164.08206	70.0
225.08763	67.0
239.10535	65.0
186.06886	63.0
199.07751	61.0
266.12802	57.0
185.05771	54.0
184.08783	53.0
188.08333	51.0
203.106	50.0
224.07944	49.0
209.05942	48.0
210.06734	48.0
238.09792	46.0
215.10457	45.0
172.05162	45.0
211.07343	43.0
255.13631	42.0
184.0533	41.0
265.15918	40.0
228.114	40.0
79.05767	37.0
177.09241	35.0
158.03496	35.0
187.06938	34.0
165.08836	34.0
235.11542	33.0
209.09906	32.0
226.10104	31.0
242.13124	31.0
201.06657	30.0
223.07349	29.0
252.09059	27.0
223.11153	26.0
239.17955	26.0
267.07938	26.0
197.13133	26.0
187.1685	25.0
283.12515	25.0
171.11522	24.0
227.09607	23.0
281.12177	23.0
170.07408	22.0
157.73964	22.0
250.09814	22.0
189.08789	21.0
253.09134	21.0
197.05573	21.0
282.15381	20.0
195.07843	20.0
169.0654	18.0
235.07338	13.0
76.3216	12.0

MSID: 9017
ID: 675
RETENTIONTIME: 38.42038
PRECURSORMZ: 471.3475
AREA: 2196902.5
PRECURSORTYPE: [M-H]-
SMILES: [H][C@@]12[C@@H](C)[C@H](C)CC[C@@]1(CC[C@]1(C)C2=CC[C@]2([H])[C@@]3(C)C[C@@H](O)[C@@H](O)C(C)(C)[C@]3([H])CC[C@@]12C)C(O)=O
NAME: pygenic acid A
FORMULA: C30H48O4
INCHIKEY: HFGSQOYIOKBQOW-RFMFWNHYSA-N
CAS: 52213-27-1
Molecular Weight: 472.709
Number of References: 45
Class: Ursane and Taraxastane triterpenoids
Superclass: Triterpenoids
Pathway: Terpenoids
ppm: 0.06500000006326445
CMID: CM243
IONMODE: Negative
COLLISIONENERGY: 40±20eV
INSTRUMENTTYPE: AB SCIEX
INSTRUMENT: Q-TOF
Comment:  
Num Peaks: 117
471.34763	33989.0
409.34723	8676.0
393.31622	5468.0
427.35687	3180.0
453.3389	233.0
377.28766	78.0
393.28708	72.0
367.33755	52.0
471.3136	49.0
361.25372	46.0
175.11333	46.0
189.12839	40.0
391.29709	37.0
316.12289	37.0
409.38489	34.0
351.30582	34.0
123.07831	33.0
409.24026	32.0
163.11269	32.0
427.28604	30.0
393.37253	29.0
310.99359	29.0
296.05457	26.0
469.77991	26.0
469.75656	25.0
393.25406	24.0
471.25195	24.0
288.38943	24.0
407.33673	24.0
283.25388	24.0
290.72067	23.0
266.1745	22.0
320.19623	21.0
135.07979	21.0
305.1839	21.0
321.10809	20.0
471.28171	20.0
337.38864	19.0
312.12924	19.0
308.75949	18.0
362.25391	18.0
326.02618	17.0
306.48544	15.0
471.42416	14.0
303.89197	14.0
470.2767	14.0
322.87759	14.0
441.30984	13.0
365.24969	13.0
366.27975	13.0
369.41632	13.0
463.43393	13.0
375.26651	13.0
444.7128	13.0
378.91956	13.0
381.15887	13.0
387.6734	13.0
399.18564	13.0
434.49823	13.0
391.28546	13.0
425.29651	13.0
422.72147	13.0
417.55087	13.0
414.61652	13.0
394.6185	13.0
413.31146	13.0
410.27899	13.0
396.55649	13.0
400.95435	13.0
425.90662	13.0
337.86008	13.0
360.46497	13.0
267.76334	13.0
284.24359	13.0
281.56049	13.0
279.68216	13.0
277.58493	13.0
275.31845	13.0
273.0192	13.0
271.0874	13.0
269.46942	13.0
260.84921	13.0
294.66949	13.0
259.55234	13.0
245.46313	13.0
228.67503	13.0
226.18365	13.0
213.11008	13.0
210.37842	13.0
173.99548	13.0
163.10768	13.0
357.00583	13.0
286.27466	13.0
299.21213	13.0
335.85248	13.0
355.11182	13.0
353.50446	13.0
351.84564	13.0
348.63663	13.0
346.82697	13.0
344.67468	13.0
343.21271	13.0
300.02237	13.0
339.93686	13.0
334.06024	13.0
332.60489	13.0
330.96918	13.0
329.17938	13.0
327.12338	13.0
324.16165	13.0
317.80356	13.0
309.52399	13.0
301.41998	13.0
186.49667	12.0
171.27164	12.0
153.45349	12.0
119.44968	12.0

MSID: 9018
ID: 323
RETENTIONTIME: 28.60742
PRECURSORMZ: 403.1758
AREA: 2191691.75
PRECURSORTYPE: [M-H]-
SMILES: [H][C@@]12C[C@H](OC(C)=O)C3=C(C(=O)C(O)=C(C(C)C)C3=O)[C@@]11CCC[C@]2(C)CO[C@H]1O
NAME: 7β-acetoxy-12,20-dihydroxy-19,20-epoxy-11,14-dioxoabieta-8,12-diene
FORMULA: C22H28O7
INCHIKEY: MXRIIQLPOVQSQO-RHZPBCIKSA-N
CAS: nan
Molecular Weight: 404.46
Number of References: 1
Class: Abeoabietane diterpenoids
Superclass: Diterpenoids
Pathway: Terpenoids
ppm: 0.11999999998124622
CMID: CM243
IONMODE: Negative
COLLISIONENERGY: 40±20eV
INSTRUMENTTYPE: AB SCIEX
INSTRUMENT: Q-TOF
Comment:  
Num Peaks: 159
343.1535	7798.0
403.17398	2205.0
281.1553	1265.0
315.1579	565.0
299.1636	438.0
59.01311	376.0
297.14801	321.0
259.09552	193.0
244.07248	192.0
330.14548	184.0
272.10306	151.0
271.17178	140.0
311.1272	139.0
150.06754	127.0
285.10995	97.0
325.14154	97.0
299.12802	91.0
281.11752	89.0
283.13248	85.0
216.0771	85.0
257.08337	79.0
282.12491	75.0
269.15176	74.0
184.08698	73.0
265.12	71.0
243.10196	66.0
241.12262	65.0
229.08733	64.0
219.06276	64.0
300.13663	63.0
287.12418	62.0
271.09921	61.0
190.0983	58.0
212.08388	58.0
328.1308	56.0
361.16324	55.0
245.08173	54.0
232.07622	54.0
231.06586	48.0
218.05948	48.0
255.13695	47.0
254.0947	46.0
215.07207	46.0
215.10654	46.0
231.09862	46.0
301.1452	46.0
331.15692	46.0
310.11926	45.0
300.0976	45.0
375.17999	44.0
271.13309	43.0
313.14102	42.0
266.12866	41.0
313.10464	41.0
279.13599	40.0
269.11801	39.0
259.13177	38.0
226.10014	38.0
287.164	38.0
240.11549	37.0
213.09334	36.0
253.12468	36.0
257.11948	36.0
230.09187	36.0
165.09256	35.0
217.08447	34.0
242.0968	33.0
194.05719	33.0
246.08998	32.0
329.13739	32.0
274.08221	31.0
286.1228	30.0
151.07451	30.0
267.09766	28.0
238.09851	27.0
172.05334	27.0
187.07521	27.0
298.11945	27.0
343.09183	26.0
315.12488	26.0
256.11081	26.0
195.06525	26.0
241.08765	26.0
175.0748	25.0
327.11871	25.0
201.05319	25.0
284.14014	25.0
188.04485	24.0
259.08447	23.0
267.11206	23.0
189.08971	23.0
281.18484	23.0
314.15387	23.0
243.13554	23.0
345.16638	23.0
254.1306	23.0
261.07751	22.0
283.09787	22.0
190.0956	22.0
228.07611	22.0
285.07852	21.0
343.10089	21.0
297.11594	21.0
285.14963	21.0
260.07056	21.0
185.0928	21.0
200.08379	21.0
201.0907	21.0
214.09947	21.0
282.08875	20.0
299.09415	20.0
325.13095	20.0
227.1114	20.0
281.10931	20.0
255.1041	19.0
274.11951	19.0
283.1687	19.0
298.14987	18.0
299.11447	18.0
315.19266	18.0
309.11639	18.0
359.18951	17.0
239.10896	17.0
214.06366	16.0
272.14505	16.0
163.07799	16.0
403.10715	16.0
190.0632	16.0
239.07112	16.0
307.13272	15.0
203.03255	15.0
375.17429	15.0
258.12228	15.0
188.08379	14.0
177.08894	14.0
135.08005	14.0
183.04413	13.0
341.14285	13.0
361.14835	13.0
330.09921	13.0
264.11163	13.0
403.22119	13.0
315.11618	13.0
273.15567	12.0
287.08932	12.0
164.08623	12.0
255.09471	12.0
174.0307	12.0
246.08076	12.0
202.06393	12.0
311.0961	12.0
233.07831	12.0
231.96434	12.0
219.04536	12.0
269.08588	12.0
206.0563	12.0
244.04494	12.0
253.15897	11.0
257.05826	10.0

MSID: 9019
ID: 424
RETENTIONTIME: 30.84703
PRECURSORMZ: 315.1591
AREA: 2132876.0
PRECURSORTYPE: [M-H]-
SMILES: C[C@@H](CO)C1=C(O)C(O)=C2C(CCC3=C2C(=O)CCC3(C)C)=C1
NAME: 11,12,16-Trihydroxy-20-nor-abieta-5(10),8,11,13-tetraen-1-one
FORMULA: C19H24O4
INCHIKEY: ZCQUVVZAHUULFP-JTQLQIEISA-N
CAS: nan
Molecular Weight: 316.397
Number of References: 1
Class: Icetexane diterpenoids
Superclass: Diterpenoids
Pathway: Terpenoids
ppm: -0.5349999999566535
CMID: CM243
IONMODE: Negative
COLLISIONENERGY: 40±20eV
INSTRUMENTTYPE: AB SCIEX
INSTRUMENT: Q-TOF
Comment:  
Num Peaks: 112
271.16971	6006.0
315.15912	5246.0
255.13808	1939.0
287.16516	1926.0
256.14642	1115.0
215.10474	554.0
241.12221	256.0
271.13586	245.0
188.08482	230.0
315.19388	227.0
172.05177	194.0
271.15683	178.0
269.15131	137.0
297.15088	136.0
200.08344	136.0
239.10555	128.0
231.10269	126.0
257.11905	125.0
243.10307	118.0
214.09769	113.0
228.11418	112.0
244.10725	110.0
240.1151	109.0
243.17484	108.0
299.12415	99.0
285.14914	95.0
300.13611	95.0
229.0899	93.0
203.06989	89.0
259.16602	86.0
243.13513	85.0
283.16824	83.0
161.06061	82.0
216.07817	80.0
254.13017	79.0
217.08411	79.0
185.05786	78.0
215.099	73.0
201.09312	70.0
253.12114	66.0
187.07489	64.0
285.11609	63.0
229.12103	63.0
201.05424	58.0
272.13812	55.0
282.1228	54.0
227.10364	54.0
197.09575	53.0
212.08351	53.0
226.09976	51.0
215.07027	51.0
286.15378	49.0
177.05606	47.0
199.07492	46.0
178.06213	46.0
227.14201	45.0
315.12955	43.0
237.12749	42.0
231.0625	42.0
255.10524	41.0
213.09441	40.0
182.07793	39.0
216.10841	38.0
287.12201	38.0
204.07729	37.0
281.11377	37.0
315.11566	36.0
203.10756	36.0
189.05707	36.0
149.06009	35.0
272.10422	35.0
256.10724	35.0
171.04364	33.0
154.03879	32.0
211.07503	32.0
196.08656	31.0
150.06848	31.0
176.07883	30.0
187.04408	30.0
269.11917	29.0
163.04019	29.0
186.06635	28.0
148.05153	28.0
233.11679	27.0
228.07869	27.0
271.6311	26.0
283.09409	25.0
230.09	25.0
160.01959	25.0
173.06029	25.0
270.12738	24.0
255.09116	24.0
143.04836	23.0
267.1004	23.0
259.15024	23.0
278.12857	23.0
189.09073	23.0
213.05582	23.0
207.6884	22.0
222.10648	22.0
285.09128	21.0
151.07787	21.0
235.11261	21.0
158.43297	21.0
216.04219	20.0
183.08224	20.0
282.11456	20.0
257.07666	20.0
236.11974	19.0
243.07559	19.0
270.2803	18.0
79.80045	12.0

MSID: 9020
ID: 485
RETENTIONTIME: 31.6177
PRECURSORMZ: 327.1234
AREA: 2131250.0
PRECURSORTYPE: [M-H]-
SMILES: CC1COC(=C1C(O)=O)C1=CC=C2C3=C1C(=O)OC3CCC2(C)C
NAME: grandifolia G
FORMULA: C19H20O5
INCHIKEY: ZTBRVDVFZVQVGH-UHFFFAOYSA-N
CAS: nan
Molecular Weight: 328.365
Number of References: 1
Class: nan
Superclass: Sesquiterpenoids
Pathway: Terpenoids
ppm: 0.15000000001919034
CMID: CM243
IONMODE: Negative
COLLISIONENERGY: 40±20eV
INSTRUMENTTYPE: AB SCIEX
INSTRUMENT: Q-TOF
Comment:  
Num Peaks: 165
327.12344	50102.0
255.13963	6926.0
267.10199	5564.0
268.11124	5329.0
312.09988	3500.0
311.0921	2907.0
253.08687	1645.0
239.10704	1416.0
283.09903	788.0
240.11357	726.0
252.07835	581.0
224.0459	456.0
284.10501	445.0
161.06059	432.0
241.05074	351.0
283.13199	322.0
251.07185	311.0
225.09076	305.0
266.09149	305.0
223.11023	260.0
311.08002	250.0
83.04948	196.0
224.08255	191.0
297.0766	182.0
197.05862	179.0
133.0649	178.0
237.0551	176.0
211.07501	164.0
238.06335	160.0
227.14201	153.0
199.07353	136.0
223.07513	126.0
240.07715	120.0
159.04369	118.0
269.08383	117.0
146.03757	106.0
299.09195	102.0
255.11305	93.0
227.07265	85.0
196.0509	85.0
171.08078	84.0
211.11201	83.0
208.08939	83.0
200.08344	82.0
256.0712	79.0
209.06241	78.0
185.06052	78.0
212.12059	75.0
213.09297	73.0
296.06812	71.0
212.08208	69.0
295.09668	66.0
225.05403	64.0
207.08199	60.0
327.1022	59.0
199.11221	59.0
299.12582	56.0
145.0275	55.0
210.07034	54.0
172.0903	52.0
197.09712	51.0
233.12128	51.0
239.1449	50.0
157.06404	50.0
268.08557	49.0
239.09039	48.0
209.09215	47.0
199.14815	47.0
161.05438	46.0
241.08723	44.0
326.04218	42.0
224.06642	42.0
196.08792	42.0
312.13794	41.0
183.04248	39.0
283.07596	38.0
239.07524	38.0
267.0748	38.0
229.05136	38.0
212.04929	37.0
297.06143	37.0
181.06714	37.0
225.04962	36.0
236.0475	35.0
221.09042	35.0
268.06955	35.0
158.07448	35.0
180.05391	34.0
170.07294	34.0
249.08809	32.0
241.03554	32.0
251.10754	32.0
238.0981	32.0
195.04303	32.0
312.05145	31.0
174.06787	31.0
65.00293	31.0
198.06892	31.0
186.06635	31.0
295.06134	30.0
183.0809	29.0
169.0668	29.0
184.08798	28.0
235.07507	28.0
226.06148	27.0
283.17154	27.0
202.06219	26.0
311.01437	26.0
232.08029	26.0
234.37442	26.0
225.13043	26.0
172.05176	26.0
213.12729	26.0
224.11919	26.0
223.04004	25.0
257.11905	25.0
201.09174	25.0
237.12598	25.0
252.51855	25.0
175.07449	25.0
173.06543	24.0
185.12047	24.0
250.06429	24.0
312.03763	24.0
311.15256	24.0
296.05801	23.0
141.07115	23.0
211.30699	23.0
284.0885	23.0
224.01366	23.0
299.16647	23.0
211.14616	23.0
239.90269	23.0
169.1012	23.0
326.11115	23.0
168.05859	23.0
216.73651	22.0
223.89787	22.0
228.07867	22.0
177.05345	22.0
253.11334	21.0
167.08629	21.0
283.04465	21.0
171.04619	21.0
107.04887	21.0
197.05176	21.0
215.70407	21.0
242.09792	21.0
245.11197	21.0
327.07031	20.0
182.04224	20.0
208.05266	20.0
255.09116	20.0
256.11194	20.0
253.0448	19.0
229.03802	19.0
218.61041	19.0
211.03944	19.0
220.71782	19.0
255.06926	18.0
143.08466	18.0
217.58505	17.0
266.07709	16.0
131.08194	13.0
79.14657	12.0

MSID: 9021
ID: 117
RETENTIONTIME: 15.76033
PRECURSORMZ: 347.1853
AREA: 2067562.875
PRECURSORTYPE: [M-H]-
SMILES: [H][C@@]12C[C@@H](O)[C@]3([H])[C@]([C@@H]1O)([C@H](O)C[C@]1([H])C(C)(C)C(=O)CC[C@@]31C)C(=O)C2=C
NAME: 7α,11α,14β-trihydroxyent-kaur-16-ene-3,15-dione
FORMULA: C20H28O5
INCHIKEY: ALWQOVLJKBURDP-JJQRUASZSA-N
CAS: 1486563-96-5
Molecular Weight: 348.439
Number of References: 1
Class: Kaurane and Phyllocladane diterpenoids
Superclass: Diterpenoids
Pathway: Terpenoids
ppm: -0.5499999999756255
CMID: CM243
IONMODE: Negative
COLLISIONENERGY: 40±20eV
INSTRUMENTTYPE: AB SCIEX
INSTRUMENT: Q-TOF
Comment:  
Num Peaks: 106
347.18527	17136.0
299.16534	10230.0
281.15372	7428.0
265.12164	1621.0
329.17477	1323.0
215.10803	1238.0
255.13701	619.0
311.16525	246.0
151.07455	202.0
285.14969	197.0
230.09489	171.0
243.09895	153.0
229.08739	149.0
200.08521	113.0
347.16153	112.0
213.09338	109.0
214.09808	107.0
241.12115	103.0
251.10649	94.0
245.11551	90.0
284.14188	88.0
266.13034	87.0
201.08936	84.0
184.08968	83.0
212.08249	81.0
270.12466	80.0
301.18097	78.0
225.09267	73.0
227.10703	70.0
240.11252	67.0
253.12163	66.0
279.1377	61.0
269.15182	58.0
186.0667	57.0
215.07356	54.0
171.11569	52.0
281.13074	51.0
239.10751	51.0
185.09419	50.0
216.08003	49.0
269.11487	48.0
329.1499	48.0
188.08115	47.0
299.12808	47.0
251.11736	46.0
226.09726	46.0
244.10619	45.0
187.04042	43.0
265.077	42.0
172.05209	41.0
228.07913	39.0
299.10608	38.0
215.06638	38.0
268.11176	37.0
255.11824	37.0
256.14847	37.0
203.10936	35.0
253.08891	34.0
202.10156	34.0
158.03539	33.0
241.08618	32.0
189.05609	32.0
238.10008	31.0
255.09164	31.0
266.11914	31.0
231.09866	30.0
237.09026	30.0
267.14093	29.0
257.14938	29.0
258.09247	29.0
211.07686	29.0
185.05821	28.0
229.12296	28.0
287.16074	27.0
234.90439	27.0
297.15314	26.0
283.13089	26.0
314.14526	25.0
346.02939	25.0
281.0979	25.0
213.10339	25.0
283.17209	25.0
298.177	25.0
229.06812	24.0
217.11916	24.0
282.15131	24.0
295.13089	23.0
219.78957	23.0
286.12451	23.0
347.13965	23.0
255.17142	23.0
249.13031	23.0
329.13568	22.0
210.06934	22.0
267.12814	22.0
204.06787	21.0
150.06877	21.0
263.13861	18.0
214.06227	18.0
254.1291	17.0
151.06491	16.0
200.04781	16.0
277.11584	13.0
272.10474	13.0
241.13332	13.0
315.39444	12.0

MSID: 9022
ID: 231
RETENTIONTIME: 25.00885
PRECURSORMZ: 361.1646
AREA: 2066741.875
PRECURSORTYPE: [M-H]-
SMILES: [H][C@@]12[C@@H]3OC(=O)[C@@]1(CCCC2(C)C)C1=C(O)C(O)=C(C=C1[C@H]3O)C(C)CO
NAME: 16-Hydroxyepirosmanol
FORMULA: C20H26O6
INCHIKEY: CVXJXNWPXLHWHD-NQUYTQGUSA-N
CAS: nan
Molecular Weight: 362.423
Number of References: 2
Class: Abietane diterpenoids
Superclass: Diterpenoids
Pathway: Terpenoids
ppm: -0.5149999999503052
CMID: CM243
IONMODE: Negative
COLLISIONENERGY: 40±20eV
INSTRUMENTTYPE: AB SCIEX
INSTRUMENT: Q-TOF
Comment:  
Num Peaks: 73
361.16476	1643.0
331.15485	851.0
346.14014	303.0
232.07304	223.0
313.14423	222.0
325.19955	179.0
328.13052	145.0
206.05614	118.0
178.0649	101.0
229.08417	100.0
296.10544	88.0
269.1178	85.0
231.06715	85.0
171.10141	69.0
317.17923	58.0
285.14609	54.0
185.12064	52.0
361.13873	52.0
295.12552	50.0
325.19247	44.0
313.10092	44.0
311.13382	43.0
270.12439	43.0
179.0699	41.0
228.11438	39.0
235.13232	37.0
219.10316	37.0
270.09058	36.0
272.10281	36.0
333.16983	33.0
151.07439	31.0
201.10997	30.0
361.12012	29.0
255.06009	29.0
343.1514	28.0
255.10075	28.0
299.15826	28.0
257.08002	27.0
285.10971	27.0
267.13904	26.0
219.1394	26.0
287.12393	26.0
295.09692	25.0
247.09702	25.0
188.08632	24.0
346.11099	24.0
280.11172	24.0
230.06049	24.0
313.11652	23.0
315.12286	23.0
71.04942	23.0
191.03497	23.0
216.07692	23.0
329.13889	22.0
203.06447	22.0
273.11176	22.0
242.09203	22.0
315.15762	22.0
125.09431	21.0
275.09457	21.0
297.14438	21.0
269.07922	21.0
215.10635	20.0
185.11131	20.0
163.04283	20.0
246.08362	18.0
135.07652	18.0
219.06258	16.0
187.05093	13.0
343.16226	13.0
359.98584	13.0
123.07844	13.0
105.58588	12.0

MSID: 9023
ID: 152
RETENTIONTIME: 18.78303
PRECURSORMZ: 667.1647
AREA: 2053858.875
PRECURSORTYPE: [M-H]-
SMILES: COC1=CC(C=CC(=O)OC[C@H]2O[C@@H](OC3=C(OC)C(O)=C4C(=O)C=C(OC4=C3)C3=CC=C(O)C=C3)[C@H](O)[C@@H](O)[C@@H]2O)=CC(OC)=C1O
NAME: salpleflavone
FORMULA: C33H32O15
INCHIKEY: HCIVBTCBTDTJFG-NGKUPWCISA-N
CAS: nan
Molecular Weight: 668.608
Number of References: 1
Class: Flavones
Superclass: Flavonoids
Pathway: Shikimates and Phenylpropanoids
ppm: -1.5999999999394277
CMID: CM243
IONMODE: Negative
COLLISIONENERGY: 40±20eV
INSTRUMENTTYPE: AB SCIEX
INSTRUMENT: Q-TOF
Comment:  
Num Peaks: 182
299.05533	26542.0
667.16479	25643.0
284.03299	10818.0
353.08746	5678.0
313.07184	4426.0
298.04855	1745.0
205.04973	1474.0
191.0352	1182.0
283.02383	1158.0
190.02547	728.0
209.04585	655.0
367.10382	483.0
461.10846	373.0
251.05531	318.0
285.03894	277.0
223.05951	269.0
297.0401	266.0
176.01033	258.0
164.04741	185.0
255.02913	176.0
150.03162	162.0
165.05614	138.0
652.14215	130.0
341.06161	125.0
175.0036	118.0
338.0625	112.0
149.02216	96.0
300.05869	93.0
208.03897	92.0
194.02316	83.0
233.04552	81.0
269.04422	80.0
179.07011	77.0
341.05978	62.0
281.06509	61.0
293.06866	60.0
255.06354	54.0
265.06906	53.0
310.06937	53.0
443.10245	52.0
352.07794	50.0
227.03328	48.0
443.09006	47.0
209.03171	47.0
311.05478	45.0
299.03162	43.0
163.04428	42.0
353.11874	42.0
637.11499	41.0
313.10477	40.0
228.04219	40.0
284.00656	37.0
353.05066	37.0
207.02747	36.0
206.0564	36.0
200.04784	36.0
664.96851	35.0
148.0161	35.0
247.0573	33.0
163.00302	33.0
233.04253	33.0
195.0325	32.0
251.04291	32.0
192.04218	32.0
239.03638	31.0
147.0087	30.0
235.05754	30.0
667.11926	29.0
205.02309	29.0
211.04132	29.0
250.04778	28.0
461.13998	28.0
161.02242	28.0
221.08505	28.0
236.03445	27.0
325.08517	26.0
427.05832	26.0
433.14896	26.0
667.25079	26.0
212.04831	26.0
233.99876	26.0
139.03757	26.0
256.03256	26.0
223.74745	25.0
314.07416	25.0
335.06946	25.0
338.0553	25.0
253.05467	25.0
536.41223	25.0
257.03793	25.0
263.04971	25.0
446.0675	25.0
428.07886	25.0
275.05106	25.0
457.76682	24.0
191.01761	24.0
475.12146	24.0
367.08133	24.0
165.99223	24.0
113.02193	24.0
667.0434	24.0
307.07962	24.0
306.05258	23.0
201.01579	23.0
240.03972	23.0
337.05133	23.0
101.0257	23.0
483.95435	23.0
321.05618	23.0
228.68741	23.0
175.99864	22.0
271.0574	22.0
295.0788	22.0
313.02679	22.0
297.01984	22.0
202.46373	22.0
141.61864	21.0
430.4649	21.0
177.05383	21.0
189.05881	21.0
230.05632	21.0
353.03592	21.0
353.01385	21.0
605.11945	21.0
300.04852	21.0
135.04369	21.0
312.06595	21.0
71.01402	21.0
461.04117	20.0
123.00907	20.0
280.03012	20.0
311.07895	20.0
208.99631	20.0
188.79768	20.0
434.20535	20.0
283.97852	19.0
190.05922	19.0
469.04688	19.0
319.8974	19.0
367.03629	18.0
473.97379	18.0
456.84122	18.0
299.62122	18.0
189.71242	17.0
664.9054	17.0
187.04314	17.0
282.99747	17.0
248.06497	16.0
232.03752	16.0
434.78912	16.0
488.94141	14.0
560.82037	14.0
470.0697	14.0
472.21655	14.0
666.16602	14.0
476.92261	14.0
479.91702	14.0
481.6821	14.0
136.98865	14.0
637.08533	14.0
569.14172	14.0
563.19531	14.0
507.22687	14.0
510.64008	14.0
485.59732	14.0
496.92279	14.0
499.15192	14.0
533.72571	14.0
504.56836	14.0
487.0853	14.0
547.12506	12.0
97.50755	12.0
502.72009	12.0
644.28101	12.0
649.30182	12.0
538.20325	12.0
521.42902	12.0
629.63031	12.0
620.20795	12.0
333.52426	12.0
493.16647	12.0
599.24396	12.0

MSID: 9024
ID: 187
RETENTIONTIME: 21.21793
PRECURSORMZ: 377.1955
AREA: 2018151.375
PRECURSORTYPE: [M-H]-
SMILES: [H][C@@]12CC(=O)[C@]3([H])[C@]([C@@H]1O)([C@H](O)C[C@]1([H])C(C)(C)C(=O)CC[C@@]31C)C(=O)[C@H]2OCC
NAME: 7α,14β-dihydroxy-17α-methoxymethyl-ent-kaur-3,11,15-trione
FORMULA: C21H30O6
INCHIKEY: XPXUKXBTITWAJK-DDVLXYSESA-N
CAS: nan
Molecular Weight: 378.466
Number of References: 1
Class: Kaurane and Phyllocladane diterpenoids
Superclass: Diterpenoids
Pathway: Terpenoids
ppm: -0.9150000000204273
CMID: CM243
IONMODE: Negative
COLLISIONENERGY: 40±20eV
INSTRUMENTTYPE: AB SCIEX
INSTRUMENT: Q-TOF
Comment:  
Num Peaks: 163
377.1951	10696.0
315.15955	4802.0
345.16995	3389.0
297.14792	2770.0
347.18509	1551.0
215.10648	1375.0
327.16113	1011.0
282.1265	922.0
329.17636	713.0
227.1084	581.0
279.13919	481.0
317.17767	323.0
255.13687	284.0
281.11746	270.0
253.12151	245.0
243.1019	182.0
201.09064	164.0
265.12152	160.0
297.13611	155.0
214.10228	148.0
264.11475	143.0
230.09479	143.0
213.09042	137.0
267.10239	137.0
269.15649	121.0
271.13303	120.0
241.12256	118.0
299.16351	111.0
240.11392	109.0
200.08095	98.0
229.09024	91.0
278.13062	79.0
251.14516	78.0
151.07567	75.0
216.07848	75.0
266.09506	74.0
325.14853	74.0
345.13538	69.0
172.05202	69.0
231.10451	69.0
243.13701	67.0
204.07756	65.0
280.10858	64.0
199.07658	62.0
245.11691	62.0
217.12048	61.0
315.13	59.0
73.03093	59.0
225.09402	58.0
235.14598	58.0
238.09996	58.0
311.12537	58.0
226.09714	57.0
211.0739	56.0
295.13074	56.0
285.14789	55.0
212.08524	55.0
281.14865	55.0
297.11081	55.0
257.15555	54.0
202.05971	54.0
239.10588	54.0
252.11758	53.0
83.04781	53.0
253.15733	51.0
347.15588	49.0
187.07784	48.0
254.09464	48.0
256.1405	48.0
343.15158	47.0
243.12326	44.0
267.1376	44.0
229.11839	41.0
215.07057	40.0
285.11484	40.0
244.11066	40.0
184.08958	38.0
280.1463	38.0
185.09808	38.0
269.11633	38.0
242.13177	38.0
313.14789	37.0
242.09064	37.0
238.06369	36.0
284.14008	36.0
347.14859	36.0
245.15372	36.0
254.1321	35.0
287.16559	35.0
224.04768	35.0
204.07198	34.0
327.12924	34.0
252.07716	34.0
249.08846	34.0
189.05464	33.0
198.06645	33.0
218.09703	33.0
241.09062	33.0
255.11029	32.0
266.13019	31.0
263.10513	30.0
309.15247	30.0
312.12976	30.0
273.14911	30.0
59.01384	30.0
329.1142	28.0
203.10646	28.0
202.09729	28.0
333.17538	27.0
188.08643	27.0
282.0903	27.0
227.07593	27.0
270.12616	27.0
231.09856	27.0
237.09013	27.0
349.16583	26.0
217.08298	26.0
209.09811	26.0
300.13654	26.0
259.10333	26.0
239.09073	25.0
260.89709	25.0
315.11783	25.0
186.06795	25.0
284.10211	25.0
144.05759	25.0
251.06601	25.0
309.13696	24.0
73.02591	24.0
181.08716	24.0
294.13397	24.0
285.10159	24.0
283.13403	24.0
271.12335	24.0
164.08243	24.0
333.16824	23.0
330.15253	23.0
85.06608	23.0
316.17215	23.0
253.09657	23.0
221.09656	23.0
315.08655	23.0
171.11688	22.0
301.14343	22.0
174.03065	22.0
279.095	22.0
345.10443	21.0
297.19012	21.0
375.96558	21.0
153.09245	21.0
213.07756	21.0
203.06599	21.0
181.08189	21.0
225.05289	21.0
303.15714	21.0
101.05811	21.0
247.13103	20.0
175.07735	20.0
299.12964	17.0
209.05847	17.0
343.13162	13.0
137.30507	13.0
151.08411	13.0

MSID: 9025
ID: 556
RETENTIONTIME: 33.05788
PRECURSORMZ: 469.3304
AREA: 2002888.75
PRECURSORTYPE: [M-H]-
SMILES: [H][C@@]12CC[C@]3(C)[C@]([H])(CC=C4[C@]5([H])[C@](C)(O)[C@H](C)CC[C@@]5(CC[C@@]34C)C(O)=O)[C@@]1(C)C(CO)=CC2(C)C
NAME: hyptadienic acid
FORMULA: C30H46O4
INCHIKEY: YFLYOZWZPSYMPX-DCLYBNOZSA-N
CAS: 128397-09-1
Molecular Weight: 470.693
Number of References: 24
Class: Ursane and Taraxastane triterpenoids
Superclass: Triterpenoids
Pathway: Terpenoids
ppm: -1.3849999999706597
CMID: CM243
IONMODE: Negative
COLLISIONENERGY: 40±20eV
INSTRUMENTTYPE: AB SCIEX
INSTRUMENT: Q-TOF
Comment:  
Num Peaks: 125
469.33246	22702.0
423.32599	17281.0
409.31186	562.0
425.3392	298.0
407.29547	296.0
393.27957	256.0
289.21838	208.0
423.29175	56.0
439.31485	56.0
425.32303	56.0
421.30551	53.0
425.36948	37.0
469.27094	36.0
217.15491	33.0
394.28424	32.0
392.27036	30.0
407.21643	28.0
439.30664	27.0
311.1268	26.0
423.27966	26.0
336.29251	26.0
395.28824	26.0
421.93085	26.0
306.45651	26.0
313.17874	25.0
425.28668	25.0
425.26447	25.0
391.26828	25.0
393.2485	24.0
303.9502	24.0
278.84775	24.0
405.30972	24.0
307.19925	24.0
409.23062	23.0
423.23935	23.0
308.51025	22.0
333.59705	22.0
439.33539	22.0
421.9007	22.0
467.78503	21.0
289.19839	21.0
285.38248	20.0
351.22345	19.0
367.30026	18.0
397.31372	17.0
273.18768	15.0
302.18402	15.0
423.84396	14.0
373.06754	13.0
369.20203	13.0
408.30206	13.0
364.32037	13.0
379.23441	13.0
361.09763	13.0
441.20523	13.0
447.28165	13.0
354.61395	13.0
377.24036	13.0
435.95514	13.0
383.24588	13.0
389.27951	13.0
432.73053	13.0
426.09082	13.0
420.88351	13.0
418.5683	13.0
396.18436	13.0
415.4407	13.0
344.08429	13.0
451.2066	13.0
345.26602	13.0
329.81952	13.0
343.30908	13.0
341.05017	13.0
282.30551	13.0
280.98749	13.0
279.62338	13.0
277.26541	13.0
276.01453	13.0
274.66583	13.0
271.02954	13.0
267.14374	13.0
263.95535	13.0
262.45401	13.0
259.91391	13.0
249.1794	13.0
245.69194	13.0
241.21507	13.0
239.48283	13.0
235.16527	13.0
230.57758	13.0
217.12027	13.0
215.1393	13.0
209.69307	13.0
207.12154	13.0
196.99548	13.0
191.12828	13.0
283.57718	13.0
287.05908	13.0
290.71585	13.0
292.11169	13.0
337.14069	13.0
332.15341	13.0
331.14044	13.0
189.13525	13.0
328.74799	13.0
327.26886	13.0
326.18201	13.0
325.15173	13.0
323.86572	13.0
322.38354	13.0
319.92664	13.0
317.8736	13.0
317.14771	13.0
314.74561	13.0
313.73877	13.0
311.80252	13.0
309.00583	13.0
304.75827	13.0
301.36069	13.0
300.14642	13.0
298.04807	13.0
295.47208	13.0
294.78232	13.0
220.00415	12.0
58.00705	12.0

MSID: 9026
ID: 124
RETENTIONTIME: 16.69003
PRECURSORMZ: 315.0518
AREA: 1993763.0
PRECURSORTYPE: [M-H]-
SMILES: COC1=C(O)C=C2OC(=CC(=O)C2=C1O)C1=CC(O)=C(O)C=C1
NAME: eupafolin
FORMULA: C16H12O7
INCHIKEY: FHHSEFRSDKWJKJ-UHFFFAOYSA-N
CAS: 520-11-6
Molecular Weight: 316.267
Number of References: 392
Class: Flavones
Superclass: Flavonoids
Pathway: Shikimates and Phenylpropanoids
ppm: 1.320000000021082
CMID: CM243
IONMODE: Negative
COLLISIONENERGY: 40±20eV
INSTRUMENTTYPE: AB SCIEX
INSTRUMENT: Q-TOF
Comment:  
Num Peaks: 136
300.02652	14297.0
315.05029	7546.0
65.00307	1597.0
136.98752	1160.0
201.0186	900.0
199.03943	731.0
133.02792	639.0
227.03331	514.0
228.04222	512.0
299.0181	475.0
216.04123	423.0
134.03732	341.0
200.04649	298.0
243.02881	296.0
255.03073	260.0
188.0463	251.0
165.991	233.0
215.03629	229.0
202.02785	217.0
271.02682	200.0
174.03339	196.0
172.05215	195.0
110.00037	194.0
230.02516	181.0
187.04048	176.0
283.02386	176.0
213.0177	175.0
132.02122	171.0
171.04659	169.0
173.02202	167.0
272.03052	167.0
244.03741	165.0
203.03267	165.0
175.03862	159.0
164.01106	158.0
183.04555	147.0
149.99686	147.0
139.00179	144.0
211.03993	128.0
198.03079	115.0
166.99808	115.0
143.04866	114.0
229.01187	114.0
256.04044	112.0
135.04597	112.0
146.03552	106.0
158.0379	104.0
145.02901	102.0
163.0043	96.0
185.02231	94.0
182.03737	84.0
108.99308	82.0
214.02795	82.0
159.04282	75.0
108.02197	74.0
241.01784	72.0
226.02812	66.0
254.02304	64.0
119.0137	62.0
157.03003	61.0
186.03337	61.0
164.98068	60.0
137.9957	60.0
228.0304	57.0
239.03188	55.0
148.05186	55.0
315.02771	52.0
82.00614	51.0
129.03517	50.0
111.00817	50.0
170.03629	48.0
204.04276	46.0
155.05078	46.0
96.99284	45.0
201.00333	44.0
282.01981	44.0
177.99068	42.0
161.02368	42.0
181.02933	41.0
157.02512	41.0
176.04935	40.0
184.05119	38.0
190.99869	37.0
162.02931	37.0
122.00217	36.0
133.04488	36.0
148.01492	36.0
197.02196	35.0
199.02562	35.0
244.02672	34.0
120.02326	33.0
210.0325	33.0
253.01578	33.0
299.9892	33.0
66.00726	33.0
135.01071	33.0
169.03282	32.0
94.00429	28.0
124.98936	28.0
237.01645	28.0
225.01634	28.0
227.01709	27.0
153.03564	27.0
154.04156	27.0
298.99271	26.0
192.00421	26.0
144.05771	25.0
136.97263	25.0
271.01071	25.0
165.01842	25.0
151.00479	24.0
283.01233	24.0
181.01616	24.0
266.02179	24.0
257.00659	24.0
179.0007	24.0
232.04353	24.0
231.03323	23.0
281.00604	23.0
209.03032	23.0
200.98389	23.0
184.01268	23.0
141.03076	22.0
82.00082	22.0
63.58344	22.0
171.03249	21.0
119.00623	21.0
130.03938	21.0
254.97444	21.0
95.01437	20.0
285.0076	19.0
133.00986	19.0
253.00642	19.0
300.75635	18.0
77.03786	17.0
67.93053	12.0

MSID: 9027
ID: 255
RETENTIONTIME: 26.4854
PRECURSORMZ: 359.1502
AREA: 1976987.0
PRECURSORTYPE: [M-H]-
SMILES: [H][C@]12CCC=C3C(=O)OC[C@@]13C[C@@H](O)[C@@H](C)[C@]21C[C@@H](O[C@@H]1O)C1=COC=C1
NAME: (5S,7R,8S,9S,10S,12R,20S)-7,20-dihydroxy-12,20:15,16-diepoxy-neo-cleroda-3,13(16),14-trien-18,19-olide
FORMULA: C20H24O6
INCHIKEY: LTTTVCLKKGSVRZ-LSXQTOCCSA-N
CAS: nan
Molecular Weight: 360.407
Number of References: 2
Class: Colensane and Clerodane diterpenoids
Superclass: Diterpenoids
Pathway: Terpenoids
ppm: 0.7350000000201362
CMID: CM243
IONMODE: Negative
COLLISIONENERGY: 40±20eV
INSTRUMENTTYPE: AB SCIEX
INSTRUMENT: Q-TOF
Comment:  
Num Peaks: 145
359.15033	10928.0
313.14432	3999.0
331.15494	2753.0
285.14948	1382.0
329.13898	685.0
269.11948	536.0
247.09708	360.0
218.06081	347.0
303.16046	304.0
175.03972	297.0
203.03383	282.0
297.15121	270.0
231.06424	243.0
315.15771	231.0
190.06444	218.0
203.07011	200.0
314.11899	177.0
219.10033	169.0
229.0872	168.0
297.11578	164.0
267.13751	142.0
287.129	141.0
311.12701	138.0
201.09058	122.0
252.11597	119.0
179.07126	113.0
281.11737	108.0
245.08005	107.0
258.08911	104.0
241.11945	103.0
270.12445	101.0
216.07698	99.0
255.10083	95.0
296.10217	84.0
205.086	82.0
269.15802	81.0
230.09621	80.0
217.04973	80.0
259.13477	77.0
217.08868	76.0
283.13065	75.0
189.0923	75.0
216.04243	74.0
188.04608	74.0
243.10335	68.0
215.07195	66.0
259.09537	66.0
271.09586	66.0
244.06927	63.0
242.09666	63.0
227.06996	63.0
191.10947	60.0
284.13998	60.0
341.13724	59.0
241.08447	58.0
331.1282	57.0
253.12454	57.0
164.08363	57.0
281.07962	57.0
257.15231	56.0
295.13403	56.0
285.11969	55.0
298.12097	54.0
161.02475	53.0
231.10295	52.0
226.10002	51.0
251.10474	50.0
256.1091	50.0
267.10233	50.0
244.10753	49.0
315.12296	47.0
233.08267	47.0
204.0789	46.0
162.06902	46.0
271.13617	44.0
359.11877	44.0
283.09607	43.0
280.11343	43.0
175.07469	41.0
161.06079	40.0
214.0621	40.0
147.04536	39.0
187.0376	39.0
273.11182	38.0
359.17816	38.0
228.08337	38.0
270.09229	37.0
254.13358	37.0
203.10919	36.0
265.11984	36.0
177.09015	36.0
257.07693	36.0
275.0914	35.0
329.11411	35.0
287.16714	35.0
253.08716	35.0
247.08476	34.0
200.08505	34.0
191.07292	33.0
216.0338	32.0
269.0986	32.0
297.07864	31.0
211.07953	31.0
232.0731	31.0
176.08553	30.0
187.07777	28.0
253.04665	28.0
299.09738	28.0
359.09836	28.0
243.06212	27.0
227.07733	26.0
151.07323	26.0
225.09248	26.0
312.13486	25.0
328.13239	25.0
257.12091	25.0
271.06036	25.0
327.12207	24.0
255.06017	24.0
298.08545	24.0
341.13	24.0
330.14529	24.0
215.03317	24.0
186.07323	24.0
286.12097	24.0
197.06435	23.0
163.0779	23.0
285.08664	23.0
220.14813	23.0
185.06473	23.0
273.0762	23.0
202.06383	22.0
179.06209	22.0
279.10474	22.0
195.51537	22.0
286.07956	22.0
240.07895	21.0
172.05196	21.0
193.08427	21.0
160.01729	21.0
144.05637	21.0
314.09122	20.0
204.04254	20.0
252.07864	19.0
170.15105	18.0

MSID: 9028
ID: 506
RETENTIONTIME: 31.99972
PRECURSORMZ: 775.3688
AREA: 1975137.25
PRECURSORTYPE: [2M-H]-
SMILES: [H][C@]12CCC=C3C(=O)OC[C@@]13C[C@@H](OC(C)=O)[C@@H](C)[C@]2(C)CCC1=CCOC1=O
NAME: 7α-Acetoxy-neo-clerodan-3,13-dien-18,19:16,15-diolide
FORMULA: C22H28O6
INCHIKEY: BZHFASODQUVSNS-KALBJQTESA-N
CAS: nan
Molecular Weight: 388.461
Number of References: 3
Class: Colensane and Clerodane diterpenoids
Superclass: Diterpenoids
Pathway: Terpenoids
ppm: -0.2774999999815009
CMID: CM243
IONMODE: Negative
COLLISIONENERGY: 40±20eV
INSTRUMENTTYPE: AB SCIEX
INSTRUMENT: Q-TOF
Comment:  
Num Peaks: 266
387.18198	145392.0
312.13623	20283.0
327.15887	5179.0
297.11374	998.0
372.15625	598.0
775.36273	343.0
388.18652	227.0
269.07901	159.0
243.06642	142.0
296.10352	140.0
311.12491	118.0
59.013	116.0
385.89203	108.0
775.35181	107.0
385.90164	94.0
251.10445	92.0
282.0899	65.0
279.10278	59.0
327.12875	52.0
257.08136	50.0
283.09409	49.0
313.1405	43.0
345.17307	43.0
372.13925	40.0
284.10333	39.0
312.10162	39.0
254.05679	39.0
312.08258	35.0
388.21356	35.0
255.2773	33.0
260.33075	32.0
269.11435	32.0
251.24567	31.0
269.06775	29.0
266.57251	27.0
394.81509	27.0
316.18039	27.0
289.20825	26.0
291.61304	26.0
272.29163	26.0
257.65948	26.0
254.73466	26.0
388.3544	26.0
260.18066	26.0
212.75717	26.0
278.20697	26.0
387.89911	26.0
387.95889	26.0
271.24872	26.0
297.08167	26.0
255.9474	25.0
259.31421	25.0
262.55386	25.0
275.8989	25.0
252.13432	25.0
388.61111	25.0
338.46521	25.0
228.59659	25.0
775.31091	25.0
390.49561	24.0
222.64679	24.0
356.07028	24.0
253.04791	24.0
257.51489	24.0
292.08813	24.0
435.45209	23.0
287.99716	23.0
256.26709	23.0
250.80659	23.0
250.50891	23.0
254.64871	23.0
373.05981	23.0
388.28302	22.0
386.90839	22.0
173.49727	22.0
265.61884	22.0
261.77533	22.0
282.39096	22.0
214.54497	22.0
274.14014	22.0
252.78004	22.0
427.99084	22.0
252.87814	22.0
253.71507	22.0
270.08713	21.0
388.00711	21.0
253.56224	21.0
280.4541	21.0
365.0383	21.0
385.13254	21.0
255.35242	21.0
278.07141	21.0
393.23666	21.0
257.8576	21.0
273.16006	21.0
349.90683	20.0
251.82187	20.0
271.09393	20.0
256.82077	20.0
280.07706	20.0
301.26025	20.0
178.05951	20.0
215.6451	20.0
205.63165	20.0
279.74445	19.0
392.5437	19.0
286.70734	19.0
241.08571	19.0
258.11868	19.0
256.0947	19.0
269.64151	19.0
385.93817	19.0
312.81998	19.0
263.21594	19.0
228.04318	19.0
385.84586	19.0
224.95561	19.0
297.88565	18.0
285.59415	18.0
775.42816	17.0
249.41585	17.0
275.1723	17.0
277.27509	17.0
213.78255	17.0
311.09384	17.0
270.49768	17.0
219.2813	16.0
298.42334	16.0
272.92703	16.0
80.10429	16.0
296.08664	16.0
330.15024	15.0
775.51001	15.0
278.84271	15.0
267.47504	15.0
471.16064	14.0
662.5174	14.0
321.0134	14.0
398.96271	14.0
490.03882	14.0
496.134	14.0
497.2514	14.0
500.60684	14.0
555.90887	14.0
528.68018	14.0
672.22925	14.0
678.77032	14.0
708.5813	14.0
303.67184	14.0
713.35181	14.0
729.35327	14.0
775.17188	14.0
202.27802	13.0
181.44684	13.0
183.74667	13.0
189.29681	13.0
190.09122	13.0
192.33501	13.0
178.54857	13.0
199.1288	13.0
200.459	13.0
293.82462	13.0
203.63544	13.0
206.24858	13.0
207.58397	13.0
292.98422	13.0
210.27052	13.0
383.35117	13.0
382.65164	13.0
391.24097	13.0
379.1427	13.0
174.78566	13.0
418.09543	13.0
171.85144	13.0
167.13567	13.0
154.09227	13.0
457.25687	13.0
455.1506	13.0
449.8678	13.0
162.50671	13.0
434.86377	13.0
430.69159	13.0
420.70654	13.0
171.26782	13.0
375.21347	13.0
416.05551	13.0
411.46609	13.0
400.16461	13.0
397.03641	13.0
395.52756	13.0
169.13303	13.0
377.72916	13.0
209.34145	13.0
373.38144	13.0
328.96982	13.0
234.39091	13.0
235.33038	13.0
324.74908	13.0
323.62418	13.0
322.89703	13.0
215.93425	13.0
317.97122	13.0
316.5061	13.0
236.85913	13.0
314.0596	13.0
239.03891	13.0
240.07411	13.0
241.72018	13.0
243.54605	13.0
245.59514	13.0
246.6875	13.0
309.14856	13.0
308.29688	13.0
306.70499	13.0
305.49713	13.0
304.42999	13.0
301.47955	13.0
298.96494	13.0
280.88229	13.0
289.54642	13.0
327.56284	13.0
320.01059	13.0
232.46535	13.0
220.77602	13.0
362.4292	13.0
361.13467	13.0
358.29489	13.0
371.09909	13.0
357.43347	13.0
331.42014	13.0
223.26677	13.0
219.4655	13.0
354.05344	13.0
217.86249	13.0
352.91193	13.0
351.26367	13.0
340.79327	13.0
341.61813	13.0
333.58615	13.0
335.35202	13.0
336.41809	13.0
230.70982	13.0
226.05264	13.0
369.31851	13.0
229.04544	13.0
346.25098	13.0
347.87466	13.0
757.43787	12.0
737.27429	12.0
721.55127	12.0
123.08268	12.0
134.68744	12.0
144.43138	12.0
554.31458	12.0
693.86523	12.0
685.65326	12.0
657.50586	12.0
593.28137	12.0
560.42731	12.0
525.09491	12.0
513.94153	12.0
194.08414	12.0
487.05615	12.0
461.53024	12.0
425.06235	12.0
50.71306	12.0

MSID: 9029
ID: 317
RETENTIONTIME: 28.50718
PRECURSORMZ: 311.1287
AREA: 1965777.75
PRECURSORTYPE: [M-H]-
SMILES: CC1(C)CCCC2=C1C=CC1=C2C(=O)C(=O)C2=C1OC[C@@H]2CO
NAME: 17-hydroxycryptotanshinone
FORMULA: C19H20O4
INCHIKEY: RLHQXRPMHRPPEA-JTQLQIEISA-N
CAS: nan
Molecular Weight: 312.365
Number of References: 6
Class: Abietane diterpenoids
Superclass: Naphthalenes
Pathway: Polyketides
ppm: 0.3649999999879583
CMID: CM243
IONMODE: Negative
COLLISIONENERGY: 40±20eV
INSTRUMENTTYPE: AB SCIEX
INSTRUMENT: Q-TOF
Comment:  
Num Peaks: 145
311.12915	20746.0
283.13269	3027.0
281.08163	2517.0
296.10593	2207.0
268.11029	1541.0
253.08749	1514.0
267.10266	1296.0
295.09573	1175.0
239.10764	651.0
240.11417	463.0
242.0589	437.0
225.09131	386.0
214.06381	330.0
252.08054	295.0
252.11319	256.0
251.10661	239.0
199.0381	238.0
238.06546	233.0
240.07927	181.0
237.05418	170.0
266.0538	161.0
224.08456	157.0
251.07248	157.0
255.13715	144.0
253.05167	143.0
197.09624	140.0
228.07925	136.0
239.07281	134.0
280.07285	134.0
268.09586	133.0
235.07565	132.0
267.08505	132.0
236.08569	131.0
255.0605	131.0
213.05492	116.0
281.07013	116.0
209.05869	110.0
268.07343	110.0
293.20795	106.0
283.09314	104.0
210.06944	102.0
237.09038	98.0
255.10117	97.0
277.0899	95.0
186.06947	94.0
240.04285	91.0
222.06471	79.0
225.05165	78.0
256.10788	76.0
223.07422	73.0
293.12076	72.0
211.11111	70.0
185.05965	70.0
240.10051	67.0
279.10184	66.0
263.07523	64.0
197.05911	63.0
184.05124	60.0
250.10052	58.0
296.07898	58.0
182.03873	58.0
225.07368	57.0
281.10297	56.0
295.07892	55.0
195.04352	55.0
211.07697	54.0
158.07117	54.0
267.13467	54.0
223.11226	53.0
226.0959	51.0
239.06372	49.0
294.12421	48.0
281.11774	47.0
257.11969	47.0
267.06427	46.0
227.07025	46.0
310.11432	43.0
249.09026	42.0
267.12827	42.0
157.08774	42.0
295.05536	41.0
208.056	40.0
207.0811	37.0
210.05951	37.0
212.0498	37.0
279.06256	37.0
265.04684	36.0
171.04533	35.0
266.04742	35.0
208.08849	35.0
200.0867	35.0
209.09409	34.0
242.04671	34.0
281.0455	34.0
188.08662	33.0
278.09006	33.0
264.08002	33.0
251.03059	33.0
145.0656	33.0
143.05222	31.0
201.03253	31.0
269.07968	31.0
296.14301	30.0
215.06937	30.0
187.04053	30.0
254.05743	30.0
265.117	29.0
282.12515	29.0
296.06885	29.0
266.09854	29.0
282.08237	29.0
236.04808	29.0
211.12961	28.0
213.0206	28.0
224.04645	28.0
226.06056	27.0
240.05954	27.0
240.14755	26.0
167.04747	25.0
212.08688	25.0
239.14247	25.0
196.05276	25.0
241.08783	25.0
250.08504	24.0
238.08208	24.0
181.38794	24.0
283.07336	24.0
310.06949	23.0
182.07309	23.0
265.05484	23.0
241.05591	23.0
277.07361	22.0
252.02301	22.0
203.38869	21.0
209.94882	21.0
195.07907	21.0
281.03238	21.0
189.44687	21.0
250.0618	20.0
130.04388	20.0
200.04793	20.0
193.12128	19.0
242.09698	18.0
186.05879	18.0
57.03276	17.0

MSID: 9030
ID: 324
RETENTIONTIME: 28.68597
PRECURSORMZ: 327.1238
AREA: 1960230.375
PRECURSORTYPE: [M-H]-
SMILES: [H][C@]12CCC(C)(C)C3=CC=C(C4=C([C@@H](C)CO4)C(O)=O)C(C(=O)O1)=C23
NAME: salvianolactone acid A
FORMULA: C19H20O5
INCHIKEY: ZTBRVDVFZVQVGH-JOYOIKCWSA-N
CAS: nan
Molecular Weight: 328.365
Number of References: 1
Class: nan
Superclass: Sesquiterpenoids
Pathway: Terpenoids
ppm: 0.550000000032469
CMID: CM243
IONMODE: Negative
COLLISIONENERGY: 40±20eV
INSTRUMENTTYPE: AB SCIEX
INSTRUMENT: Q-TOF
Comment:  
Num Peaks: 139
327.12207	16948.0
299.12787	9578.0
284.1037	2662.0
269.08093	2370.0
283.09772	1528.0
271.13293	818.0
255.10083	551.0
241.08447	450.0
258.05136	449.0
312.0968	374.0
255.13681	343.0
272.10291	341.0
311.09076	319.0
256.11066	301.0
297.07864	298.0
230.05907	295.0
239.10733	281.0
256.07306	241.0
225.09102	235.0
228.07895	215.0
241.0495	198.0
267.10071	172.0
215.03319	166.0
268.07306	165.0
226.06322	165.0
213.05463	134.0
240.07895	127.0
271.09424	118.0
227.06996	115.0
299.10245	113.0
255.06329	113.0
254.06023	111.0
229.04868	110.0
269.05844	106.0
253.04977	98.0
201.1142	98.0
267.06873	89.0
201.05725	88.0
271.05878	87.0
283.06146	82.0
243.06519	80.0
281.11411	76.0
225.05576	75.0
202.06383	75.0
251.06905	73.0
223.07539	70.0
240.11537	69.0
253.12456	66.0
211.04112	63.0
240.03951	63.0
266.095	62.0
228.04198	61.0
231.06723	59.0
265.08478	57.0
147.08337	56.0
187.04028	55.0
200.04628	54.0
201.10864	53.0
213.09323	50.0
238.09688	49.0
215.06909	48.0
252.07555	48.0
253.08405	47.0
295.09534	47.0
161.05954	46.0
309.10934	46.0
198.03058	46.0
239.09521	45.0
242.05858	45.0
174.06679	44.0
256.03543	44.0
299.15497	44.0
197.09598	44.0
237.05237	42.0
237.09157	42.0
282.0853	41.0
281.04352	40.0
296.07184	40.0
298.11591	40.0
244.07234	40.0
196.05251	39.0
224.08281	39.0
212.04668	37.0
282.1264	36.0
189.08691	36.0
224.04323	36.0
203.07152	35.0
269.03595	35.0
227.10834	34.0
243.1003	34.0
239.07098	34.0
272.08353	33.0
309.2092	32.0
216.07843	32.0
216.03957	32.0
299.08383	32.0
279.06876	30.0
268.06024	29.0
210.06918	29.0
312.07605	29.0
281.10916	28.0
232.0746	28.0
183.09834	28.0
283.12903	27.0
240.09564	26.0
186.03049	26.0
257.11462	26.0
257.08167	26.0
228.11	26.0
299.06689	25.0
270.08261	25.0
226.0264	25.0
227.03012	25.0
227.14079	24.0
297.11578	24.0
179.08699	24.0
158.03526	24.0
187.07376	24.0
229.09166	24.0
237.08554	24.0
155.10916	23.0
197.05885	23.0
269.11627	23.0
188.04878	23.0
271.03781	23.0
230.0249	22.0
285.1131	22.0
137.09512	22.0
185.06075	22.0
255.02264	22.0
216.60849	21.0
283.04993	21.0
223.58907	20.0
127.11336	20.0
327.06894	19.0
199.0406	18.0
208.03737	17.0
165.0912	16.0
73.90553	12.0

MSID: 9031
ID: 165
RETENTIONTIME: 19.46158
PRECURSORMZ: 299.055
AREA: 1958175.75
PRECURSORTYPE: [M-H]-
SMILES: COC1=C(O)C=C(C=C1)C1=CC(=O)C2=C(O)C=C(O)C=C2O1
NAME: diosmetin
FORMULA: C16H12O6
INCHIKEY: MBNGWHIJMBWFHU-UHFFFAOYSA-N
CAS: 520-34-3
Molecular Weight: 300.268
Number of References: 525
Class: Flavones
Superclass: Flavonoids
Pathway: Shikimates and Phenylpropanoids
ppm: -0.5649999999945976
CMID: CM243
IONMODE: Negative
COLLISIONENERGY: 40±20eV
INSTRUMENTTYPE: AB SCIEX
INSTRUMENT: Q-TOF
Comment:  
Num Peaks: 92
284.03125	8105.0
299.05524	3430.0
65.00305	1569.0
136.98862	866.0
183.04547	424.0
283.02542	419.0
227.03471	388.0
212.04683	372.0
211.03984	343.0
117.03487	306.0
200.04503	306.0
185.0249	195.0
228.04509	189.0
186.03329	177.0
199.04074	165.0
164.00975	156.0
155.05074	153.0
158.03661	149.0
184.05113	140.0
256.03406	139.0
255.02907	115.0
149.99319	111.0
156.05957	107.0
214.02501	99.0
239.03482	94.0
82.00523	92.0
284.00485	87.0
108.02193	82.0
163.00174	81.0
182.03993	79.0
130.04268	78.0
165.99094	72.0
139.00404	67.0
187.03908	67.0
190.99591	66.0
171.04395	65.0
210.03101	64.0
143.05095	62.0
141.03304	61.0
240.04118	61.0
159.04646	61.0
267.0289	60.0
167.04863	60.0
177.98929	57.0
110.00238	55.0
227.02585	50.0
108.99201	47.0
299.01801	46.0
216.04115	44.0
169.02893	44.0
118.04134	44.0
238.02603	43.0
132.02116	41.0
154.0415	40.0
266.02328	38.0
164.98187	36.0
119.04999	36.0
145.03249	36.0
119.01259	35.0
95.01434	35.0
149.9908	34.0
94.0033	33.0
122.00212	32.0
111.00916	30.0
116.02744	30.0
215.03477	30.0
166.99548	30.0
172.05466	29.0
190.98779	29.0
136.01724	28.0
283.9834	28.0
212.02116	26.0
142.03845	25.0
157.02751	25.0
155.03853	25.0
255.00249	25.0
144.05647	25.0
211.03131	24.0
131.0452	24.0
92.02566	24.0
196.49715	22.0
66.00962	22.0
213.01047	21.0
196.04852	21.0
94.0109	20.0
231.02869	20.0
222.03392	19.0
195.0434	19.0
135.00496	16.0
80.02557	12.0
67.01992	12.0
63.02321	12.0

MSID: 9032
ID: 195
RETENTIONTIME: 22.44167
PRECURSORMZ: 333.1698
AREA: 1942856.625
PRECURSORTYPE: [M-H]-
SMILES: CC(C)C1=CC(C(O)=O)=C2C(O[C@@]3(O)[C@]2(C)CCCC3(C)C)=C1O
NAME: salvicanaric acid
FORMULA: C19H26O5
INCHIKEY: KLOJCXCHQBUABA-RTBURBONSA-N
CAS: nan
Molecular Weight: 334.412
Number of References: 2
Class: Secoabietane diterpenoids
Superclass: Diterpenoids
Pathway: Terpenoids
ppm: -0.3999999999564352
CMID: CM243
IONMODE: Negative
COLLISIONENERGY: 40±20eV
INSTRUMENTTYPE: AB SCIEX
INSTRUMENT: Q-TOF
Comment:  
Num Peaks: 147
333.16983	16454.0
179.0712	3010.0
205.08592	1768.0
315.1611	886.0
287.16541	708.0
177.09138	495.0
231.10138	303.0
178.06227	284.0
305.17395	281.0
216.07834	265.0
203.10773	243.0
253.12134	223.0
187.07637	207.0
164.0472	206.0
164.08484	194.0
267.10062	173.0
289.14523	165.0
269.15152	160.0
271.13284	143.0
162.06772	143.0
203.07004	142.0
151.07678	138.0
163.03908	130.0
249.11456	119.0
257.11612	114.0
285.14935	110.0
215.06757	110.0
229.08565	108.0
303.16037	102.0
188.08362	101.0
190.06032	98.0
243.13686	96.0
297.15112	92.0
213.09314	86.0
189.09222	85.0
201.09468	83.0
241.12392	80.0
189.05722	79.0
272.10605	78.0
281.11728	77.0
272.14319	73.0
134.03712	72.0
244.10898	68.0
57.03414	68.0
150.0686	66.0
192.07993	66.0
201.05579	65.0
178.09756	62.0
193.08421	62.0
188.04468	61.0
161.05948	61.0
219.1017	60.0
163.07658	59.0
252.11432	58.0
211.07518	56.0
187.03754	56.0
228.11436	53.0
233.0811	53.0
254.1335	52.0
217.08427	51.0
177.0562	50.0
275.16766	48.0
315.14719	47.0
135.07993	47.0
261.11209	45.0
176.08028	45.0
225.12914	42.0
259.09686	41.0
313.14075	41.0
171.07964	40.0
287.12558	40.0
317.1391	40.0
315.18369	39.0
191.06473	38.0
285.11298	38.0
286.15567	38.0
226.09846	38.0
236.12141	37.0
230.09464	37.0
216.06538	37.0
255.10231	36.0
173.06171	34.0
160.05316	34.0
179.0463	34.0
283.12726	33.0
149.05902	33.0
159.04259	33.0
71.01558	33.0
210.07051	32.0
161.0222	32.0
269.11456	32.0
244.10439	31.0
158.03889	31.0
239.07393	31.0
200.08498	31.0
333.12872	30.0
243.1048	30.0
270.12598	29.0
133.10229	28.0
257.14908	28.0
83.04865	27.0
299.12607	27.0
241.11479	27.0
149.09727	27.0
267.14062	26.0
290.12183	26.0
192.07587	25.0
145.03352	25.0
148.05403	25.0
259.16779	25.0
287.1073	25.0
213.06741	25.0
214.06346	25.0
121.10049	25.0
195.04318	25.0
197.09315	25.0
173.02306	25.0
201.04607	25.0
206.08846	25.0
135.04465	24.0
305.14316	24.0
136.01825	24.0
223.84677	24.0
199.04053	24.0
235.1158	24.0
205.05647	23.0
262.12106	23.0
215.1049	23.0
106.04321	23.0
257.08157	23.0
219.0959	22.0
222.24971	22.0
147.04294	22.0
256.11057	22.0
107.08646	22.0
197.06154	22.0
281.10251	21.0
165.08737	21.0
185.09531	21.0
242.09506	20.0
315.12457	20.0
254.09915	19.0
155.07129	18.0
234.08835	17.0
57.03192	17.0
313.12689	13.0
261.06778	13.0

MSID: 9033
ID: 140
RETENTIONTIME: 18.17267
PRECURSORMZ: 361.1652
AREA: 1936014.125
PRECURSORTYPE: [M-H]-
SMILES: [H][C@@]12[C@@H](O)[C@@H]3OC(=O)[C@@]1(CCCC2(C)C)C1=C(O)C(O)=C(C=C31)C(C)CO
NAME: 16-Hydroxyisorosmanol
FORMULA: C20H26O6
INCHIKEY: ANFXEXUSAJDGJA-FAQAXKBASA-N
CAS: nan
Molecular Weight: 362.423
Number of References: 2
Class: Abietane diterpenoids
Superclass: Diterpenoids
Pathway: Terpenoids
ppm: 0.08500000006961272
CMID: CM243
IONMODE: Negative
COLLISIONENERGY: 40±20eV
INSTRUMENTTYPE: AB SCIEX
INSTRUMENT: Q-TOF
Comment:  
Num Peaks: 114
361.16702	18532.0
299.16537	8847.0
281.15372	3215.0
215.10803	1463.0
265.12326	1217.0
214.10095	407.0
255.13857	288.0
343.15356	280.0
317.17609	228.0
361.14285	193.0
200.08383	184.0
266.12875	184.0
251.10649	161.0
271.17023	144.0
284.14188	134.0
225.0912	133.0
241.12268	127.0
231.10313	113.0
297.14807	109.0
199.0753	108.0
201.09352	106.0
279.14096	106.0
243.10355	99.0
213.0934	97.0
287.16406	84.0
257.15567	79.0
289.18051	77.0
216.07715	74.0
315.15799	72.0
237.09175	72.0
217.08453	68.0
295.12921	65.0
240.11404	65.0
283.13254	62.0
229.08443	60.0
281.12909	60.0
285.14639	57.0
238.10008	57.0
186.06804	55.0
333.1702	55.0
269.11807	55.0
226.09726	54.0
227.10556	52.0
230.09341	52.0
273.14764	51.0
282.16116	50.0
281.11597	50.0
274.12283	47.0
267.13452	47.0
188.04623	47.0
255.12292	45.0
256.10928	45.0
241.08618	42.0
188.08115	42.0
256.14377	42.0
271.13638	40.0
297.14133	40.0
171.11826	40.0
242.12886	38.0
299.13489	38.0
253.15903	38.0
361.20053	36.0
173.0632	35.0
175.07614	35.0
233.11575	34.0
184.08435	34.0
313.14111	34.0
269.15665	33.0
172.05209	32.0
250.10193	32.0
359.96765	32.0
280.14481	32.0
213.08052	32.0
228.11462	31.0
218.0899	30.0
209.13504	29.0
299.11456	29.0
189.09109	28.0
229.12889	28.0
265.0802	28.0
239.07269	27.0
215.075	27.0
245.15384	26.0
343.11185	26.0
223.07265	26.0
252.11772	25.0
253.11696	25.0
280.10709	25.0
259.08926	25.0
202.0974	24.0
279.12296	24.0
237.12794	24.0
242.08923	24.0
241.68108	24.0
200.04919	23.0
269.07953	23.0
185.06355	23.0
282.12665	23.0
187.07658	22.0
263.13385	21.0
263.14816	21.0
239.10297	21.0
161.8959	21.0
298.18207	21.0
83.04964	20.0
238.07741	20.0
180.0569	19.0
212.65904	19.0
258.08615	19.0
240.08369	18.0
197.09476	18.0
281.07162	17.0
295.15109	13.0
94.79683	12.0

MSID: 9034
ID: 439
RETENTIONTIME: 31.07452
PRECURSORMZ: 303.1585
AREA: 1909798.75
PRECURSORTYPE: [M-H]-
SMILES: [H][C@]12CCCC[C@@]1([H])[C@@H]([C@@H](C)C=C2)C1=CC(OC)=C(CO)C(=O)O1
NAME: solanapyrone B
FORMULA: C18H24O4
INCHIKEY: YJHFAFJKTXEFDR-SFDCBXKLSA-N
CAS: 88899-60-9
Molecular Weight: 304.386
Number of References: 8
Class: Decalins with 2-pyrones
Superclass: Cyclic polyketides
Pathway: Polyketides
ppm: -1.1349999999765714
CMID: CM243
IONMODE: Negative
COLLISIONENERGY: 40±20eV
INSTRUMENTTYPE: AB SCIEX
INSTRUMENT: Q-TOF
Comment:  
Num Peaks: 61
259.17087	14915.0
303.16028	13687.0
243.1368	396.0
244.14563	370.0
150.06737	331.0
164.08479	267.0
216.11427	257.0
163.0778	246.0
285.14929	171.0
79.05429	139.0
149.06137	107.0
229.12263	100.0
135.04462	96.0
148.0528	82.0
201.08768	81.0
162.06892	73.0
160.05188	65.0
215.10773	61.0
159.04378	61.0
178.06093	60.0
151.07675	56.0
269.11932	55.0
214.06197	52.0
187.07632	50.0
203.10628	41.0
270.1243	41.0
134.03822	38.0
257.14902	37.0
227.14214	37.0
164.07225	34.0
162.06393	33.0
228.1143	33.0
244.13492	33.0
225.12614	32.0
188.0876	31.0
200.08217	31.0
226.13817	30.0
229.093	28.0
175.0746	27.0
177.05356	27.0
241.16188	26.0
303.1944	26.0
227.10672	25.0
173.05908	24.0
255.10068	24.0
206.05608	24.0
259.20084	24.0
260.10974	24.0
258.30768	22.0
258.31396	22.0
172.05057	22.0
145.02641	21.0
241.12386	20.0
217.1203	20.0
79.04906	19.0
213.05879	19.0
231.1713	18.0
202.3436	16.0
173.98659	15.0
285.10629	13.0
287.12384	13.0

MSID: 9035
ID: 431
RETENTIONTIME: 30.98565
PRECURSORMZ: 375.1795
AREA: 1897048.875
PRECURSORTYPE: [M-H]-
SMILES: [H][C@@]12[C@@H](OC)C(=O)[C@@]34O[C@@]3(C(=O)C(O)=C(C(C)C)C4=O)[C@@]1(C)CCCC2(C)C
NAME: salvidesertone B
FORMULA: C21H28O6
INCHIKEY: QIWGZOZBWQGVQP-CPUUGZBESA-N
CAS: nan
Molecular Weight: 376.45
Number of References: 1
Class: Secoabietane diterpenoids
Superclass: Diterpenoids
Pathway: Terpenoids
ppm: -1.26499999993257
CMID: CM243
IONMODE: Negative
COLLISIONENERGY: 40±20eV
INSTRUMENTTYPE: AB SCIEX
INSTRUMENT: Q-TOF
Comment:  
Num Peaks: 152
375.1814	21538.0
315.15924	18333.0
297.14932	6443.0
59.01378	2205.0
269.15463	1786.0
253.1228	1754.0
281.11554	844.0
271.16821	694.0
282.12454	525.0
254.09593	395.0
264.11606	370.0
254.13028	344.0
228.07582	264.0
189.09081	246.0
188.0849	230.0
215.06892	229.0
331.19034	217.0
242.09192	207.0
329.17603	201.0
251.14334	192.0
226.09837	185.0
239.0708	178.0
267.10211	173.0
229.08408	155.0
200.08629	152.0
333.16791	152.0
357.17078	137.0
241.08582	134.0
296.14072	134.0
279.13727	131.0
203.10765	121.0
210.10309	109.0
295.1355	109.0
216.0797	93.0
202.06367	89.0
236.11983	89.0
228.11427	87.0
268.14502	85.0
280.146	84.0
256.10577	84.0
215.10913	80.0
164.08351	72.0
254.11623	68.0
255.13506	66.0
227.06979	64.0
213.05733	62.0
287.1636	59.0
239.10411	57.0
269.11768	57.0
249.08974	57.0
201.09181	56.0
299.13101	54.0
233.07951	52.0
232.07144	52.0
252.11423	50.0
313.1441	50.0
238.05891	49.0
199.04321	48.0
280.10666	48.0
224.08411	48.0
211.07368	47.0
315.12619	44.0
265.12442	43.0
237.0914	42.0
314.11526	40.0
295.12708	40.0
185.06459	40.0
187.07362	39.0
190.0265	38.0
263.10486	38.0
298.15457	38.0
254.07875	38.0
251.13559	37.0
255.10533	37.0
203.06857	36.0
214.06624	36.0
235.07367	34.0
283.16998	33.0
300.13113	33.0
316.1666	33.0
201.05154	33.0
210.0676	33.0
304.1329	32.0
347.19202	30.0
225.06	30.0
250.13408	29.0
238.09669	29.0
236.07768	29.0
285.10956	28.0
187.04015	27.0
171.08469	27.0
253.0854	26.0
315.1123	26.0
185.05527	26.0
251.10921	26.0
249.12993	26.0
299.15305	25.0
282.09494	25.0
243.14134	25.0
225.09085	25.0
231.06407	25.0
209.41663	25.0
174.0421	25.0
253.66684	25.0
225.13052	25.0
227.14653	25.0
224.04745	25.0
241.07669	25.0
268.10172	24.0
297.19321	24.0
220.08694	24.0
271.4053	24.0
241.11319	24.0
240.1167	24.0
214.0992	24.0
211.0367	23.0
272.10269	23.0
188.04594	23.0
181.09883	23.0
259.0936	22.0
314.07883	22.0
159.04376	22.0
329.13516	22.0
179.07112	22.0
373.93811	22.0
189.08138	22.0
207.07925	21.0
209.06108	21.0
200.03642	21.0
146.03526	21.0
217.08563	21.0
230.08711	21.0
294.24118	21.0
281.06464	21.0
189.0531	20.0
278.12869	20.0
357.10968	20.0
253.16643	20.0
314.13785	20.0
221.05847	20.0
151.07431	20.0
266.0932	19.0
257.0799	19.0
87.04543	19.0
284.31479	18.0
216.55788	18.0
211.09218	18.0
243.09248	17.0
317.11804	16.0
333.15182	16.0
215.04881	16.0
259.19608	16.0

MSID: 9036
ID: 639
RETENTIONTIME: 36.67922
PRECURSORMZ: 453.3369
AREA: 1891584.875
PRECURSORTYPE: [M-H]-
SMILES: [H][C@@]12[C@@H](C)[C@H](C)CC[C@@]1(CC[C@]1(C)C2=CC[C@]2([H])[C@@]3(C)CCC(=O)C(C)(C)[C@]3([H])CC[C@@]12C)C(O)=O
NAME: ursonic acid
FORMULA: C30H46O3
INCHIKEY: MUCRYNWJQNHDJH-OADIDDRXSA-N
CAS: nan
Molecular Weight: 454.693
Number of References: 184
Class: Ursane and Taraxastane triterpenoids
Superclass: Triterpenoids
Pathway: Terpenoids
ppm: 0.03000000003794412
CMID: CM243
IONMODE: Negative
COLLISIONENERGY: 40±20eV
INSTRUMENTTYPE: AB SCIEX
INSTRUMENT: Q-TOF
Comment:  
Num Peaks: 60
453.33633	27399.0
407.3284	169.0
157.12398	57.0
295.2225	54.0
391.30054	40.0
407.31259	34.0
453.29254	31.0
277.21442	31.0
171.1049	26.0
451.82385	26.0
453.25711	25.0
347.5145	25.0
302.98584	22.0
309.53915	16.0
296.84503	16.0
331.23434	13.0
330.14273	13.0
328.23627	13.0
339.2742	13.0
333.29605	13.0
335.05399	13.0
335.98853	13.0
355.10959	13.0
342.51422	13.0
350.08594	13.0
322.56589	13.0
374.25192	13.0
389.20352	13.0
409.34683	13.0
417.29034	13.0
449.80701	13.0
325.84021	13.0
319.97339	13.0
320.92703	13.0
303.58615	13.0
242.08694	13.0
215.60313	13.0
291.04938	13.0
292.51303	13.0
293.65808	13.0
297.42572	13.0
269.24414	13.0
300.69583	13.0
304.47235	13.0
305.43683	13.0
307.31375	13.0
310.96048	13.0
313.3273	13.0
315.96066	13.0
318.05643	13.0
255.98468	13.0
163.24136	12.0
199.24603	12.0
371.52698	12.0
272.13617	12.0
278.50235	12.0
400.75003	12.0
154.01308	12.0
359.05484	12.0
119.28159	12.0

MSID: 9037
ID: 118
RETENTIONTIME: 15.9157
PRECURSORMZ: 319.1184
AREA: 1882935.0
PRECURSORTYPE: [M-H]-
SMILES: [H][C@]12CC3=C(C)C(=O)O[C@]3(O)C[C@]1(C)[C@@H](OC(C)=O)C(=O)C=C2C
NAME: 1α-acetoxy-8α-hydroxy-2-oxoeudesman-3,7(11)-dien-8,12-olide
FORMULA: C17H20O6
INCHIKEY: LIFBCCDKWRTEGI-RNCIANSQSA-N
CAS: 131740-67-5
Molecular Weight: 320.342
Number of References: 8
Class: Eudesmane sesquiterpenoids
Superclass: Sesquiterpenoids
Pathway: Terpenoids
ppm: 0.23500000003195964
CMID: CM243
IONMODE: Negative
COLLISIONENERGY: 40±20eV
INSTRUMENTTYPE: AB SCIEX
INSTRUMENT: Q-TOF
Comment:  
Num Peaks: 95
59.01459	2081.0
215.10789	861.0
200.08369	769.0
233.1171	722.0
137.06076	590.0
173.09659	540.0
319.11646	490.0
157.06548	367.0
277.10751	348.0
259.10013	271.0
199.07379	271.0
135.08228	235.0
161.05957	227.0
175.1136	206.0
133.06621	192.0
136.05258	184.0
83.04958	184.0
218.0941	150.0
197.09601	149.0
185.0621	136.0
193.08568	131.0
160.05077	118.0
149.0591	117.0
95.04865	109.0
187.1113	108.0
191.10544	103.0
158.07346	93.0
186.06659	92.0
171.07971	90.0
151.07445	89.0
244.07391	81.0
159.07971	80.0
125.02538	74.0
201.09061	73.0
275.12881	73.0
121.06499	72.0
175.07472	69.0
205.12389	67.0
127.04162	61.0
189.05463	60.0
277.09775	59.0
173.06052	57.0
213.09326	56.0
147.07983	54.0
197.09187	54.0
149.0567	53.0
71.01397	53.0
122.03775	50.0
187.0778	49.0
319.10422	49.0
184.05103	45.0
73.03092	44.0
172.08925	41.0
67.01908	41.0
145.09846	40.0
217.08583	38.0
203.10504	35.0
156.05582	35.0
163.07417	34.0
202.06247	34.0
120.05856	33.0
185.09674	32.0
150.06989	32.0
235.09641	31.0
143.0497	30.0
107.04902	30.0
109.0666	30.0
172.05199	28.0
198.06506	28.0
129.07288	28.0
215.06912	26.0
57.03491	26.0
185.04211	25.0
135.04358	24.0
144.05405	24.0
99.04618	24.0
159.07108	24.0
183.07452	24.0
137.02406	24.0
257.12881	23.0
81.03437	23.0
226.06325	23.0
203.06876	22.0
174.0694	22.0
146.0354	20.0
216.08278	20.0
225.05727	14.0
127.01513	13.0
257.1084	13.0
193.05981	13.0
141.05389	13.0
90.53706	12.0
193.17004	12.0
71.85239	12.0
65.06935	12.0

MSID: 9038
ID: 353
RETENTIONTIME: 29.39015
PRECURSORMZ: 403.1758
AREA: 1873666.0
PRECURSORTYPE: [M-H]-
SMILES: CC(C)C1=C(O)C(=O)C2=C([C@H](CC3[C@]4(C)CCC[C@]23C(O)OC4)OC(C)=O)C1=O
NAME: 7β-acetoxy-20-hydroxy-19,20-epoxyroyleanone
FORMULA: C22H28O7
INCHIKEY: MXRIIQLPOVQSQO-BTLJSFRISA-N
CAS: nan
Molecular Weight: 404.46
Number of References: 1
Class: Abeoabietane diterpenoids
Superclass: Diterpenoids
Pathway: Terpenoids
ppm: 0.11999999998124622
CMID: CM243
IONMODE: Negative
COLLISIONENERGY: 40±20eV
INSTRUMENTTYPE: AB SCIEX
INSTRUMENT: Q-TOF
Comment:  
Num Peaks: 147
343.15335	16655.0
328.13068	14831.0
299.1279	7196.0
403.17578	6322.0
300.1348	2603.0
284.10535	1493.0
285.11313	1454.0
59.01383	1242.0
310.11911	992.0
283.09445	872.0
388.15231	610.0
269.08255	493.0
295.09705	376.0
327.12033	342.0
309.11453	250.0
313.10449	230.0
267.10394	216.0
282.08862	216.0
281.11905	207.0
311.12534	199.0
300.10596	184.0
325.14316	157.0
270.08908	131.0
315.15948	129.0
293.11703	107.0
273.07626	106.0
267.06393	100.0
285.07675	99.0
257.07855	99.0
296.10388	98.0
297.14618	87.0
282.12479	85.0
254.09459	85.0
271.13458	81.0
298.11932	79.0
255.10086	76.0
241.04953	74.0
241.08601	73.0
281.08456	68.0
272.10617	68.0
257.11624	66.0
309.10248	58.0
328.10406	57.0
244.07542	57.0
256.11069	56.0
242.05861	56.0
253.08719	56.0
239.07101	53.0
245.08008	52.0
340.15225	51.0
266.09341	48.0
257.06912	47.0
241.04497	46.0
268.07309	45.0
297.11411	44.0
299.09232	40.0
258.09229	40.0
211.04114	39.0
229.04869	36.0
200.04768	35.0
229.08723	35.0
388.11371	35.0
244.11368	35.0
310.08978	33.0
216.07988	33.0
285.05692	33.0
313.09064	32.0
251.06752	32.0
283.13397	32.0
283.08127	32.0
282.06888	32.0
328.0881	31.0
327.08667	31.0
280.10855	31.0
281.10919	31.0
265.08481	30.0
286.07959	30.0
277.0798	30.0
293.10529	29.0
326.14514	28.0
312.10376	28.0
271.09589	27.0
254.12892	26.0
216.67049	26.0
214.09795	26.0
243.0652	26.0
311.08731	26.0
403.13251	26.0
228.11299	26.0
292.11029	25.0
295.06174	25.0
307.13086	25.0
267.08313	25.0
343.1116	25.0
281.14862	25.0
194.07074	25.0
253.11835	25.0
239.10886	25.0
226.06177	25.0
342.01688	25.0
179.06998	24.0
192.38959	24.0
301.10599	24.0
284.03769	24.0
232.07463	24.0
272.09323	24.0
281.06653	24.0
207.89052	23.0
343.18781	23.0
269.04401	23.0
357.16922	22.0
323.79022	22.0
314.14853	22.0
59.0033	22.0
215.07198	22.0
271.07974	22.0
327.05304	21.0
298.08041	21.0
198.04713	21.0
227.07884	21.0
310.0484	20.0
203.07153	20.0
250.06459	20.0
403.21512	20.0
283.16858	20.0
293.08182	20.0
299.05847	19.0
375.17792	19.0
284.14331	19.0
237.0735	19.0
236.08391	18.0
137.05617	18.0
195.83046	18.0
280.07413	18.0
252.07712	18.0
202.0722	17.0
246.7155	16.0
312.0899	16.0
268.06348	16.0
259.05914	16.0
228.64131	16.0
233.65117	16.0
270.89438	15.0
334.39731	15.0
347.90433	15.0
198.52148	14.0
388.18896	13.0

MSID: 9039
ID: 16
RETENTIONTIME: 7.488833
PRECURSORMZ: 179.0345
AREA: 1831519.5
PRECURSORTYPE: [M-H]-
SMILES: OC(=O)\C=C\C1=CC=C(O)C(O)=C1
NAME: caffeic acid
FORMULA: C9H8O4
INCHIKEY: QAIPRVGONGVQAS-DUXPYHPUSA-N
CAS: 331-39-5
Molecular Weight: 180.16
Number of References: 32509
Class: Cinnamic acids and derivatives
Superclass: Phenylpropanoids (C6-C3)
Pathway: Shikimates and Phenylpropanoids
ppm: 0.06500000000642103
CMID: CM243
IONMODE: Negative
COLLISIONENERGY: 40±20eV
INSTRUMENTTYPE: AB SCIEX
INSTRUMENT: Q-TOF
Comment:  
Num Peaks: 40
135.04599	23409.0
134.03732	6714.0
179.03609	1051.0
89.03949	925.0
79.0553	642.0
107.05013	575.0
117.03492	356.0
106.04134	270.0
133.02905	197.0
108.02095	197.0
91.05597	191.0
77.03958	155.0
109.02784	127.0
65.00229	108.0
132.02122	96.0
93.0355	70.0
105.03332	61.0
161.02245	57.0
81.03356	55.0
91.01952	49.0
65.04019	40.0
51.02328	34.0
89.01732	32.0
134.01465	30.0
134.05774	30.0
89.03117	28.0
88.03237	27.0
104.02411	27.0
137.02763	26.0
109.01557	24.0
53.03847	24.0
94.6758	23.0
63.02401	23.0
133.01663	22.0
75.02784	21.0
138.47121	21.0
93.90083	20.0
80.0256	19.0
79.01699	16.0
161.01498	13.0

MSID: 9040
ID: 477
RETENTIONTIME: 31.55625
PRECURSORMZ: 299.1633
AREA: 1743756.5
PRECURSORTYPE: [M-H]-
SMILES: [H][C@@]12C[C@@H]3OC[C@@]1(CCCC2(C)C)C1=CC(=O)C(O)=C(C)C=C31
NAME: miltipolone
FORMULA: C19H24O3
INCHIKEY: QCERTNNJMAPQRG-BXWFABGCSA-N
CAS: 131086-61-8
Molecular Weight: 300.398
Number of References: 6
Class: Podocarpane diterpenoids
Superclass: Diterpenoids
Pathway: Terpenoids
ppm: -1.41999999999598
CMID: CM243
IONMODE: Negative
COLLISIONENERGY: 40±20eV
INSTRUMENTTYPE: AB SCIEX
INSTRUMENT: Q-TOF
Comment:  
Num Peaks: 115
299.16498	19689.0
243.1017	5166.0
213.05452	1490.0
228.07735	1093.0
216.07831	846.0
256.10898	689.0
214.06343	542.0
200.04756	494.0
227.06984	464.0
283.13382	346.0
215.10631	286.0
185.02335	284.0
185.06064	231.0
215.07184	227.0
199.03773	227.0
201.05577	205.0
281.11725	201.0
284.13986	200.0
271.16827	167.0
200.08218	158.0
242.09351	147.0
229.08858	145.0
230.09311	132.0
297.15106	130.0
201.09048	128.0
225.0909	125.0
199.07642	117.0
241.08435	115.0
226.10138	103.0
281.15335	102.0
182.03708	99.0
255.10226	87.0
265.12289	85.0
187.03885	84.0
269.11774	84.0
217.08713	80.0
187.07635	76.0
156.05939	70.0
231.10135	68.0
172.0506	67.0
241.12389	63.0
185.05531	62.0
183.04659	57.0
212.04657	56.0
186.06779	53.0
171.04503	51.0
215.09052	48.0
214.05197	46.0
255.17265	46.0
298.15295	46.0
255.13824	45.0
266.1268	45.0
240.07883	44.0
83.04953	44.0
199.11372	43.0
209.0583	42.0
253.12286	41.0
212.12073	40.0
243.07269	40.0
268.10822	37.0
184.05223	37.0
157.06537	37.0
256.08389	36.0
187.11252	35.0
253.16182	35.0
226.07193	35.0
173.02562	35.0
213.02451	34.0
227.10526	32.0
145.0677	31.0
256.13873	31.0
211.07373	30.0
169.10385	30.0
228.1158	30.0
299.12772	29.0
167.05096	29.0
171.07961	29.0
185.01535	29.0
188.08629	29.0
280.14444	29.0
210.07048	29.0
298.17154	28.0
186.02907	27.0
198.07043	27.0
227.05362	25.0
218.09396	25.0
284.02927	25.0
203.0728	25.0
160.08907	24.0
238.09676	24.0
185.09395	24.0
200.98773	24.0
213.09311	23.0
200.03232	23.0
159.04256	22.0
204.94568	22.0
143.04961	21.0
254.09131	21.0
207.10045	21.0
199.0184	21.0
198.03185	21.0
228.03595	20.0
225.0101	20.0
224.08269	20.0
188.04599	20.0
147.04886	20.0
129.03607	19.0
197.09587	19.0
197.05876	19.0
174.02794	19.0
170.0705	19.0
229.07079	18.0
257.11295	18.0
169.06438	17.0
76.00208	12.0

MSID: 9041
ID: 486
RETENTIONTIME: 31.63005
PRECURSORMZ: 311.1284
AREA: 1712000.875
PRECURSORTYPE: [M-H]-
SMILES: C[C@H]1COC2=C1C(=O)C(=O)C1=C2C=CC2=C1[C@H](O)CCC2(C)C
NAME: 1β-hydroxycryptotanshinone
FORMULA: C19H20O4
INCHIKEY: GEWNOYPIMWDSBC-JOYOIKCWSA-N
CAS: nan
Molecular Weight: 312.365
Number of References: 4
Class: Abietane diterpenoids
Superclass: Naphthalenes
Pathway: Polyketides
ppm: 0.06500000000642103
CMID: CM243
IONMODE: Negative
COLLISIONENERGY: 40±20eV
INSTRUMENTTYPE: AB SCIEX
INSTRUMENT: Q-TOF
Comment:  
Num Peaks: 113
311.13019	26339.0
295.09677	18572.0
296.10529	7047.0
280.07385	2388.0
294.08829	1774.0
279.06522	1657.0
281.08264	1554.0
237.09135	1283.0
236.08368	763.0
251.10606	735.0
253.08537	480.0
252.11418	359.0
265.05106	340.0
235.07364	323.0
267.10529	322.0
268.10651	242.0
209.05963	232.0
222.06859	228.0
250.09996	173.0
210.0704	164.0
278.05679	164.0
293.08154	153.0
266.0564	147.0
238.0619	141.0
264.04123	125.0
252.04111	114.0
225.09082	113.0
251.07037	103.0
221.06136	98.0
252.07999	95.0
277.04694	89.0
263.03336	88.0
224.08261	81.0
253.04955	79.0
237.01898	72.0
238.02867	69.0
223.11031	62.0
239.11165	60.0
225.05556	60.0
237.0582	59.0
252.10641	55.0
251.03003	54.0
224.04449	53.0
240.04233	53.0
207.07782	53.0
283.1337	51.0
268.07605	50.0
277.08768	48.0
239.06622	47.0
280.0509	46.0
194.07054	46.0
209.09503	45.0
223.07373	43.0
181.10146	42.0
311.09045	42.0
196.0537	40.0
255.06464	40.0
236.06712	40.0
193.06371	39.0
182.04097	38.0
279.02597	37.0
197.09579	36.0
191.08765	35.0
249.09125	35.0
219.0813	35.0
226.06448	35.0
233.09741	34.0
278.09271	34.0
234.06575	34.0
310.11362	33.0
295.04965	32.0
279.09958	32.0
208.09087	31.0
293.11841	30.0
180.06053	29.0
252.02711	29.0
181.06323	29.0
268.06641	28.0
227.07271	27.0
311.05939	26.0
294.0379	26.0
267.06528	26.0
240.07874	26.0
263.0683	26.0
205.09843	26.0
267.11969	25.0
182.7803	25.0
310.09982	25.0
281.03012	25.0
224.07088	25.0
205.10405	24.0
261.05658	24.0
241.05081	24.0
210.92287	24.0
195.07864	24.0
198.08415	24.0
171.03984	24.0
216.57082	24.0
222.04962	24.0
280.03781	23.0
169.06432	23.0
196.64101	22.0
212.04506	22.0
293.06143	21.0
211.07365	21.0
148.5596	21.0
218.24721	19.0
168.33678	18.0
211.78276	17.0
246.58299	16.0
210.52342	16.0
195.52753	16.0
219.51489	15.0

MSID: 9042
ID: 567
RETENTIONTIME: 33.2491
PRECURSORMZ: 373.2018
AREA: 1705461.875
PRECURSORTYPE: [M-H]-
SMILES: [H][C@@]12CC(OC(C)=O)C3=C(C(=O)C(O)=C(C(C)C)C3=O)[C@@]1(C)CCCC2(C)C
NAME: 7-Acetoxy-royleanon
FORMULA: C22H30O5
INCHIKEY: XDBVTCDGDQLEKG-AZQKXBOTSA-N
CAS: nan
Molecular Weight: 374.477
Number of References: 5
Class: Abietane diterpenoids
Superclass: Diterpenoids
Pathway: Terpenoids
ppm: 0.3000000000383807
CMID: CM243
IONMODE: Negative
COLLISIONENERGY: 40±20eV
INSTRUMENTTYPE: AB SCIEX
INSTRUMENT: Q-TOF
Comment:  
Num Peaks: 38
287.20175	29901.0
331.19031	4353.0
373.20181	1947.0
244.14709	506.0
271.16818	235.0
269.19153	233.0
272.17697	163.0
283.16995	86.0
313.17871	78.0
285.18396	77.0
59.01227	69.0
243.13673	50.0
329.20798	45.0
314.15515	43.0
201.09319	42.0
287.1752	41.0
244.12874	36.0
213.12735	34.0
245.15343	34.0
215.10336	33.0
203.10483	31.0
285.18063	28.0
267.13568	28.0
286.25162	26.0
254.16771	26.0
229.12109	26.0
259.20865	25.0
224.00346	25.0
255.50117	24.0
313.13885	24.0
199.68614	24.0
202.30315	23.0
192.34186	23.0
286.19528	22.0
373.15073	22.0
204.1165	20.0
271.14883	15.0
151.71411	12.0

MSID: 9043
ID: 366
RETENTIONTIME: 29.7008
PRECURSORMZ: 333.2056
AREA: 1699888.5
PRECURSORTYPE: [M-H]-
SMILES: [H][C@@]12CCC3=CC(C(C)CO)=C(O)C(O)=C3[C@@]1(CO)CCCC2(C)C
NAME: 11,12,16,20-Tetrahydroxy-abieta-8,11,13-triene
FORMULA: C20H30O4
INCHIKEY: JTTFLJVTIPLSHC-ODAYNXLMSA-N
CAS: nan
Molecular Weight: 334.456
Number of References: 1
Class: Abietane diterpenoids
Superclass: Diterpenoids
Pathway: Terpenoids
ppm: -0.9849999999573811
CMID: CM243
IONMODE: Negative
COLLISIONENERGY: 40±20eV
INSTRUMENTTYPE: AB SCIEX
INSTRUMENT: Q-TOF
Comment:  
Num Peaks: 99
333.20743	19252.0
179.10794	10819.0
249.14864	4089.0
315.19595	3908.0
164.08362	1771.0
178.09891	1318.0
297.18497	1078.0
227.18062	700.0
289.18192	500.0
231.13716	432.0
245.19041	426.0
165.08994	336.0
136.05368	255.0
191.10675	224.0
281.15512	218.0
243.17052	177.0
163.07538	136.0
215.10783	128.0
230.13184	115.0
57.03341	95.0
229.1198	94.0
177.09013	90.0
83.05045	86.0
161.09682	84.0
176.08421	76.0
267.13751	73.0
271.1716	68.0
149.06026	57.0
161.13409	55.0
123.07955	55.0
188.08232	54.0
249.1208	49.0
231.12526	47.0
151.11052	46.0
245.15669	45.0
315.1629	44.0
149.09732	42.0
135.0811	41.0
179.0909	39.0
107.05	38.0
161.09184	38.0
249.10844	37.0
191.09998	37.0
150.06984	34.0
201.09334	34.0
282.16751	34.0
303.19623	33.0
241.12398	33.0
164.07108	33.0
202.10139	32.0
295.17102	31.0
137.09511	31.0
133.1012	30.0
211.15065	30.0
297.21533	30.0
315.13684	28.0
214.0979	28.0
225.16299	28.0
289.14694	27.0
227.10388	27.0
332.11972	27.0
315.24985	26.0
299.16849	26.0
148.05168	26.0
216.10287	25.0
185.0887	25.0
287.16214	25.0
218.36601	25.0
155.0945	25.0
100.97836	24.0
243.15219	24.0
131.05293	24.0
229.15833	24.0
189.09363	24.0
105.06731	24.0
111.07821	23.0
109.06452	23.0
187.0724	22.0
135.04468	22.0
289.10367	22.0
216.12303	21.0
136.03883	20.0
227.15405	20.0
203.10359	20.0
159.08092	20.0
259.13318	20.0
272.14001	19.0
191.06749	18.0
171.07967	18.0
219.88811	18.0
201.0864	17.0
261.11057	17.0
257.16171	17.0
259.09219	16.0
178.52258	16.0
261.18338	15.0
265.12143	14.0
279.11127	13.0
105.06631	13.0

MSID: 9044
ID: 399
RETENTIONTIME: 30.55335
PRECURSORMZ: 331.1546
AREA: 1650147.75
PRECURSORTYPE: [M-H]-
SMILES: [H][C@]12C[C@@]3([H])C(C)(C)CCC[C@]3(CO1)C(=C[C@]21OC(=O)C(C)=C1)C(O)=O
NAME: Paramiltioic acid
FORMULA: C19H24O5
INCHIKEY: KFEXQOCBQUOLSU-FTUNRGFVSA-N
CAS: 140396-85-6
Molecular Weight: 332.397
Number of References: 6
Class: Abeoabietane diterpenoids
Superclass: Diterpenoids
Pathway: Terpenoids
ppm: 0.05000000004429239
CMID: CM243
IONMODE: Negative
COLLISIONENERGY: 40±20eV
INSTRUMENTTYPE: AB SCIEX
INSTRUMENT: Q-TOF
Comment:  
Num Peaks: 66
243.1749	18144.0
287.16522	10162.0
331.15109	1164.0
227.14206	300.0
228.1512	211.0
213.13019	197.0
313.14404	140.0
331.18494	110.0
285.14426	88.0
173.09639	79.0
301.17703	74.0
241.15724	56.0
257.07672	51.0
188.12247	49.0
259.16763	48.0
298.12408	46.0
232.06245	46.0
211.11206	43.0
213.12161	40.0
259.09039	38.0
286.14389	34.0
303.14825	34.0
283.13864	32.0
212.12064	32.0
331.20276	31.0
227.13173	30.0
316.11606	30.0
260.09546	29.0
242.38145	29.0
315.1105	29.0
269.10638	29.0
247.09224	28.0
201.08345	25.0
200.46458	25.0
275.08142	25.0
167.0724	25.0
285.10788	24.0
274.08182	24.0
255.09435	24.0
267.13406	23.0
287.12375	23.0
302.14651	23.0
159.59996	23.0
283.12875	23.0
288.09695	22.0
204.07732	21.0
230.09154	21.0
133.06606	21.0
271.08752	21.0
167.834	21.0
242.36316	20.0
301.08868	20.0
241.09184	19.0
301.13287	19.0
231.0551	18.0
260.05756	18.0
243.10771	17.0
244.07211	17.0
176.56389	17.0
175.11082	16.0
162.03397	16.0
297.10538	16.0
195.07727	16.0
314.14471	15.0
227.06827	15.0
131.03712	12.0

MSID: 9045
ID: 457
RETENTIONTIME: 31.1737
PRECURSORMZ: 327.1605
AREA: 1620439.875
PRECURSORTYPE: [M-H]-
SMILES: CC(C)C(=O)CCC1=C(C)C=CC2=C1C(=O)C(O)=C(C(C)C)C2=O
NAME: 3-oxosapriparaquinone
FORMULA: C20H24O4
INCHIKEY: BLNJUMJBWJMCEB-UHFFFAOYSA-N
CAS: 119139-56-9
Molecular Weight: 328.408
Number of References: 4
Class: Abeoabietane diterpenoids
Superclass: Diterpenoids
Pathway: Terpenoids
ppm: 0.8650000000329783
CMID: CM243
IONMODE: Negative
COLLISIONENERGY: 40±20eV
INSTRUMENTTYPE: AB SCIEX
INSTRUMENT: Q-TOF
Comment:  
Num Peaks: 133
327.16055	16870.0
312.13614	14260.0
241.12215	4205.0
297.11197	3333.0
213.09291	769.0
282.08817	742.0
269.11749	720.0
279.10269	626.0
284.14124	543.0
295.13193	542.0
280.10974	512.0
256.11029	472.0
256.14478	384.0
281.12027	337.0
283.1319	336.0
255.13487	306.0
255.10359	293.0
254.05986	288.0
253.08524	267.0
226.06288	258.0
311.12656	255.0
284.10492	229.0
251.10748	210.0
241.08717	204.0
269.08215	189.0
267.06512	187.0
254.09888	174.0
228.07713	173.0
256.07581	170.0
296.10342	157.0
239.03128	145.0
296.13715	144.0
297.1525	144.0
281.08087	137.0
265.08917	128.0
267.10355	127.0
312.1102	119.0
236.08354	115.0
266.0946	112.0
264.07928	110.0
198.06888	97.0
252.07829	93.0
253.12262	92.0
269.09177	86.0
213.05432	86.0
211.04082	85.0
240.0786	84.0
237.09123	84.0
282.12436	80.0
225.05397	79.0
235.07501	79.0
238.10257	78.0
255.12862	75.0
264.06973	71.0
253.05096	71.0
239.07063	67.0
268.07269	64.0
227.11095	63.0
270.08707	62.0
268.11118	61.0
238.06178	61.0
299.16299	58.0
226.10117	56.0
214.06036	55.0
242.09175	55.0
252.11404	54.0
185.06047	52.0
228.11412	52.0
223.11163	50.0
251.07024	50.0
295.09827	48.0
188.08476	47.0
243.06483	46.0
197.05719	46.0
201.09029	44.0
214.09761	43.0
254.05205	42.0
242.05214	41.0
312.0946	40.0
227.07259	39.0
267.13553	39.0
255.06606	38.0
281.15475	37.0
297.08328	36.0
222.06993	36.0
327.13931	35.0
186.06895	34.0
291.19672	34.0
199.0417	33.0
280.08682	32.0
171.09354	32.0
278.09256	31.0
235.11705	31.0
216.07668	31.0
293.1149	30.0
241.15863	29.0
241.0522	29.0
257.086	29.0
210.06462	28.0
213.07719	28.0
241.0446	28.0
327.10919	26.0
209.05811	26.0
215.06877	25.0
220.09406	25.0
209.11758	25.0
211.07497	25.0
208.88681	25.0
200.082	25.0
240.0437	25.0
240.11653	25.0
279.06671	25.0
228.06383	24.0
283.17145	24.0
311.09375	24.0
213.12866	24.0
326.0845	24.0
212.05208	24.0
277.11685	24.0
299.12744	24.0
309.1416	24.0
194.07317	23.0
327.19952	23.0
236.04893	23.0
229.08836	22.0
281.05786	22.0
183.04509	22.0
187.04135	21.0
263.10944	21.0
312.06003	19.0
200.04736	19.0
213.54774	18.0
257.07346	18.0

MSID: 9046
ID: 550
RETENTIONTIME: 32.9821
PRECURSORMZ: 375.1434
AREA: 1617836.0
PRECURSORTYPE: [M-H]-
SMILES: [H][C@@]12[C@@H](OC(=O)[C@@]1(CCCC2(C)C)C1=C(O)C(=O)C(=CC1=O)C(C)C)C(O)=O
NAME: (2-hydroxy-4-isopropyl-3,6-dioxocyclohexa-1,4-dien-1-yl)-7,7-dimethyl-3-oxooctahydroisobenzofuran-1-carboxylic acid
FORMULA: C20H24O7
INCHIKEY: LDNFFZIWXFDZNV-GUXCAODWSA-N
CAS: nan
Molecular Weight: 376.406
Number of References: 1
Class: Abietane diterpenoids
Superclass: Diterpenoids
Pathway: Terpenoids
ppm: -0.9799999999700049
CMID: CM243
IONMODE: Negative
COLLISIONENERGY: 40±20eV
INSTRUMENTTYPE: AB SCIEX
INSTRUMENT: Q-TOF
Comment:  
Num Peaks: 194
375.1449	30855.0
287.09192	8756.0
288.09995	4571.0
245.07956	2895.0
325.10718	2328.0
289.10812	1522.0
299.12726	1014.0
273.07568	856.0
259.09644	717.0
357.1333	603.0
274.08316	588.0
347.14963	393.0
310.08054	383.0
231.06676	379.0
315.12231	333.0
283.09714	327.0
272.06845	305.0
245.06117	292.0
343.11453	288.0
295.05774	288.0
269.08038	279.0
360.12088	250.0
215.10455	250.0
244.07185	223.0
271.09531	204.0
205.05052	192.0
229.04674	192.0
230.05563	188.0
271.13239	187.0
247.05965	180.0
297.11517	175.0
217.0493	166.0
246.05402	136.0
301.10535	136.0
216.11542	131.0
261.11166	130.0
217.12433	125.0
309.07944	125.0
201.09018	123.0
218.05748	117.0
327.08423	117.0
203.03204	115.0
260.10306	111.0
271.06146	111.0
259.05859	105.0
229.12231	104.0
284.10641	103.0
282.09296	101.0
281.11682	98.0
296.10663	91.0
303.15646	89.0
243.06775	80.0
231.101	76.0
282.05185	76.0
256.07254	68.0
243.10439	67.0
246.08936	67.0
258.05084	66.0
302.11215	66.0
317.10196	65.0
359.11435	65.0
307.09418	64.0
285.07779	64.0
231.03104	63.0
214.09607	63.0
215.03131	61.0
244.03667	58.0
315.15884	57.0
326.11792	56.0
200.08466	56.0
298.12375	55.0
256.10858	55.0
232.07414	54.0
332.12622	53.0
266.09766	53.0
373.90546	52.0
269.06754	52.0
288.13153	52.0
189.01921	51.0
254.09248	49.0
227.07098	49.0
202.09961	48.0
216.04201	47.0
219.06511	47.0
300.0629	45.0
251.0701	44.0
267.06656	44.0
172.05418	43.0
375.11264	43.0
313.14197	42.0
213.0542	40.0
229.08527	40.0
260.06833	40.0
177.052	38.0
286.08395	38.0
265.08585	37.0
331.1543	36.0
178.06198	36.0
360.10416	36.0
325.07187	36.0
255.10188	35.0
315.14319	34.0
253.0477	34.0
215.07152	33.0
204.04073	33.0
261.07684	33.0
245.10562	33.0
253.08354	33.0
241.08704	32.0
289.06982	32.0
202.06482	32.0
209.07782	32.0
187.1109	31.0
151.07533	31.0
317.07056	30.0
186.06752	30.0
279.10092	30.0
202.99715	30.0
241.05206	30.0
273.03683	30.0
189.05287	29.0
341.1022	29.0
302.07983	29.0
271.05499	28.0
255.06122	28.0
257.0419	28.0
174.06644	27.0
218.02423	27.0
150.06955	27.0
240.04205	27.0
274.0491	27.0
345.09821	26.0
270.1207	26.0
304.09323	26.0
246.45357	26.0
295.0914	26.0
269.11734	26.0
288.03845	26.0
281.08234	26.0
255.09407	26.0
272.0975	26.0
343.09637	26.0
238.06165	25.0
329.13654	25.0
270.08691	25.0
148.05141	25.0
213.08708	25.0
179.06828	25.0
149.06116	25.0
190.02626	25.0
231.10994	25.0
327.12317	24.0
310.05984	24.0
222.11943	24.0
228.05038	24.0
248.07042	24.0
144.05844	23.0
199.06921	23.0
244.09787	23.0
229.01413	23.0
301.07138	23.0
273.10803	23.0
327.05765	23.0
216.07224	22.0
160.69902	22.0
243.14256	22.0
211.07484	22.0
187.07472	22.0
357.05557	22.0
342.11035	21.0
375.18283	21.0
237.05341	21.0
171.04221	21.0
287.15497	21.0
189.12424	21.0
257.078	20.0
161.05922	20.0
173.05756	20.0
176.05139	20.0
240.07848	20.0
325.0383	20.0
287.02222	20.0
315.08929	19.0
175.07695	19.0
158.03618	19.0
73.03077	19.0
225.04944	18.0
199.96693	18.0
273.01904	17.0
328.09448	17.0
299.05951	16.0
305.56705	16.0
346.00839	13.0
329.88492	13.0

MSID: 9047
ID: 100
RETENTIONTIME: 14.88877
PRECURSORMZ: 607.1672
AREA: 1600515.125
PRECURSORTYPE: [M-H]-
SMILES: COC1=C2OC=C(C(=O)C2=C(O)C=C1O[C@@H]1O[C@@H](C)[C@H](O)[C@@H](O)[C@H]1O)C1=CC=C(O[C@@H]2O[C@H](CO)[C@@H](O)[C@H](O)[C@H]2O)C=C1
NAME: 8-methoxygenistein 7-O-α-L-rhamnoside 4'-O-β-D-glucoside
FORMULA: C28H32O15
INCHIKEY: SVRABECZTWRKCD-HTXKOFPHSA-N
CAS: nan
Molecular Weight: 608.553
Number of References: 1
Class: Isoflavones
Superclass: Isoflavonoids
Pathway: Shikimates and Phenylpropanoids
ppm: 0.9000000000014552
CMID: CM243
IONMODE: Negative
COLLISIONENERGY: 40±20eV
INSTRUMENTTYPE: AB SCIEX
INSTRUMENT: Q-TOF
Comment:  
Num Peaks: 42
299.05554	24558.0
284.0332	7979.0
607.16437	4845.0
256.039	73.0
297.04031	65.0
341.06909	55.0
300.06061	52.0
298.05722	48.0
283.0603	42.0
326.04309	41.0
607.11133	39.0
255.02307	36.0
299.03183	36.0
283.99689	35.0
211.03864	33.0
299.0166	31.0
227.03346	30.0
607.06787	29.0
298.07919	28.0
607.25128	26.0
285.03751	26.0
238.58105	25.0
388.63348	25.0
412.45709	25.0
226.03561	24.0
199.04509	23.0
214.00229	23.0
283.10147	21.0
217.8501	20.0
283.02734	19.0
229.45088	19.0
205.22099	18.0
283.95563	15.0
200.10895	14.0
588.99261	14.0
567.82764	12.0
477.3187	12.0
557.7522	12.0
529.55347	12.0
440.25443	12.0
337.08035	12.0
187.57803	12.0

MSID: 9048
ID: 336
RETENTIONTIME: 28.8522
PRECURSORMZ: 659.3563
AREA: 1590087.125
PRECURSORTYPE: [2M-H]-
SMILES: [H][C@]12CCC=C3C(=O)OC[C@@]13C[C@@H](O)[C@@H](C)[C@]2(C)CCC1=COC=C1
NAME: 1-deoxybacrispine
FORMULA: C20H26O4
INCHIKEY: AQIUXCCPCWXHJS-WNRRLTEBSA-N
CAS: 78499-91-9
Molecular Weight: 330.424
Number of References: 4
Class: Colensane and Clerodane diterpenoids
Superclass: Diterpenoids
Pathway: Terpenoids
ppm: -1.047499999970114
CMID: CM243
IONMODE: Negative
COLLISIONENERGY: 40±20eV
INSTRUMENTTYPE: AB SCIEX
INSTRUMENT: Q-TOF
Comment:  
Num Peaks: 162
329.17648	100503.0
299.16531	12733.0
241.12416	862.0
659.35901	703.0
201.0921	382.0
330.17755	209.0
328.09537	137.0
283.13577	98.0
214.10092	73.0
242.13339	58.0
327.16122	51.0
330.17221	47.0
215.10655	47.0
217.12923	47.0
328.07764	46.0
659.24835	41.0
281.1586	41.0
659.21063	39.0
659.4093	37.0
257.15091	35.0
328.06876	35.0
284.14017	34.0
200.08241	34.0
311.12894	34.0
269.11484	33.0
301.18262	31.0
300.16379	28.0
615.30817	26.0
221.33842	26.0
214.0952	26.0
218.86861	26.0
347.18521	25.0
202.09596	25.0
299.19919	25.0
238.64131	25.0
233.54202	24.0
216.75998	24.0
330.14908	24.0
248.43057	24.0
185.06218	24.0
333.29529	24.0
229.59602	23.0
256.1124	23.0
328.5567	23.0
222.79042	22.0
224.85909	22.0
298.16342	22.0
219.8781	21.0
225.79694	21.0
186.06668	21.0
300.15869	21.0
232.39859	21.0
285.14801	21.0
249.89597	21.0
222.35651	21.0
338.1326	21.0
228.59108	20.0
299.1145	20.0
330.20068	20.0
330.06366	20.0
237.84625	20.0
218.93526	20.0
217.74149	20.0
187.07523	19.0
212.05252	19.0
183.07726	19.0
223.52478	19.0
659.1604	19.0
254.88364	18.0
247.48685	18.0
267.13611	18.0
223.83528	18.0
297.15311	18.0
362.42242	17.0
209.46368	17.0
182.46693	17.0
265.93863	15.0
259.16806	15.0
145.35461	14.0
597.22461	14.0
657.15808	14.0
506.33832	14.0
168.98817	13.0
326.30273	13.0
147.01816	13.0
151.07573	13.0
163.19557	13.0
162.3772	13.0
153.57877	13.0
196.35852	13.0
334.45837	13.0
337.11777	13.0
141.6792	13.0
143.53273	13.0
467.00235	13.0
460.7572	13.0
457.86096	13.0
444.17279	13.0
420.09891	13.0
403.02853	13.0
403.0069	13.0
389.15833	13.0
320.7789	13.0
369.55637	13.0
351.03677	13.0
348.88239	13.0
347.53564	13.0
344.74445	13.0
342.11124	13.0
324.35098	13.0
294.85837	13.0
317.16733	13.0
189.2298	13.0
252.24986	13.0
250.48457	13.0
315.04666	13.0
245.46669	13.0
243.56941	13.0
242.4901	13.0
239.10294	13.0
235.19862	13.0
190.92146	13.0
262.07535	13.0
212.48196	13.0
210.72697	13.0
207.49547	13.0
205.61237	13.0
204.18257	13.0
202.10851	13.0
192.36252	13.0
194.53358	13.0
260.26172	13.0
133.92278	13.0
263.04962	13.0
289.95535	13.0
312.50021	13.0
171.09517	13.0
308.79797	13.0
307.66498	13.0
304.04282	13.0
303.07541	13.0
136.32692	13.0
198.06653	13.0
291.04526	13.0
175.02687	13.0
179.03075	13.0
180.54338	13.0
270.9332	13.0
271.81885	13.0
279.6123	13.0
273.50217	13.0
276.17438	13.0
650.29767	12.0
138.46077	12.0
380.77545	12.0
610.78381	12.0
435.14438	12.0
585.33771	12.0
573.02393	12.0
536.58221	12.0
524.90063	12.0
373.49942	12.0

MSID: 9049
ID: 459
RETENTIONTIME: 31.30403
PRECURSORMZ: 345.1693
AREA: 1571235.75
PRECURSORTYPE: [M-H]-
SMILES: [H][C@]12CCC=C3C(=O)OC[C@@]13C[C@@H](O)[C@@H](C)[C@]2(C)C[C@@H](O)C1=COC=C1
NAME: 7α,12α-dihydroxyhautriwaic acid 19-lactone
FORMULA: C20H26O5
INCHIKEY: DIROQTBWRVNDKN-LTIDKFJVSA-N
CAS: nan
Molecular Weight: 346.423
Number of References: 1
Class: Colensane and Clerodane diterpenoids
Superclass: Diterpenoids
Pathway: Terpenoids
ppm: -0.8999999999446118
CMID: CM243
IONMODE: Negative
COLLISIONENERGY: 40±20eV
INSTRUMENTTYPE: AB SCIEX
INSTRUMENT: Q-TOF
Comment:  
Num Peaks: 157
345.17114	18985.0
206.05728	6646.0
327.15875	4376.0
178.06207	3569.0
232.07425	1347.0
217.04939	1033.0
219.06665	969.0
301.18027	947.0
207.06642	876.0
191.03473	843.0
179.07098	415.0
204.04362	380.0
312.13785	353.0
204.0786	331.0
189.05565	311.0
163.03888	275.0
283.16977	268.0
151.07541	214.0
135.04335	200.0
299.16296	182.0
97.06493	159.0
231.06538	157.0
177.0182	157.0
218.05904	152.0
161.06178	148.0
176.04758	139.0
302.11401	135.0
273.18585	134.0
271.09381	132.0
166.06375	130.0
317.17188	128.0
203.10889	120.0
163.0764	110.0
165.05573	108.0
247.09517	105.0
258.12332	101.0
191.07127	98.0
205.04782	97.0
243.10451	96.0
219.10434	94.0
203.03352	87.0
313.17679	84.0
190.06281	77.0
301.14117	75.0
284.1412	74.0
246.08946	72.0
284.10159	72.0
271.16638	70.0
283.13022	70.0
149.06123	70.0
227.10503	69.0
192.07835	68.0
327.18887	65.0
204.03523	65.0
187.03732	64.0
255.17552	64.0
147.04396	62.0
218.09518	60.0
285.14407	59.0
281.15308	58.0
150.06842	58.0
177.05469	58.0
233.08382	57.0
269.11584	56.0
167.07104	55.0
151.03809	54.0
216.0421	53.0
203.06841	50.0
230.09436	49.0
245.07814	48.0
207.04951	47.0
137.05937	46.0
297.11365	44.0
219.04782	44.0
248.10446	43.0
136.05121	43.0
312.12225	43.0
137.09721	42.0
240.11197	41.0
176.08656	39.0
191.11053	39.0
289.18152	38.0
219.09854	38.0
245.15787	38.0
217.03064	38.0
201.08888	38.0
235.05997	38.0
289.14655	37.0
345.13474	37.0
257.15192	37.0
297.1474	36.0
175.03815	36.0
271.12769	36.0
267.13873	36.0
268.10794	35.0
214.09903	35.0
202.02454	35.0
174.03293	35.0
311.13	34.0
300.16821	34.0
309.14847	33.0
190.02501	33.0
266.09137	33.0
256.1087	32.0
205.08287	32.0
284.13791	30.0
274.12057	30.0
327.10916	29.0
243.14114	29.0
164.01189	29.0
255.14111	29.0
220.11438	27.0
330.14835	27.0
258.09027	27.0
230.12704	27.0
206.02354	27.0
299.13419	26.0
261.14978	26.0
251.69904	26.0
315.16074	26.0
301.21426	26.0
230.05278	25.0
228.11853	25.0
162.67897	25.0
301.13437	25.0
317.1492	24.0
180.07881	24.0
173.02672	24.0
269.10461	24.0
267.09869	24.0
213.08861	23.0
294.12671	23.0
293.11487	23.0
270.13049	23.0
241.12364	23.0
285.13416	23.0
215.06444	22.0
325.63196	22.0
216.07521	22.0
185.09642	21.0
235.77367	21.0
296.14047	21.0
326.14993	20.0
149.05167	20.0
229.04684	20.0
259.09811	20.0
259.17221	20.0
257.10483	20.0
177.01169	19.0
135.02856	19.0
192.0417	19.0
158.03748	19.0
231.05347	18.0
234.24692	17.0
150.01685	17.0
230.32913	17.0
108.02066	13.0

MSID: 9050
ID: 194
RETENTIONTIME: 22.31225
PRECURSORMZ: 313.0714
AREA: 1570939.5
PRECURSORTYPE: [M-H]-
SMILES: COC1=CC2=C(C(=O)C=C(O2)C2=CC=C(O)C=C2)C(O)=C1OC
NAME: salvigenin
FORMULA: C17H14O6
INCHIKEY: ZIIAJIWLQUVGHB-UHFFFAOYSA-N
CAS: 6601-62-3
Molecular Weight: 314.295
Number of References: 742
Class: Flavones
Superclass: Flavonoids
Pathway: Shikimates and Phenylpropanoids
ppm: 0.18499999998766725
CMID: CM243
IONMODE: Negative
COLLISIONENERGY: 40±20eV
INSTRUMENTTYPE: AB SCIEX
INSTRUMENT: Q-TOF
Comment:  
Num Peaks: 48
161.0247	16060.0
133.02887	7631.0
132.02104	1173.0
151.04068	666.0
150.03143	396.0
123.04585	388.0
105.03417	222.0
77.03947	110.0
313.07147	101.0
115.02005	80.0
159.04506	78.0
135.04466	77.0
122.03553	73.0
132.01428	68.0
149.02316	66.0
104.02596	65.0
109.02871	64.0
163.03909	59.0
269.08246	58.0
160.01724	57.0
108.0208	42.0
134.036	42.0
103.01466	40.0
121.02722	34.0
150.02303	34.0
160.99736	34.0
93.03254	34.0
89.04029	34.0
313.06625	30.0
132.00417	28.0
81.03433	26.0
65.00456	25.0
160.50941	25.0
131.01591	24.0
108.02589	24.0
95.04669	23.0
68.99675	22.0
77.03517	20.0
135.0367	18.0
117.0337	18.0
107.05099	18.0
149.01718	18.0
182.07411	18.0
117.03688	13.0
267.06223	13.0
95.78516	12.0
174.67709	12.0
61.32597	12.0

MSID: 9051
ID: 320
RETENTIONTIME: 28.51943
PRECURSORMZ: 691.3462
AREA: 1568038.0
PRECURSORTYPE: [2M-H]-
SMILES: [H][C@@]12[C@@H](O)C(=O)C3=C(C(=O)C(O)=C(C(C)C)C3=O)[C@@]1(C)CCCC2(C)C
NAME: 6α-hydroxy-7-oxoroyleanone
FORMULA: C20H26O5
INCHIKEY: XPEAYNVADSDYGP-CMKODMSKSA-N
CAS: nan
Molecular Weight: 346.423
Number of References: 1
Class: Abeoabietane diterpenoids
Superclass: Diterpenoids
Pathway: Terpenoids
ppm: -1.012500000001637
CMID: CM243
IONMODE: Negative
COLLISIONENERGY: 40±20eV
INSTRUMENTTYPE: AB SCIEX
INSTRUMENT: Q-TOF
Comment:  
Num Peaks: 230
345.16983	144710.0
283.16855	7538.0
227.10686	399.0
691.35071	331.0
346.17487	294.0
301.18073	196.0
268.14362	195.0
283.15207	173.0
267.13754	166.0
344.03006	120.0
273.18628	105.0
253.12454	99.0
212.08376	82.0
214.09793	66.0
240.11234	62.0
346.16394	59.0
344.01913	58.0
283.14877	57.0
239.10733	49.0
299.16174	47.0
317.1741	44.0
201.08919	42.0
344.15903	42.0
691.29663	39.0
228.93011	37.0
282.16095	36.0
265.16132	32.0
232.84651	30.0
229.90907	30.0
347.14667	29.0
239.43451	29.0
213.08894	29.0
230.18533	27.0
344.00281	27.0
284.173	27.0
226.209	27.0
249.50586	26.0
226.49483	26.0
233.02437	26.0
255.13681	26.0
288.63101	26.0
343.14786	26.0
257.04083	26.0
252.8582	26.0
691.25806	26.0
226.06027	25.0
258.12686	25.0
263.6279	25.0
271.17001	25.0
204.91914	25.0
232.24768	25.0
230.92732	24.0
230.117	24.0
172.04939	24.0
227.07291	24.0
345.89069	24.0
274.66116	24.0
264.35028	24.0
193.19997	24.0
225.78061	24.0
258.34088	24.0
256.87131	24.0
300.99722	24.0
226.09854	23.0
328.61331	23.0
225.08807	23.0
345.79416	23.0
240.25499	23.0
240.81694	23.0
344.12994	23.0
229.81108	23.0
285.63751	23.0
234.00154	22.0
347.18683	22.0
239.61638	22.0
255.17435	22.0
283.12408	22.0
231.17143	22.0
228.71089	22.0
344.08273	22.0
265.11984	21.0
215.10643	21.0
228.33635	21.0
237.18205	21.0
238.34474	21.0
227.20427	21.0
232.90031	21.0
222.20306	21.0
221.59915	21.0
293.65543	20.0
245.5632	20.0
232.34172	20.0
221.09358	20.0
281.15515	20.0
227.17474	20.0
233.17088	20.0
242.12715	20.0
234.77815	19.0
567.20844	19.0
283.25262	18.0
285.14783	18.0
191.0797	18.0
202.09863	18.0
224.08574	18.0
192.35561	17.0
232.47757	17.0
259.13635	17.0
222.99788	16.0
239.9682	16.0
228.43846	16.0
316.03625	16.0
344.8588	15.0
487.24695	14.0
507.5242	14.0
318.77362	14.0
529.23035	14.0
531.34784	14.0
629.29559	14.0
691.16278	14.0
479.13815	14.0
673.3324	14.0
336.1994	13.0
354.57181	13.0
337.24701	13.0
351.95084	13.0
334.81464	13.0
331.36884	13.0
329.14963	13.0
145.97385	13.0
326.44937	13.0
324.23438	13.0
320.16162	13.0
155.89925	13.0
333.40057	13.0
154.63753	13.0
314.1398	13.0
153.31787	13.0
378.78665	13.0
352.69528	13.0
350.46432	13.0
379.11646	13.0
382.82452	13.0
374.79672	13.0
147.96115	13.0
149.12604	13.0
386.58917	13.0
373.66956	13.0
390.3819	13.0
362.61981	13.0
151.05759	13.0
152.08356	13.0
361.15744	13.0
360.16061	13.0
396.30161	13.0
425.88699	13.0
433.64804	13.0
357.49683	13.0
279.73169	13.0
312.97974	13.0
219.80391	13.0
255.51862	13.0
253.97281	13.0
176.21811	13.0
251.63107	13.0
311.10284	13.0
246.37411	13.0
243.8215	13.0
177.24396	13.0
179.02409	13.0
235.31262	13.0
183.02679	13.0
184.0417	13.0
219.01047	13.0
261.09479	13.0
216.4615	13.0
186.5705	13.0
188.18175	13.0
210.04504	13.0
208.93948	13.0
203.10501	13.0
189.58817	13.0
199.29489	13.0
198.2718	13.0
196.03194	13.0
194.53346	13.0
193.2939	13.0
259.5022	13.0
249.99489	13.0
309.19888	13.0
159.56546	13.0
294.63626	13.0
299.67856	13.0
290.82294	13.0
265.28888	13.0
305.77481	13.0
302.05319	13.0
307.30591	13.0
289.6701	13.0
308.452	13.0
157.60469	13.0
287.83133	13.0
161.92943	13.0
162.77541	13.0
165.59993	13.0
168.67888	13.0
278.37228	13.0
276.73105	13.0
275.09467	13.0
170.06802	13.0
271.50394	13.0
270.2114	13.0
269.18054	13.0
171.04256	13.0
297.18161	13.0
127.4249	12.0
645.32977	12.0
668.12317	12.0
683.67078	12.0
624.06903	12.0
466.91104	12.0
564.56909	12.0
555.2771	12.0
525.55115	12.0
484.18875	12.0
451.08423	12.0
338.89273	12.0
429.07794	12.0
412.32117	12.0
408.84866	12.0
95.01617	12.0

MSID: 9052
ID: 208
RETENTIONTIME: 22.93662
PRECURSORMZ: 403.1753
AREA: 1560748.875
PRECURSORTYPE: [M-H]-
SMILES: [H][C@]12CCC=C3C(=O)OC[C@@]13C[C@@H](OC(C)=O)[C@@H](C)[C@]2(C)CC(O)C1=CC(=O)OC1
NAME: kerlinolide
FORMULA: C22H28O7
INCHIKEY: SMXXBHJKHDZDPS-AGPSUIFSSA-N
CAS: nan
Molecular Weight: 404.46
Number of References: 1
Class: Colensane and Clerodane diterpenoids
Superclass: Diterpenoids
Pathway: Terpenoids
ppm: -0.38000000000693035
CMID: CM243
IONMODE: Negative
COLLISIONENERGY: 40±20eV
INSTRUMENTTYPE: AB SCIEX
INSTRUMENT: Q-TOF
Comment:  
Num Peaks: 127
343.15509	12791.0
403.17572	4534.0
315.16119	2291.0
297.14951	1409.0
325.14313	1071.0
281.11902	541.0
229.08719	514.0
59.01307	495.0
231.10294	419.0
271.1329	365.0
257.08163	260.0
259.09692	240.0
230.09619	228.0
272.10449	227.0
361.16299	194.0
309.11102	192.0
216.07697	185.0
331.15494	174.0
282.12476	172.0
287.16714	159.0
254.09299	139.0
188.04608	138.0
300.13644	122.0
267.10229	104.0
328.12885	103.0
253.12453	102.0
215.10641	98.0
299.12955	92.0
228.07893	90.0
215.07195	89.0
257.11462	88.0
214.06352	88.0
258.08908	87.0
285.11307	78.0
283.129	72.0
279.13419	71.0
239.07248	71.0
255.13835	71.0
217.08434	71.0
311.12872	70.0
327.12204	64.0
265.12302	61.0
190.06578	60.0
273.1474	59.0
218.05934	59.0
253.08714	57.0
269.15158	57.0
187.04027	57.0
242.09209	55.0
245.0831	54.0
200.08504	52.0
255.10081	51.0
281.15347	50.0
299.16681	50.0
310.11905	50.0
244.11211	48.0
271.17001	48.0
241.08446	46.0
257.07379	45.0
164.08237	45.0
296.14258	44.0
213.09178	44.0
243.09875	43.0
325.10956	42.0
315.11774	42.0
256.10907	42.0
213.05461	41.0
214.09792	41.0
238.06059	41.0
295.10205	40.0
297.11575	40.0
201.09056	40.0
268.11313	38.0
229.10498	37.0
403.15604	35.0
216.03523	35.0
229.07089	33.0
178.06102	30.0
151.07562	30.0
280.10687	30.0
254.12889	30.0
225.05721	29.0
185.09537	28.0
243.06058	28.0
309.08005	28.0
227.07289	27.0
283.09933	27.0
173.02312	27.0
281.07959	26.0
241.11183	26.0
219.06409	26.0
325.09366	26.0
271.09583	25.0
240.08044	25.0
313.1391	25.0
238.09685	25.0
235.11436	25.0
237.12473	25.0
186.06921	25.0
282.09842	25.0
403.13245	25.0
208.99185	24.0
267.09589	24.0
307.13937	23.0
244.06926	23.0
270.12607	23.0
254.07425	23.0
285.1015	23.0
229.03976	22.0
324.86066	22.0
232.07011	22.0
150.06865	22.0
342.01862	22.0
269.11945	21.0
172.04938	21.0
253.04196	21.0
206.05899	21.0
174.03577	20.0
215.03317	20.0
272.08188	20.0
361.14624	20.0
301.13483	20.0
195.08427	20.0
196.05249	20.0
323.12793	19.0
156.8949	19.0
297.082	18.0

MSID: 9053
ID: 492
RETENTIONTIME: 31.8221
PRECURSORMZ: 455.3157
AREA: 1545066.375
PRECURSORTYPE: [M-H]-
SMILES: [H][C@@]12CC[C@]3(C)[C@]([H])(CC=C4[C@]5([H])CC(C)(C)CC[C@@]5(CC[C@@]34C)C(O)=O)[C@@]1(C)C[C@@H](O)[C@@H](O)C2=C
NAME: 2α,3α-dihydroxy-24-nor-4(23)-oleandien-28-oic acid
FORMULA: C29H44O4
INCHIKEY: DJEZYUIBCFEXFX-BMTHBCBRSA-N
CAS: nan
Molecular Weight: 456.666
Number of References: 3
Class: Oleanane triterpenoids
Superclass: Triterpenoids
Pathway: Terpenoids
ppm: -0.43499999998175554
CMID: CM243
IONMODE: Negative
COLLISIONENERGY: 40±20eV
INSTRUMENTTYPE: AB SCIEX
INSTRUMENT: Q-TOF
Comment:  
Num Peaks: 146
455.3175	28464.0
391.29886	235.0
409.30945	216.0
379.30264	89.0
411.24936	83.0
322.72614	76.0
407.28915	73.0
375.27585	71.0
61.98712	69.0
296.08478	68.0
395.18463	67.0
363.26654	63.0
59.01368	57.0
389.28683	52.0
300.00867	51.0
387.17981	51.0
330.18207	51.0
299.34921	47.0
453.77878	47.0
321.25711	47.0
145.02972	45.0
171.10368	43.0
300.52792	43.0
411.22156	41.0
327.15512	39.0
189.12424	39.0
298.26584	39.0
331.74805	38.0
367.23044	38.0
303.93109	37.0
213.09424	37.0
377.28561	37.0
325.99951	36.0
313.8165	36.0
391.26981	35.0
277.21945	34.0
318.00247	34.0
320.06995	33.0
297.00552	33.0
297.3938	32.0
299.16965	31.0
380.15948	30.0
425.26807	30.0
391.233	30.0
409.34711	29.0
311.49792	29.0
285.18698	29.0
323.16083	29.0
71.04762	29.0
85.03063	28.0
375.2493	28.0
314.59763	28.0
301.89099	28.0
171.09856	28.0
409.23615	27.0
175.11192	27.0
310.18576	27.0
305.41647	26.0
411.18384	26.0
325.20258	26.0
334.37875	25.0
395.14572	25.0
283.16473	25.0
298.74637	25.0
309.20175	25.0
255.17543	25.0
301.20566	25.0
393.19955	23.0
320.54666	23.0
311.12817	23.0
325.33328	22.0
380.16711	22.0
350.15213	22.0
293.11478	22.0
271.16147	21.0
393.31024	21.0
354.01453	21.0
341.13483	21.0
287.1716	21.0
100.93091	20.0
363.28146	20.0
393.27917	20.0
303.49078	20.0
283.09717	20.0
187.07607	19.0
357.25739	19.0
365.82245	19.0
321.37299	19.0
419.24731	19.0
296.62759	19.0
339.23111	19.0
428.45468	18.0
337.10974	17.0
361.24985	17.0
226.09665	17.0
299.129	17.0
201.08742	17.0
295.28156	17.0
284.17084	17.0
316.60522	17.0
437.29089	17.0
265.17834	17.0
242.13126	16.0
300.83698	16.0
316.07401	16.0
301.67154	16.0
309.14838	15.0
294.12326	15.0
324.8548	15.0
227.14774	14.0
328.05908	14.0
387.18945	14.0
177.12889	14.0
101.05196	13.0
440.11731	13.0
397.20792	13.0
412.62872	13.0
421.84393	13.0
424.22668	13.0
243.17618	13.0
163.0363	13.0
108.01958	13.0
145.06393	13.0
257.19424	13.0
263.24435	13.0
229.11493	13.0
209.66728	13.0
251.19427	13.0
161.08282	13.0
344.16931	13.0
345.25656	13.0
114.66932	13.0
351.23593	13.0
135.89583	13.0
373.25443	13.0
376.20218	13.0
122.07209	13.0
378.47537	13.0
118.99302	13.0
383.18991	13.0
84.0097	12.0
80.84035	12.0
124.0143	12.0
192.1122	12.0
63.99068	12.0
57.04215	12.0

MSID: 9054
ID: 602
RETENTIONTIME: 35.41128
PRECURSORMZ: 343.1542
AREA: 1544939.25
PRECURSORTYPE: [M-H]-
SMILES: [H][C@@]12C(=O)[C@@H]3OC(=O)[C@@]1(CCCC2(C)C)C1=C3C=C(C(C)C)C(O)=C1O
NAME: isogaldosol
FORMULA: C20H24O5
INCHIKEY: LGMZDFRDZKIULZ-UWVAXJGDSA-N
CAS: 142570-05-6
Molecular Weight: 344.408
Number of References: 3
Class: Abietane diterpenoids
Superclass: Diterpenoids
Pathway: Terpenoids
ppm: -0.34999999996898623
CMID: CM243
IONMODE: Negative
COLLISIONENERGY: 40±20eV
INSTRUMENTTYPE: AB SCIEX
INSTRUMENT: Q-TOF
Comment:  
Num Peaks: 129
343.15424	10137.0
315.15863	9360.0
287.16473	3857.0
299.16434	763.0
271.13223	449.0
269.15411	445.0
215.07283	370.0
201.05396	359.0
216.0793	315.0
229.08661	303.0
244.07324	291.0
259.16879	286.0
243.0676	244.0
243.1012	240.0
231.10236	231.0
187.03845	172.0
231.06514	171.0
230.09412	146.0
272.13934	143.0
325.14227	138.0
257.11868	135.0
254.13136	134.0
203.07098	132.0
188.04828	128.0
219.06497	115.0
297.14877	114.0
257.08414	98.0
179.0721	97.0
243.13783	96.0
188.08455	92.0
244.10995	92.0
285.15039	91.0
283.13321	88.0
191.06972	82.0
201.08867	81.0
213.09267	79.0
218.06024	70.0
229.05104	68.0
284.14255	65.0
256.10843	65.0
269.11557	60.0
217.08667	58.0
214.10023	57.0
178.06319	56.0
173.06133	55.0
255.1424	55.0
315.13083	54.0
216.11241	54.0
204.07698	54.0
190.06261	52.0
258.08685	52.0
200.04575	50.0
287.19296	50.0
282.12402	50.0
253.127	49.0
281.12158	49.0
299.13217	48.0
200.08453	48.0
241.08688	47.0
215.10587	47.0
228.07983	46.0
187.07327	46.0
203.11006	46.0
243.17601	43.0
271.16931	42.0
255.1033	41.0
253.0491	41.0
175.07684	40.0
259.0947	38.0
216.04619	38.0
243.05234	38.0
299.11691	37.0
213.0555	35.0
282.08621	35.0
214.06154	34.0
253.15817	34.0
175.03796	33.0
281.0871	32.0
267.10641	32.0
160.05281	32.0
227.06937	32.0
244.09007	32.0
231.05917	32.0
272.10864	31.0
201.03729	31.0
343.19595	31.0
240.07983	30.0
198.06726	30.0
265.12234	30.0
313.14178	29.0
230.06145	28.0
227.03838	28.0
231.08896	27.0
161.06161	27.0
228.04138	26.0
268.07397	25.0
325.11581	25.0
229.12515	25.0
197.05696	25.0
229.03325	25.0
149.06346	25.0
163.03996	25.0
217.05205	24.0
148.01796	24.0
185.06026	24.0
164.04683	23.0
216.02892	23.0
210.91541	22.0
328.1351	22.0
119.08485	22.0
174.03015	22.0
150.06947	22.0
157.06503	22.0
171.07925	21.0
165.08952	21.0
252.11375	21.0
251.14442	21.0
232.07399	20.0
179.05769	20.0
159.04346	20.0
242.06099	20.0
266.12943	19.0
177.09099	19.0
173.02525	19.0
200.00836	19.0
203.09889	19.0
175.76814	18.0
298.15231	17.0
81.89149	12.0

MSID: 9055
ID: 223
RETENTIONTIME: 24.43372
PRECURSORMZ: 779.3995
AREA: 1537965.75
PRECURSORTYPE: [2M-H]-
SMILES: [H][C@@]12[C@]3(OC)OC(=O)[C@@]1(CCCC2(C)C)C1=C(O)C(O)=C(C=C1[C@H]3OC)C(C)C
NAME: 6,7-dimethoxy-7-epi-rosmanol
FORMULA: C22H30O6
INCHIKEY: MCHRWEBHSKWYBW-JZZBYWGLSA-N
CAS: nan
Molecular Weight: 390.477
Number of References: 1
Class: Abietane diterpenoids
Superclass: Diterpenoids
Pathway: Terpenoids
ppm: -0.5775000000198816
CMID: CM243
IONMODE: Negative
COLLISIONENERGY: 40±20eV
INSTRUMENTTYPE: AB SCIEX
INSTRUMENT: Q-TOF
Comment:  
Num Peaks: 132
389.19659	51033.0
329.17618	11599.0
281.15341	4463.0
347.18304	1387.0
779.40155	1055.0
299.16501	456.0
59.01381	255.0
390.19989	137.0
265.12134	83.0
329.1442	78.0
779.37152	58.0
281.12384	45.0
387.93222	40.0
347.15204	36.0
779.35236	35.0
387.90906	35.0
329.13174	32.0
213.08743	31.0
330.17545	27.0
215.65822	26.0
285.04684	26.0
779.2157	26.0
274.10468	26.0
227.931	25.0
389.1734	25.0
258.33606	24.0
341.17148	23.0
259.34912	23.0
264.20529	22.0
287.94254	22.0
283.74881	21.0
328.09503	21.0
269.82349	20.0
276.10574	20.0
216.42972	20.0
212.08511	20.0
317.17224	20.0
256.25006	20.0
387.88785	19.0
173.90009	18.0
279.04248	17.0
315.87949	16.0
330.6507	15.0
507.94107	14.0
516.06873	14.0
501.60248	14.0
254.06325	14.0
528.15387	14.0
542.88812	14.0
733.2149	14.0
171.12959	13.0
338.54117	13.0
327.44971	13.0
331.9733	13.0
439.19598	13.0
419.13965	13.0
335.05826	13.0
309.75867	13.0
412.42841	13.0
396.22739	13.0
346.03262	13.0
394.56638	13.0
392.54404	13.0
391.09412	13.0
351.32086	13.0
149.29344	13.0
359.16135	13.0
363.3212	13.0
387.04742	13.0
378.314	13.0
364.08878	13.0
366.42633	13.0
374.41373	13.0
311.15454	13.0
183.18311	13.0
306.76871	13.0
251.24432	13.0
248.38403	13.0
305.27832	13.0
242.60118	13.0
240.43709	13.0
238.55637	13.0
237.07339	13.0
232.69255	13.0
231.8165	13.0
230.09166	13.0
224.60342	13.0
223.12065	13.0
221.54076	13.0
219.85756	13.0
218.19379	13.0
214.57669	13.0
200.2554	13.0
196.28972	13.0
193.36871	13.0
192.46965	13.0
191.21773	13.0
187.9668	13.0
250.07068	13.0
247.58368	13.0
293.78455	13.0
280.22809	13.0
187.08174	13.0
299.95145	13.0
291.78888	13.0
252.58879	13.0
289.96008	13.0
286.09106	13.0
281.56406	13.0
298.04309	13.0
181.08705	13.0
276.2327	13.0
271.84763	13.0
301.89993	13.0
270.18393	13.0
267.89502	13.0
265.8761	13.0
262.81912	13.0
260.59964	13.0
295.77692	13.0
321.20844	12.0
751.31146	12.0
719.49634	12.0
379.4119	12.0
538.7934	12.0
525.25018	12.0
206.54561	12.0
513.24286	12.0
125.60194	12.0
461.04688	12.0
162.62421	12.0
499.23441	12.0

MSID: 9056
ID: 56
RETENTIONTIME: 12.69322
PRECURSORMZ: 521.129
AREA: 1534707.875
PRECURSORTYPE: [M-H]-
SMILES: OC[C@H]1O[C@@H](OC2=C(O)C=CC(\C=C\C(=O)O[C@H](CC3=CC=C(O)C(O)=C3)C(O)=O)=C2)[C@H](O)[C@@H](O)[C@@H]1O
NAME: salviaflaside
FORMULA: C24H26O13
INCHIKEY: DSMWJDJWYGMEBO-PRFRQLEPSA-N
CAS: nan
Molecular Weight: 522.463
Number of References: 16
Class: Cinnamic acids and derivatives
Superclass: Phenylpropanoids (C6-C3)
Pathway: Shikimates and Phenylpropanoids
ppm: -0.5199999999376814
CMID: CM243
IONMODE: Negative
COLLISIONENERGY: 40±20eV
INSTRUMENTTYPE: AB SCIEX
INSTRUMENT: Q-TOF
Comment:  
Num Peaks: 52
161.0247	14856.0
323.07681	6593.0
359.07785	6544.0
179.03452	3263.0
521.12878	2149.0
197.04504	1985.0
135.04466	1739.0
133.02887	868.0
341.08649	698.0
72.99323	492.0
160.01601	299.0
132.02216	149.0
134.036	102.0
123.04585	96.0
135.03555	82.0
323.03986	54.0
117.03582	54.0
223.02707	50.0
134.03374	46.0
341.06662	41.0
297.10049	39.0
109.02871	38.0
359.01477	37.0
175.03838	35.0
160.49701	35.0
197.01756	29.0
133.0108	29.0
323.01346	28.0
477.13803	27.0
521.06842	27.0
521.20258	25.0
177.05621	25.0
359.12424	23.0
105.03116	23.0
99.07635	23.0
174.03055	22.0
118.43095	21.0
191.03632	21.0
315.08289	21.0
135.01735	21.0
163.03909	20.0
151.03947	20.0
107.05099	20.0
358.99249	17.0
285.07498	16.0
232.57605	15.0
520.20593	14.0
461.10788	13.0
153.03906	13.0
261.1311	13.0
293.42548	13.0
157.69809	12.0

MSID: 9057
ID: 254
RETENTIONTIME: 26.15105
PRECURSORMZ: 313.0718
AREA: 1529746.0
PRECURSORTYPE: [M-H]-
SMILES: COC1=CC=C(C=C1)C1=CC(=O)C2=C(O)C(OC)=C(O)C=C2O1
NAME: pectolinarigenin
FORMULA: C17H14O6
INCHIKEY: GPQLHGCIAUEJQK-UHFFFAOYSA-N
CAS: 520-12-7
Molecular Weight: 314.295
Number of References: 167
Class: Flavones
Superclass: Flavonoids
Pathway: Shikimates and Phenylpropanoids
ppm: 0.5850000000009459
CMID: CM243
IONMODE: Negative
COLLISIONENERGY: 40±20eV
INSTRUMENTTYPE: AB SCIEX
INSTRUMENT: Q-TOF
Comment:  
Num Peaks: 102
283.0253	7294.0
298.04669	2349.0
313.07166	1647.0
255.02898	1267.0
297.03824	950.0
163.00293	770.0
117.03378	628.0
227.03462	486.0
183.04541	468.0
313.1427	447.0
135.00946	435.0
164.98181	365.0
269.04245	294.0
65.00302	192.0
159.04517	170.0
211.03835	162.0
136.98856	143.0
185.0235	136.0
151.00348	131.0
280.10861	119.0
281.1142	112.0
255.01959	108.0
270.08914	96.0
187.04034	92.0
282.99731	87.0
195.04332	86.0
178.99794	74.0
182.0359	68.0
149.99434	68.0
107.0146	62.0
239.03018	60.0
298.12445	56.0
63.02319	56.0
91.01759	55.0
67.0183	54.0
169.02759	53.0
251.035	53.0
143.04855	51.0
171.04645	51.0
155.04945	51.0
297.02136	50.0
199.04066	47.0
177.02115	46.0
267.02719	44.0
265.08487	43.0
269.11475	42.0
95.0143	42.0
281.04031	42.0
210.02951	40.0
225.0529	40.0
285.14957	37.0
224.08289	35.0
270.12616	35.0
117.02847	34.0
255.10405	33.0
123.01225	33.0
177.98923	33.0
79.01867	33.0
268.03467	31.0
282.98743	31.0
283.09616	30.0
96.99277	29.0
149.02325	29.0
197.0603	29.0
167.04604	29.0
313.11844	29.0
121.99883	29.0
270.07468	28.0
282.9726	26.0
269.01999	26.0
313.16696	26.0
136.01949	25.0
192.00543	25.0
213.01611	25.0
253.04985	25.0
181.02657	25.0
145.03127	25.0
313.03528	25.0
257.1163	24.0
120.99068	24.0
161.02232	24.0
119.04994	24.0
241.08607	23.0
176.98337	23.0
223.03745	23.0
141.03415	22.0
165.98834	22.0
209.78973	22.0
134.99353	22.0
209.02591	21.0
119.01255	21.0
279.09503	20.0
252.04608	20.0
295.01807	18.0
235.07542	18.0
148.01482	18.0
162.97043	17.0
251.01793	13.0
239.02716	13.0
63.0193	13.0
275.63101	12.0
77.04124	12.0

MSID: 9058
ID: 343
RETENTIONTIME: 29.10695
PRECURSORMZ: 359.1504
AREA: 1509944.875
PRECURSORTYPE: [M-H]-
SMILES: [H][C@@]12CC(=O)C3=C(C[C@@]11CCC[C@@]2(C)C(=O)O1)C(O)=C(O)C(C(C)C)=C3O
NAME: 6,7,11,14-tetrahydro-7-oxoicetexone
FORMULA: C20H24O6
INCHIKEY: MENXOAAQJIIUMB-KNMUDHKVSA-N
CAS: nan
Molecular Weight: 360.407
Number of References: 1
Class: Icetexane diterpenoids
Superclass: Diterpenoids
Pathway: Terpenoids
ppm: 0.9350000000267755
CMID: CM243
IONMODE: Negative
COLLISIONENERGY: 40±20eV
INSTRUMENTTYPE: AB SCIEX
INSTRUMENT: Q-TOF
Comment:  
Num Peaks: 131
287.16385	10300.0
259.16949	8590.0
269.15485	7168.0
359.1485	6548.0
315.15948	2995.0
201.05588	695.0
191.07159	614.0
254.13049	590.0
203.10782	409.0
215.07054	318.0
216.07845	286.0
187.03896	250.0
230.09325	208.0
271.16843	201.0
315.13864	180.0
315.12299	145.0
201.092	143.0
244.14581	138.0
232.07314	133.0
313.17902	133.0
214.09938	128.0
241.12099	119.0
297.14789	117.0
253.12146	114.0
331.15677	113.0
243.14001	111.0
229.08426	109.0
160.052	99.0
187.07378	98.0
227.10687	96.0
151.07445	92.0
231.13573	83.0
226.10004	74.0
202.09726	73.0
228.11299	71.0
148.01479	71.0
163.07666	70.0
239.10432	68.0
281.15189	66.0
188.08371	65.0
188.05014	64.0
329.17453	61.0
176.04657	60.0
243.17667	58.0
271.13297	56.0
251.14511	56.0
202.06245	55.0
213.08896	55.0
174.06938	54.0
159.04512	54.0
149.02202	53.0
297.11411	52.0
272.10294	52.0
231.10149	51.0
268.14685	51.0
212.08377	49.0
269.11789	49.0
359.1875	45.0
259.1348	44.0
150.06866	42.0
216.11443	42.0
173.0592	41.0
161.02228	41.0
285.07507	40.0
313.14783	39.0
203.06874	38.0
300.09915	38.0
327.15396	37.0
299.16006	36.0
191.10678	36.0
238.10445	35.0
187.11128	35.0
187.02959	35.0
203.09805	35.0
240.11691	34.0
175.03714	34.0
271.16199	34.0
236.12003	32.0
359.11884	32.0
190.06311	31.0
175.07602	30.0
198.02922	29.0
282.12149	28.0
285.14288	27.0
172.08667	26.0
255.13683	26.0
315.04825	26.0
257.08484	25.0
181.65291	25.0
187.06039	25.0
217.05263	25.0
223.11198	25.0
228.07896	25.0
227.09506	25.0
164.08115	24.0
148.05528	24.0
257.12094	24.0
329.16388	24.0
359.09283	24.0
225.1028	24.0
257.15393	24.0
225.05725	24.0
143.04735	24.0
253.15106	24.0
232.05374	24.0
331.13895	23.0
215.0533	23.0
211.07387	23.0
287.12238	23.0
254.09302	23.0
344.12817	23.0
170.93372	22.0
162.06903	22.0
186.06657	22.0
215.10645	21.0
231.0732	21.0
230.61494	21.0
227.14819	21.0
287.11575	20.0
243.10338	20.0
147.07863	20.0
145.0265	19.0
316.09549	19.0
226.0647	18.0
281.078	18.0
183.07849	18.0
158.03404	16.0
230.05315	16.0
287.1987	13.0
81.78983	12.0
65.00538	12.0

MSID: 9059
ID: 314
RETENTIONTIME: 28.40435
PRECURSORMZ: 331.1907
AREA: 1490091.625
PRECURSORTYPE: [M-H]-
SMILES: [H][C@]12CCC=C(C(O)=O)[C@]1(C)CC[C@@H](C)[C@]2(C)CCC1=CC(=O)OC1
NAME: clerodermic acid
FORMULA: C20H28O4
INCHIKEY: FEOFLRVZBOQGQA-MPRPZVOOSA-N
CAS: 67594-82-5
Molecular Weight: 332.44
Number of References: 5
Class: Colensane and Clerodane diterpenoids
Superclass: Diterpenoids
Pathway: Terpenoids
ppm: -0.23499999997511622
CMID: CM243
IONMODE: Negative
COLLISIONENERGY: 40±20eV
INSTRUMENTTYPE: AB SCIEX
INSTRUMENT: Q-TOF
Comment:  
Num Peaks: 88
301.18063	14143.0
331.19049	10555.0
283.17014	2752.0
201.0919	2341.0
267.13745	1109.0
215.10779	772.0
228.11436	414.0
217.12036	358.0
313.18063	245.0
281.15176	201.0
200.08638	140.0
257.15225	121.0
265.12137	115.0
253.12447	103.0
227.10678	77.0
268.14514	75.0
214.09929	75.0
283.15036	72.0
186.0665	71.0
286.15237	69.0
241.12241	67.0
213.0903	67.0
287.16873	66.0
202.09717	60.0
252.11433	56.0
329.17084	56.0
303.19449	56.0
299.16504	55.0
258.12363	52.0
167.07251	51.0
229.12567	50.0
240.11833	50.0
285.14441	48.0
216.1129	47.0
246.12357	46.0
243.14145	45.0
331.15128	43.0
187.0737	42.0
298.11411	40.0
313.14597	40.0
247.13242	40.0
165.08864	34.0
295.16589	33.0
245.12137	33.0
203.10495	33.0
205.12239	32.0
271.13126	32.0
225.08801	32.0
301.14154	30.0
228.09662	30.0
269.15314	29.0
199.07231	27.0
158.03644	26.0
215.07188	26.0
330.11319	26.0
251.10931	26.0
243.17963	26.0
241.13914	26.0
300.15332	25.0
199.6738	25.0
231.10437	25.0
188.089	24.0
297.10556	24.0
200.03651	24.0
283.11575	24.0
164.08484	24.0
287.15048	23.0
135.35437	23.0
282.15759	23.0
202.50388	22.0
242.12402	22.0
222.10667	22.0
249.13158	22.0
177.08618	22.0
255.13986	22.0
197.17566	20.0
292.98447	20.0
226.09995	19.0
300.19235	18.0
229.08565	18.0
198.49657	18.0
265.10703	17.0
313.1217	17.0
239.10422	17.0
172.05191	15.0
329.15485	13.0
276.13504	12.0
138.78925	12.0

MSID: 9060
ID: 674
RETENTIONTIME: 38.36835
PRECURSORMZ: 283.2636
AREA: 1467480.625
PRECURSORTYPE: [M-H]-
SMILES: CCCCCCCCCCCCCCCCCC(O)=O
NAME: stearic acid
FORMULA: C18H36O2
INCHIKEY: QIQXTHQIDYTFRH-UHFFFAOYSA-N
CAS: 57-11-4
Molecular Weight: 284.483
Number of References: 37723
Class: Unsaturated fatty acids
Superclass: Fatty Acids and Conjugates
Pathway: Fatty acids
ppm: -0.10499999996227416
CMID: CM243
IONMODE: Negative
COLLISIONENERGY: 40±20eV
INSTRUMENTTYPE: AB SCIEX
INSTRUMENT: Q-TOF
Comment:  
Num Peaks: 8
283.26373	1650.0
227.10651	33.0
283.16977	33.0
267.14032	25.0
283.23404	25.0
265.24863	13.0
265.26617	13.0
195.6123	12.0

MSID: 9061
ID: 425
RETENTIONTIME: 30.84703
PRECURSORMZ: 373.2017
AREA: 1466677.75
PRECURSORTYPE: [M-H]-
SMILES: [H][C@@]12C[C@H](OC(C)=O)C3=C(C(=O)C(O)=C(C(C)C)C3=O)[C@@]1(C)CCCC2(C)C
NAME: 7β-acetoxyroyleanone
FORMULA: C22H30O5
INCHIKEY: XDBVTCDGDQLEKG-OKHZJLECSA-N
CAS: 77794-82-2
Molecular Weight: 374.477
Number of References: 4
Class: Abietane diterpenoids
Superclass: Diterpenoids
Pathway: Terpenoids
ppm: 0.20000000006348273
CMID: CM243
IONMODE: Negative
COLLISIONENERGY: 40±20eV
INSTRUMENTTYPE: AB SCIEX
INSTRUMENT: Q-TOF
Comment:  
Num Peaks: 73
313.18036	14138.0
373.20169	10571.0
298.15613	5057.0
283.13364	1929.0
59.01301	1224.0
297.14752	481.0
255.10054	349.0
242.09334	191.0
269.11597	183.0
243.10002	173.0
281.15155	168.0
331.19022	168.0
313.16302	155.0
298.13077	131.0
227.1066	129.0
230.09149	112.0
229.08842	109.0
281.11542	100.0
217.08556	89.0
231.09972	86.0
214.09911	83.0
373.17145	74.0
267.10202	73.0
215.07172	70.0
269.15451	69.0
313.14569	63.0
270.12576	60.0
203.06989	60.0
283.17319	54.0
227.0697	52.0
216.0753	50.0
268.10965	46.0
283.10892	45.0
313.1405	40.0
270.16116	38.0
253.08531	36.0
244.10878	35.0
254.09427	34.0
204.07588	34.0
257.11749	31.0
269.10471	31.0
255.13652	30.0
298.11047	30.0
241.08572	30.0
283.08585	30.0
228.07721	29.0
263.5354	26.0
329.13327	26.0
200.36197	25.0
327.1217	25.0
214.06186	25.0
373.13171	24.0
198.88429	24.0
280.15247	24.0
313.23581	23.0
286.08588	22.0
207.67429	21.0
312.14316	21.0
239.06616	21.0
266.09149	20.0
243.05421	20.0
240.05743	20.0
237.08678	20.0
225.05257	19.0
297.11545	18.0
221.00162	18.0
213.05725	17.0
295.16736	16.0
59.00624	16.0
299.15631	15.0
297.237	15.0
163.07896	15.0
343.07855	12.0

MSID: 9062
ID: 379
RETENTIONTIME: 30.0074
PRECURSORMZ: 387.1807
AREA: 1455732.625
PRECURSORTYPE: [M-H]-
SMILES: CC(C)C1=CC2=C(C(O)=C1O)[C@@]1(C)C[C@H](CC(C)(C)C1=C(O)C2=O)OC(C)=O
NAME: plebedipene D
FORMULA: C22H28O6
INCHIKEY: CZSUMELBBJCMIR-AMXDTQDGSA-N
CAS: nan
Molecular Weight: 388.461
Number of References: 2
Class: Abeoabietane diterpenoids
Superclass: Diterpenoids
Pathway: Terpenoids
ppm: -0.06499999994957761
CMID: CM243
IONMODE: Negative
COLLISIONENERGY: 40±20eV
INSTRUMENTTYPE: AB SCIEX
INSTRUMENT: Q-TOF
Comment:  
Num Peaks: 113
327.1593	25986.0
387.18054	8507.0
297.14957	3132.0
281.1174	2068.0
59.01308	1929.0
254.09303	554.0
299.16516	513.0
267.10074	417.0
296.14264	395.0
228.08044	363.0
345.16806	245.0
282.12317	237.0
227.06999	181.0
216.07701	135.0
256.11069	132.0
280.10855	128.0
295.13239	123.0
269.1163	120.0
210.10609	114.0
243.10185	113.0
213.05322	109.0
241.08907	105.0
324.12509	100.0
253.0903	83.0
257.1178	81.0
229.08723	79.0
281.10263	78.0
283.134	76.0
279.13913	70.0
280.14624	69.0
200.08508	69.0
242.09364	65.0
264.11789	63.0
215.07198	63.0
239.07404	61.0
325.18027	59.0
312.13489	56.0
284.13837	54.0
237.1293	53.0
297.11581	51.0
387.15741	51.0
238.06215	51.0
253.15886	50.0
217.1219	49.0
270.12772	47.0
255.09773	46.0
269.15002	44.0
227.06555	44.0
286.11771	44.0
241.0845	43.0
258.12216	42.0
255.13997	41.0
266.09341	40.0
203.07153	38.0
309.1438	37.0
243.06674	37.0
327.13095	36.0
226.09711	36.0
267.13596	36.0
268.11319	35.0
328.13068	35.0
297.10736	33.0
345.13895	32.0
251.14511	32.0
214.06355	31.0
269.11148	31.0
201.08922	31.0
279.10315	30.0
201.05728	30.0
308.09439	30.0
215.10931	29.0
254.07742	28.0
225.05579	28.0
283.17023	28.0
244.10909	27.0
357.17664	26.0
226.06029	26.0
311.12704	26.0
282.10342	26.0
326.08325	25.0
299.19055	25.0
199.03925	25.0
217.0714	25.0
177.05759	25.0
211.03688	25.0
228.11595	25.0
239.06496	25.0
246.54941	25.0
263.10349	25.0
257.15549	25.0
267.06714	24.0
224.08282	24.0
164.0824	24.0
341.11197	23.0
240.08202	23.0
249.12704	22.0
294.07346	22.0
262.23853	22.0
187.07512	21.0
223.07249	21.0
343.17691	20.0
185.0208	20.0
265.0864	20.0
256.08249	20.0
214.10225	20.0
201.03784	20.0
213.03751	19.0
202.06245	19.0
258.086	19.0
299.12958	17.0
295.11725	16.0
150.05667	13.0
81.17635	12.0

MSID: 9063
ID: 560
RETENTIONTIME: 33.17318
PRECURSORMZ: 329.1743
AREA: 1455106.75
PRECURSORTYPE: [M-H]-
SMILES: CC(C)C1=CC2=C(O)C(O)=C3C(C)(C)CCC[C@]3(C)C2=C(O)C1=O
NAME: 5,6-didehydro-7-hydroxy-taxodone
FORMULA: C20H26O4
INCHIKEY: JHWIFWLZAZIZIY-HXUWFJFHSA-N
CAS: nan
Molecular Weight: 330.424
Number of References: 4
Class: Abeoabietane diterpenoids
Superclass: Diterpenoids
Pathway: Terpenoids
ppm: -0.9849999999573811
CMID: CM243
IONMODE: Negative
COLLISIONENERGY: 40±20eV
INSTRUMENTTYPE: AB SCIEX
INSTRUMENT: Q-TOF
Comment:  
Num Peaks: 114
314.15182	20558.0
329.17261	8759.0
313.1442	2332.0
299.12604	799.0
297.14774	537.0
285.11462	389.0
257.08154	381.0
271.09573	365.0
258.08899	365.0
283.13385	327.0
301.14661	319.0
311.13034	311.0
298.12085	282.0
285.18408	268.0
272.1044	254.0
245.08455	254.0
286.1192	217.0
273.11011	201.0
267.1022	196.0
243.06508	186.0
313.13208	165.0
281.11563	161.0
285.15265	148.0
300.13293	145.0
268.10663	140.0
283.09595	129.0
282.12302	122.0
284.10522	120.0
256.07608	111.0
297.11227	99.0
243.05898	96.0
229.05006	95.0
230.0575	90.0
255.10385	90.0
242.09505	89.0
295.09857	79.0
215.069	78.0
253.08705	77.0
313.11127	74.0
270.08572	71.0
215.03453	69.0
243.10326	65.0
242.05849	63.0
217.08282	63.0
269.07919	63.0
241.08438	62.0
281.07458	61.0
255.06319	60.0
229.08711	58.0
227.06987	56.0
283.12231	56.0
257.11609	53.0
269.11615	53.0
255.13983	53.0
299.15991	50.0
201.09189	49.0
296.10205	49.0
286.08441	49.0
239.06937	48.0
271.13123	48.0
285.0766	47.0
313.17538	46.0
251.10153	46.0
201.0544	44.0
241.04637	43.0
286.10098	40.0
266.09167	40.0
295.13727	39.0
225.09387	38.0
254.08821	37.0
225.0542	36.0
272.09149	35.0
310.12241	34.0
311.16489	33.0
279.10626	32.0
211.10789	32.0
214.09784	32.0
269.15149	31.0
267.13901	31.0
214.06345	31.0
202.06514	29.0
257.06586	29.0
273.15054	29.0
228.04189	28.0
216.04379	28.0
240.11526	28.0
294.08844	26.0
257.04388	26.0
241.1604	25.0
227.10677	25.0
244.07683	25.0
299.09555	25.0
172.05574	24.0
231.06712	24.0
252.077	23.0
268.06976	23.0
273.07773	23.0
188.08496	23.0
315.10022	23.0
329.07666	23.0
267.11981	22.0
235.32605	22.0
185.06465	22.0
246.08206	21.0
243.14296	21.0
314.10498	21.0
173.10036	21.0
313.07315	20.0
187.03351	20.0
274.08035	19.0
215.9632	19.0
204.04245	18.0
301.11603	17.0
89.04121	12.0

MSID: 9064
ID: 284
RETENTIONTIME: 27.55953
PRECURSORMZ: 301.179
AREA: 1453574.875
PRECURSORTYPE: [M-H]-
SMILES: [H][C@@]12CC(=O)C3=C(C(=O)[C@@H](C(C)C)C3=O)[C@@]1(C)CCCC2(C)C
NAME: leriifolione
FORMULA: C19H26O3
INCHIKEY: LESJQAOHZOVAQY-JMERFSKESA-N
CAS: nan
Molecular Weight: 302.414
Number of References: 1
Class: Abietane diterpenoids
Superclass: Diterpenoids
Pathway: Terpenoids
ppm: -1.370000000008531
CMID: CM243
IONMODE: Negative
COLLISIONENERGY: 40±20eV
INSTRUMENTTYPE: AB SCIEX
INSTRUMENT: Q-TOF
Comment:  
Num Peaks: 54
301.18088	7671.0
201.09068	1311.0
283.17035	1049.0
267.13925	791.0
215.10654	464.0
241.1226	273.0
281.15692	228.0
217.12343	187.0
299.16528	144.0
265.12317	127.0
200.08238	124.0
243.13554	110.0
201.07819	96.0
242.13031	91.0
186.06665	87.0
257.15561	84.0
252.11609	68.0
268.14536	59.0
227.10696	54.0
214.10234	47.0
184.09096	45.0
239.10896	39.0
240.11549	36.0
269.15173	36.0
285.14963	36.0
185.05949	34.0
286.15924	33.0
187.07387	33.0
203.10651	30.0
255.14163	28.0
267.11044	27.0
251.10641	26.0
283.14069	25.0
164.08372	25.0
253.11533	25.0
265.11041	24.0
301.14011	24.0
215.08499	24.0
202.09595	23.0
158.03781	23.0
283.20001	22.0
214.09517	21.0
157.98488	21.0
216.11597	21.0
180.87511	20.0
228.10864	19.0
200.06438	18.0
198.06789	17.0
235.25568	16.0
212.07959	13.0
172.05205	13.0
99.42765	12.0
182.0703	12.0
95.36018	12.0

MSID: 9065
ID: 369
RETENTIONTIME: 29.72595
PRECURSORMZ: 487.3424
AREA: 1442324.625
PRECURSORTYPE: [M-H]-
SMILES: [H][C@@]12CC[C@]3(C)[C@]([H])(CC=C4[C@]5([H])[C@](C)(O)[C@H](C)CC[C@@]5(CC[C@@]34C)C(O)=O)[C@@]1(C)C[C@@H](O)[C@@H](O)C2(C)C
NAME: euscaphic acid
FORMULA: C30H48O5
INCHIKEY: OXVUXGFZHDKYLS-QUFHAEKXSA-N
CAS: nan
Molecular Weight: 488.708
Number of References: 271
Class: Ursane and Taraxastane triterpenoids
Superclass: Triterpenoids
Pathway: Terpenoids
ppm: 0.05000000004429239
CMID: CM243
IONMODE: Negative
COLLISIONENERGY: 40±20eV
INSTRUMENTTYPE: AB SCIEX
INSTRUMENT: Q-TOF
Comment:  
Num Peaks: 80
487.34207	28228.0
409.31018	203.0
487.31613	130.0
391.29568	68.0
421.30585	61.0
379.30145	47.0
441.3331	40.0
407.29779	38.0
403.29767	29.0
317.83368	26.0
350.35803	26.0
393.30707	26.0
409.25867	25.0
439.31726	25.0
487.40045	23.0
319.15842	23.0
324.12686	23.0
485.74362	23.0
457.32025	21.0
315.15948	20.0
487.25562	20.0
485.71991	20.0
341.69638	18.0
342.48065	17.0
425.30115	16.0
335.94986	15.0
478.32397	14.0
333.75113	14.0
351.4183	14.0
429.39648	13.0
372.32297	13.0
375.24051	13.0
384.61621	13.0
390.71478	13.0
421.19931	13.0
443.20306	13.0
393.25073	13.0
443.93936	13.0
393.91516	13.0
423.27594	13.0
398.03854	13.0
403.28589	13.0
366.08914	13.0
367.06598	13.0
357.24692	13.0
363.91888	13.0
324.89951	13.0
179.02672	13.0
228.1115	13.0
239.89085	13.0
276.91354	13.0
299.16684	13.0
301.16544	13.0
312.29407	13.0
313.5361	13.0
362.24512	13.0
320.91202	13.0
322.7901	13.0
319.81656	13.0
327.26202	13.0
330.35889	13.0
337.09778	13.0
343.01364	13.0
344.4425	13.0
346.43365	13.0
347.94815	13.0
353.89355	13.0
328.59201	13.0
355.30426	13.0
360.31119	13.0
211.68321	12.0
153.55321	12.0
166.04382	12.0
186.11066	12.0
252.10976	12.0
133.36571	12.0
472.37149	12.0
453.26447	12.0
303.43848	12.0
104.55302	12.0

MSID: 9066
ID: 593
RETENTIONTIME: 35.08225
PRECURSORMZ: 331.1918
AREA: 1425736.125
PRECURSORTYPE: [M-H]-
SMILES: CC(C)C1=C(O)C(=O)C2=C([C@H](O)CC3C(C)(C)CCC[C@]23C)C1=O
NAME: (4bS,10R)-3,10-Dihydroxy-2-isopropyl-4b,8,8-trimethyl-4b,5,6,7,8,8a,9,10-octahydro-phenanthrene-1,4-dione
FORMULA: C20H28O4
INCHIKEY: YVSUCPNWDPTGKM-SEYFCWQZSA-N
CAS: nan
Molecular Weight: 332.44
Number of References: 4
Class: Abietane diterpenoids
Superclass: Diterpenoids
Pathway: Terpenoids
ppm: 0.8650000000329783
CMID: CM243
IONMODE: Negative
COLLISIONENERGY: 40±20eV
INSTRUMENTTYPE: AB SCIEX
INSTRUMENT: Q-TOF
Comment:  
Num Peaks: 96
331.19003	15371.0
301.18024	15289.0
201.09164	2719.0
283.16809	2167.0
267.13708	1210.0
215.10606	1095.0
299.16293	508.0
281.1514	451.0
241.12361	393.0
217.1244	371.0
285.18372	252.0
200.08334	229.0
219.06808	227.0
257.15347	192.0
242.13284	161.0
243.13806	153.0
265.12259	151.0
214.09756	140.0
287.19986	113.0
201.07635	104.0
194.05676	95.0
229.12091	91.0
186.07025	88.0
268.14478	86.0
286.15363	75.0
285.14899	72.0
152.01207	67.0
283.14337	64.0
303.2009	62.0
247.09514	57.0
228.1185	57.0
227.10796	55.0
240.11345	55.0
207.06639	53.0
187.07747	53.0
164.08336	44.0
253.12102	44.0
303.19406	42.0
262.12073	41.0
57.03703	41.0
202.0983	40.0
201.06941	40.0
213.09145	40.0
216.11549	38.0
225.08917	36.0
252.1171	35.0
241.10689	35.0
267.11627	34.0
212.08055	34.0
313.17673	33.0
301.14624	33.0
217.09122	33.0
149.02296	32.0
177.08986	32.0
226.09818	31.0
245.11644	31.0
301.12924	31.0
283.12524	30.0
203.10468	29.0
329.17575	27.0
267.10028	26.0
269.14957	26.0
286.14371	26.0
203.34059	25.0
137.02039	25.0
137.09605	25.0
124.01436	25.0
271.13733	25.0
188.08203	25.0
238.09648	25.0
189.08929	25.0
172.0504	25.0
295.16888	24.0
331.12946	24.0
255.94101	24.0
313.14209	24.0
243.12128	24.0
282.16544	23.0
330.08603	23.0
298.15262	22.0
258.12802	22.0
199.07481	22.0
228.10371	21.0
202.09134	21.0
268.11591	21.0
221.25925	20.0
185.05777	20.0
281.09885	18.0
250.26241	18.0
239.10995	17.0
276.56772	17.0
121.02921	16.0
255.10197	15.0
99.08206	12.0
126.50663	12.0
283.7435	12.0

MSID: 9067
ID: 14
RETENTIONTIME: 5.90875
PRECURSORMZ: 137.024
AREA: 1388619.125
PRECURSORTYPE: [M-H]-
SMILES: OC(=O)C1=CC=C(O)C=C1
NAME: 4-hydroxy-benzoic acid
FORMULA: C7H6O3
INCHIKEY: FJKROLUGYXJWQN-UHFFFAOYSA-N
CAS: 99-96-7
Molecular Weight: 138.123
Number of References: 16662
Class: Simple phenolic acids
Superclass: Phenolic acids (C6-C1)
Pathway: Shikimates and Phenylpropanoids
ppm: 0.12999999998442036
CMID: CM243
IONMODE: Negative
COLLISIONENERGY: 40±20eV
INSTRUMENTTYPE: AB SCIEX
INSTRUMENT: Q-TOF
Comment:  
Num Peaks: 20
137.02428	5929.0
136.01624	2478.0
108.02101	1768.0
92.02669	898.0
81.03362	426.0
53.03922	325.0
91.01865	317.0
109.02893	283.0
65.0039	250.0
119.01271	144.0
65.04022	135.0
93.03461	124.0
63.02483	54.0
51.02471	50.0
80.02565	43.0
79.01878	38.0
107.01373	37.0
53.00356	30.0
67.01999	25.0
55.01933	22.0

MSID: 9068
ID: 391
RETENTIONTIME: 30.4121
PRECURSORMZ: 331.1906
AREA: 1372426.25
PRECURSORTYPE: [M-H]-
SMILES: [H][C@@]12CC(=O)C3=C(C(O)=C(O)C(=C3)C(C)C)[C@@]1(C)CC[C@H](O)C2(C)C
NAME: taiwanin F
FORMULA: C20H28O4
INCHIKEY: BJDDFWYEMCOHPH-AVYPCKFXSA-N
CAS: nan
Molecular Weight: 332.44
Number of References: 4
Class: nan
Superclass: nan
Pathway: nan
ppm: -0.33499999995001417
CMID: CM243
IONMODE: Negative
COLLISIONENERGY: 40±20eV
INSTRUMENTTYPE: AB SCIEX
INSTRUMENT: Q-TOF
Comment:  
Num Peaks: 82
331.19055	12168.0
301.18069	6238.0
230.13034	2409.0
231.13866	1292.0
313.18066	1106.0
215.1064	808.0
229.12424	639.0
202.0986	354.0
216.11581	308.0
203.10777	286.0
201.09193	268.0
299.16507	167.0
217.12039	149.0
287.20032	111.0
85.06423	108.0
285.14612	103.0
245.15361	102.0
243.13844	98.0
231.12823	94.0
214.09647	91.0
285.18414	90.0
189.09093	81.0
135.08337	77.0
188.08366	70.0
297.14951	62.0
176.08421	61.0
283.16852	56.0
227.10683	56.0
329.17447	53.0
244.14268	52.0
187.07642	48.0
228.11737	47.0
286.15408	46.0
271.16998	45.0
283.13721	42.0
298.15643	42.0
200.08365	42.0
258.12369	41.0
313.14081	39.0
295.1727	37.0
269.11621	37.0
149.02557	37.0
172.05194	36.0
83.04956	35.0
267.1423	35.0
186.0692	34.0
213.13179	33.0
311.16153	33.0
231.11929	33.0
241.12245	32.0
301.1297	32.0
260.09567	32.0
160.05196	31.0
269.15479	31.0
123.08064	29.0
270.12604	27.0
177.08882	27.0
230.10359	26.0
167.03456	26.0
240.11533	26.0
178.10413	25.0
185.09668	25.0
97.06603	25.0
242.12863	25.0
300.17035	24.0
256.10593	24.0
271.13614	24.0
190.09682	23.0
149.09492	22.0
199.1138	22.0
228.80565	22.0
230.08727	21.0
303.18942	21.0
217.15791	21.0
330.09366	21.0
297.11404	20.0
255.10236	20.0
303.1485	17.0
216.09279	17.0
212.11653	16.0
175.07079	13.0
306.72247	12.0

MSID: 9069
ID: 406
RETENTIONTIME: 30.59135
PRECURSORMZ: 533.3448
AREA: 1335189.125
PRECURSORTYPE: [M+FA-H]-
SMILES: [H][C@@]12CC[C@]3(C)[C@]([H])(CC=C4[C@]5([H])[C@@H](C)[C@H](C)CC[C@@]5(CC[C@@]34C)C(O)=O)[C@@]1(C)C[C@@H](O)[C@H](O)[C@@]2(C)CO
NAME: asiatic acid
FORMULA: C30H48O5
INCHIKEY: JXSVIVRDWWRQRT-UYDOISQJSA-N
CAS: nan
Molecular Weight: 488.708
Number of References: 259
Class: Ursane and Taraxastane triterpenoids
Superclass: Triterpenoids
Pathway: Terpenoids
ppm: -3.030000000023847
CMID: CM243
IONMODE: Negative
COLLISIONENERGY: 40±20eV
INSTRUMENTTYPE: AB SCIEX
INSTRUMENT: Q-TOF
Comment:  
Num Peaks: 99
487.34201	34468.0
425.34149	256.0
469.33066	214.0
441.33716	133.0
423.32425	90.0
533.35193	53.0
405.31393	47.0
421.31583	46.0
393.31284	46.0
407.34122	45.0
533.32257	35.0
485.73279	32.0
485.71338	32.0
467.30469	29.0
533.2276	28.0
488.33914	27.0
348.23495	26.0
485.74789	26.0
489.78143	26.0
423.28598	25.0
425.31927	25.0
322.5983	25.0
324.42484	24.0
487.2988	24.0
375.30685	23.0
391.29953	23.0
324.94009	23.0
533.27057	22.0
346.83289	22.0
485.91409	22.0
286.38937	22.0
354.72302	22.0
321.18573	21.0
441.31659	20.0
409.32004	18.0
317.20895	17.0
488.31747	16.0
323.89941	16.0
360.41711	15.0
482.05563	14.0
486.2941	14.0
486.60297	14.0
488.83481	14.0
490.2822	14.0
491.74692	14.0
493.77942	14.0
521.07751	14.0
437.25681	13.0
429.17731	13.0
439.28436	13.0
443.34116	13.0
448.09003	13.0
425.28494	13.0
469.23306	13.0
397.86267	13.0
402.29529	13.0
181.87468	13.0
394.42258	13.0
271.58621	13.0
318.15323	13.0
315.15945	13.0
313.15298	13.0
311.98779	13.0
305.12103	13.0
303.16046	13.0
297.14615	13.0
270.65424	13.0
327.83798	13.0
269.13712	13.0
267.06708	13.0
256.14511	13.0
225.0719	13.0
223.09586	13.0
219.28734	13.0
210.16568	13.0
393.27206	13.0
325.50519	13.0
330.83423	13.0
363.1813	13.0
389.24115	13.0
385.25021	13.0
201.09056	13.0
373.18698	13.0
372.16046	13.0
369.14017	13.0
333.8978	13.0
367.43188	13.0
359.61627	13.0
357.29132	13.0
349.43295	13.0
344.76785	13.0
343.1297	13.0
341.45926	13.0
338.70706	13.0
336.15268	13.0
377.4118	13.0
259.34604	12.0
530.51294	12.0
215.68561	12.0

MSID: 9070
ID: 237
RETENTIONTIME: 25.43347
PRECURSORMZ: 345.1697
AREA: 1322636.875
PRECURSORTYPE: [M-H]-
SMILES: CC(C)C1=CC2=C(C(O)=C1O)[C@@]1(C)CCC[C@](C)(CO)C1=C(O)C2=O
NAME: salviadesertin J
FORMULA: C20H26O5
INCHIKEY: MKZZHXCHSZZMOB-WOJBJXKFSA-N
CAS: nan
Molecular Weight: 346.423
Number of References: 1
Class: Abeoabietane diterpenoids
Superclass: Diterpenoids
Pathway: Terpenoids
ppm: -0.49999999998817657
CMID: CM243
IONMODE: Negative
COLLISIONENERGY: 40±20eV
INSTRUMENTTYPE: AB SCIEX
INSTRUMENT: Q-TOF
Comment:  
Num Peaks: 95
231.10149	5542.0
345.16989	4263.0
315.15948	2473.0
297.14789	1453.0
230.09474	552.0
281.11575	326.0
216.07845	277.0
215.10788	237.0
271.13297	216.0
229.08574	216.0
259.09854	193.0
282.12808	177.0
283.13397	172.0
213.09039	153.0
188.04745	144.0
215.07054	140.0
264.1131	116.0
185.09673	109.0
315.13342	109.0
241.08298	101.0
241.12555	95.0
217.08582	92.0
214.10081	83.0
201.09061	81.0
311.13049	78.0
253.12302	73.0
301.13828	65.0
295.12903	64.0
287.12903	63.0
258.08914	63.0
246.0914	57.0
243.13849	56.0
329.13901	55.0
231.07172	54.0
267.09753	54.0
256.10913	54.0
345.12802	52.0
223.10905	51.0
239.14066	51.0
239.07101	49.0
228.08044	49.0
200.08231	46.0
201.05589	45.0
257.11938	45.0
187.07378	45.0
259.07962	43.0
272.10617	41.0
245.08008	41.0
274.08209	38.0
257.0817	37.0
327.15219	36.0
297.12595	36.0
317.17413	35.0
254.09615	34.0
239.10735	34.0
243.10338	32.0
238.09387	32.0
199.07378	30.0
242.13022	29.0
330.14355	29.0
299.12619	27.0
255.1337	27.0
269.15164	27.0
242.08145	27.0
244.0739	27.0
227.11426	26.0
280.10855	26.0
173.06566	26.0
232.07314	26.0
297.10229	25.0
327.12564	25.0
313.14609	25.0
282.09189	25.0
197.09874	25.0
189.0573	25.0
254.13205	24.0
171.10533	24.0
186.06924	24.0
144.05521	24.0
279.13913	23.0
231.04343	23.0
224.08575	23.0
298.1582	23.0
216.03958	23.0
203.10641	22.0
345.23538	21.0
285.11478	21.0
213.05751	21.0
302.14853	20.0
237.08858	20.0
300.13138	19.0
283.0961	19.0
281.09442	19.0
203.03246	19.0
249.07295	13.0

MSID: 9071
ID: 84
RETENTIONTIME: 14.27932
PRECURSORMZ: 717.1457
AREA: 1322015.5
PRECURSORTYPE: [M-H]-
SMILES: OC(=O)[C@@H](CC1=CC(O)=C(O)C=C1)OC(=O)\C=C\C1=CC=C(O)C2=C1[C@@H]([C@H](O2)C1=CC(O)=C(O)C=C1)C(=O)O[C@H](CC1=CC=C(O)C(O)=C1)C(O)=O
NAME: salvianolic acid B
FORMULA: C36H30O16
INCHIKEY: SNKFFCBZYFGCQN-VWUOOIFGSA-N
CAS: nan
Molecular Weight: 718.625
Number of References: 2067
Class: Neolignans
Superclass: Lignans
Pathway: Shikimates and Phenylpropanoids
ppm: 0.13500000011390512
CMID: CM243
IONMODE: Negative
COLLISIONENERGY: 40±20eV
INSTRUMENTTYPE: AB SCIEX
INSTRUMENT: Q-TOF
Comment:  
Num Peaks: 82
313.07169	9458.0
555.11353	3862.0
357.06015	2803.0
717.14264	2685.0
295.06015	1884.0
331.08026	1064.0
269.08105	379.0
475.10416	373.0
267.06403	334.0
191.03375	313.0
277.04892	218.0
147.04425	211.0
287.09094	192.0
339.04794	163.0
283.05829	155.0
72.99162	152.0
519.0946	151.0
179.03334	150.0
161.02234	135.0
257.0802	133.0
175.03979	115.0
137.0264	105.0
203.03253	96.0
135.0459	87.0
163.03796	84.0
537.10626	75.0
149.02208	72.0
254.06033	64.0
375.07184	61.0
537.09717	61.0
493.10535	56.0
197.04382	50.0
109.02879	49.0
269.0473	49.0
280.03983	49.0
162.03419	45.0
285.0752	43.0
239.06958	42.0
475.06573	41.0
313.02664	41.0
270.05215	38.0
293.04672	36.0
249.05759	36.0
555.06042	36.0
159.04518	35.0
190.02673	34.0
314.07745	33.0
266.06314	31.0
555.04431	30.0
519.04327	28.0
165.05479	28.0
537.07898	26.0
357.01205	26.0
717.0351	26.0
295.01306	26.0
251.07848	26.0
237.05399	25.0
321.0455	25.0
246.25589	24.0
255.06654	24.0
72.98576	24.0
331.03928	23.0
225.05586	23.0
204.04404	23.0
248.0448	22.0
362.14835	22.0
284.06915	22.0
265.04822	21.0
285.03717	21.0
251.06761	20.0
259.10022	20.0
121.02731	19.0
270.04733	19.0
205.69096	19.0
173.02063	18.0
186.03058	17.0
259.07657	17.0
158.03656	13.0
145.03246	13.0
135.03793	13.0
197.52936	13.0
544.47095	12.0

MSID: 9072
ID: 436
RETENTIONTIME: 31.049
PRECURSORMZ: 501.3198
AREA: 1313253.125
PRECURSORTYPE: [M-H]-
SMILES: [H][C@@]12C[C@H](O)[C@]3(C)[C@]([H])([C@H](O)C=C4[C@]([H])([C@@H](C)[C@H](C)CC(O)=O)C(=C)CC[C@@]34C)[C@@]1(C)[C@H](O)CC(=O)C2(C)C
NAME: 1β,7β,11α-trihydroxy-3-oxo-17,22-secours-12,17(28)-diene-22-oic acid
FORMULA: C30H46O6
INCHIKEY: RQTZWHAEBIHJRX-AHNZVGMYSA-N
CAS: nan
Molecular Weight: 502.692
Number of References: 1
Class: Lanostane, Tirucallane and Euphane triterpenoids
Superclass: Triterpenoids
Pathway: Terpenoids
ppm: -1.814999999965039
CMID: CM243
IONMODE: Negative
COLLISIONENERGY: 40±20eV
INSTRUMENTTYPE: AB SCIEX
INSTRUMENT: Q-TOF
Comment:  
Num Peaks: 102
501.31924	19551.0
439.32086	4239.0
423.28958	2757.0
457.3302	1434.0
413.34146	330.0
483.30945	151.0
501.27759	137.0
455.30945	75.0
379.29721	72.0
423.25333	47.0
439.25723	43.0
189.12711	42.0
413.31757	41.0
423.32181	41.0
377.28778	40.0
471.26697	35.0
421.31342	32.0
175.1095	30.0
457.28622	28.0
421.30334	28.0
321.0415	26.0
439.22031	26.0
501.59555	26.0
293.05466	26.0
316.7222	24.0
423.21301	24.0
437.29938	23.0
327.12347	22.0
295.12531	21.0
395.32898	21.0
499.67612	20.0
429.27628	19.0
440.32101	18.0
453.24103	17.0
369.95871	17.0
323.55023	17.0
328.41415	17.0
355.26324	14.0
501.78418	14.0
465.28897	14.0
483.15231	14.0
499.70459	14.0
388.19431	13.0
376.44373	13.0
381.16281	13.0
385.20175	13.0
425.21384	13.0
391.29913	13.0
404.04095	13.0
407.22025	13.0
411.07886	13.0
436.64636	13.0
447.29187	13.0
373.80356	13.0
360.62314	13.0
307.68335	13.0
290.00156	13.0
311.13876	13.0
364.73343	13.0
306.62958	13.0
302.97263	13.0
300.00891	13.0
298.3219	13.0
291.70837	13.0
287.49387	13.0
244.22662	13.0
283.16495	13.0
282.16064	13.0
280.00824	13.0
269.12079	13.0
231.09676	13.0
241.46144	13.0
254.11926	13.0
312.09821	13.0
315.15216	13.0
318.63867	13.0
325.89368	13.0
363.22202	13.0
173.07576	13.0
359.01819	13.0
353.32968	13.0
351.35733	13.0
347.76144	13.0
346.0907	13.0
343.91708	13.0
341.7702	13.0
340.31982	13.0
339.26923	13.0
336.42529	13.0
335.54755	13.0
334.04602	13.0
332.06586	13.0
329.51538	13.0
249.17467	13.0
183.12068	12.0
220.89827	12.0
367.85025	12.0
479.18051	12.0
474.08795	12.0
261.27176	12.0
467.70016	12.0
165.02184	12.0

MSID: 9073
ID: 259
RETENTIONTIME: 26.74352
PRECURSORMZ: 389.1968
AREA: 1306540.375
PRECURSORTYPE: [M-H]-
SMILES: [H][C@@]12CCC3=CC(C(C)COC(C)=O)=C(O)C(O)=C3[C@]1(CCCC2(C)C)C(O)=O
NAME: 16-Acetoxycarnosic acid
FORMULA: C22H30O6
INCHIKEY: FEQWVRKYPKUGSZ-WDEYTWFASA-N
CAS: nan
Molecular Weight: 390.477
Number of References: 1
Class: Abietane diterpenoids
Superclass: Diterpenoids
Pathway: Terpenoids
ppm: 0.38499999999430656
CMID: CM243
IONMODE: Negative
COLLISIONENERGY: 40±20eV
INSTRUMENTTYPE: AB SCIEX
INSTRUMENT: Q-TOF
Comment:  
Num Peaks: 65
281.15503	10305.0
299.16501	6893.0
329.17615	4864.0
389.19656	1292.0
265.12292	1224.0
59.01381	714.0
267.14062	252.0
317.17398	250.0
347.18484	245.0
184.08946	189.0
266.13004	182.0
283.1322	177.0
213.09314	131.0
226.10141	103.0
212.08224	98.0
201.08911	97.0
227.10529	91.0
271.17316	79.0
255.13828	63.0
284.13824	61.0
243.13838	60.0
229.12122	54.0
215.10634	54.0
389.16953	54.0
225.08946	50.0
228.11583	48.0
230.09612	47.0
214.09784	46.0
281.12054	43.0
297.14435	40.0
238.09828	40.0
185.09663	39.0
299.12607	38.0
256.10742	38.0
280.14282	35.0
251.10464	35.0
216.08266	35.0
327.16089	34.0
343.15137	34.0
282.12137	34.0
269.12097	33.0
329.13885	32.0
237.09148	32.0
265.09741	29.0
279.13571	29.0
241.08438	26.0
223.07823	26.0
226.09552	25.0
241.12392	25.0
250.09854	25.0
240.11983	25.0
268.10663	25.0
203.10353	25.0
242.09352	25.0
253.12289	24.0
200.08498	23.0
315.16281	22.0
235.14432	22.0
169.07076	22.0
285.14273	22.0
184.26755	21.0
303.70279	20.0
244.10591	20.0
389.10773	20.0
192.1763	19.0

MSID: 9074
ID: 315
RETENTIONTIME: 28.49485
PRECURSORMZ: 329.1749
AREA: 1293237.625
PRECURSORTYPE: [M-H]-
SMILES: [H][C@]12OC(=O)[C@]3(O)C(=O)C(=C[C@]13CC[C@]1([H])C2=CCCC1(C)C)C(C)C
NAME: przewalskin B
FORMULA: C20H26O4
INCHIKEY: XENNDAKNPKZKFC-BGRCLHOASA-N
CAS: nan
Molecular Weight: 330.424
Number of References: 3
Class: Secoabietane diterpenoids
Superclass: Diterpenoids
Pathway: Terpenoids
ppm: -0.38499999999430656
CMID: CM243
IONMODE: Negative
COLLISIONENERGY: 40±20eV
INSTRUMENTTYPE: AB SCIEX
INSTRUMENT: Q-TOF
Comment:  
Num Peaks: 338
329.14236	26938.0
296.10538	11847.0
295.09518	5753.0
311.13031	5647.0
299.16327	2090.0
312.13641	2034.0
281.08112	2034.0
267.10217	1446.0
271.09732	1406.0
199.13443	1241.0
201.09184	1115.0
211.13347	997.0
297.11392	954.0
280.07394	776.0
285.14764	700.0
171.10135	684.0
253.05118	679.0
241.12082	625.0
272.10599	557.0
268.1098	520.0
59.013	489.0
283.13214	485.0
201.10989	482.0
301.18057	466.0
285.11127	431.0
245.08144	423.0
225.05562	390.0
279.06696	377.0
253.08545	369.0
169.12419	369.0
181.12125	356.0
99.08018	350.0
256.07446	316.0
314.11707	311.0
286.11917	288.0
252.07695	277.0
293.21075	256.0
243.06656	254.0
269.08398	233.0
282.08844	224.0
215.10773	215.0
129.09277	210.0
229.05002	205.0
266.05969	200.0
313.10605	199.0
285.12946	189.0
299.14633	188.0
269.09683	187.0
232.07297	181.0
295.08173	175.0
229.08559	170.0
58.00628	165.0
231.10132	163.0
227.07129	161.0
283.14862	159.0
57.03409	155.0
255.10381	154.0
200.08354	153.0
225.09088	147.0
257.08151	144.0
239.10567	141.0
230.05743	134.0
213.05736	133.0
251.10614	131.0
243.09709	130.0
241.1041	129.0
183.1393	125.0
279.08496	124.0
255.06784	124.0
251.07045	122.0
213.09166	122.0
254.05695	120.0
270.12109	117.0
270.09052	113.0
275.20172	113.0
193.11954	109.0
186.07043	107.0
203.10905	106.0
225.07178	105.0
301.15506	104.0
214.10208	104.0
311.15796	100.0
279.09805	100.0
255.13979	98.0
237.08992	97.0
243.0574	97.0
284.10352	97.0
286.10593	97.0
271.08441	97.0
237.05675	96.0
312.11911	96.0
228.07585	95.0
265.05115	94.0
241.16035	94.0
231.0641	93.0
257.11606	89.0
281.05649	88.0
185.09657	88.0
227.03735	87.0
211.12778	87.0
216.08116	85.0
240.11522	84.0
191.10799	83.0
85.06687	82.0
139.11124	81.0
327.12189	81.0
293.11349	81.0
283.17334	80.0
185.11656	79.0
240.0788	79.0
201.06546	78.0
224.04456	77.0
281.10901	77.0
227.1067	77.0
187.03748	77.0
127.11435	76.0
189.09082	76.0
299.09045	75.0
284.14148	75.0
245.59682	74.0
297.09872	73.0
188.04462	73.0
314.15527	72.0
136.05244	71.0
243.09099	71.0
241.08585	70.0
258.12515	70.0
215.03448	69.0
230.09309	68.0
83.04948	67.0
212.04654	66.0
241.14059	66.0
177.09132	65.0
328.13046	64.0
97.06499	64.0
226.0616	64.0
224.39061	61.0
125.09644	60.0
314.07715	60.0
209.09509	59.0
182.03969	59.0
241.52243	58.0
267.13257	57.0
179.10783	57.0
185.05928	57.0
197.10959	57.0
207.84236	57.0
241.05392	56.0
229.14191	56.0
281.155	56.0
264.0795	56.0
239.0345	56.0
180.49579	55.0
236.08675	55.0
229.75751	55.0
205.12373	54.0
227.05507	53.0
196.05374	53.0
239.07236	52.0
210.06903	52.0
282.1246	52.0
299.13278	52.0
127.07681	52.0
298.0853	51.0
185.73264	51.0
227.12737	51.0
217.09431	51.0
244.11044	51.0
202.07065	51.0
199.11232	49.0
328.354	49.0
214.50491	49.0
265.08621	49.0
215.07037	49.0
252.04274	48.0
249.12534	48.0
297.13586	48.0
277.08615	48.0
263.06995	48.0
271.06506	47.0
199.07501	47.0
279.05713	47.0
314.09625	47.0
293.07996	47.0
239.71024	47.0
230.36501	47.0
266.09164	47.0
258.08896	47.0
328.06839	47.0
239.46165	46.0
244.07526	46.0
228.0374	46.0
256.08856	46.0
212.19487	46.0
286.08438	45.0
204.92181	45.0
203.06999	45.0
208.06265	45.0
269.14343	45.0
198.08694	44.0
173.05907	44.0
169.36115	44.0
207.0976	43.0
155.14319	43.0
229.13005	43.0
327.15909	43.0
216.03941	43.0
228.04184	42.0
199.70003	42.0
183.10088	42.0
214.0634	42.0
268.07132	42.0
155.10782	42.0
226.10135	41.0
172.05441	41.0
183.07834	41.0
254.09598	41.0
254.06943	41.0
220.03322	41.0
208.56299	41.0
278.09772	41.0
312.09317	40.0
193.32645	40.0
215.05745	40.0
328.05774	39.0
253.24126	39.0
285.07324	39.0
137.09846	39.0
227.63683	39.0
239.08295	39.0
234.71649	39.0
283.09427	39.0
240.04239	38.0
311.22705	38.0
249.22272	37.0
197.09721	37.0
187.48907	37.0
101.09639	37.0
235.07671	36.0
233.38612	36.0
242.09195	36.0
272.07529	35.0
297.15106	35.0
242.04929	35.0
251.20702	35.0
265.12448	35.0
223.04015	35.0
193.09912	35.0
165.08731	35.0
184.06149	35.0
293.13696	34.0
220.72957	34.0
202.19177	34.0
218.05634	33.0
153.12502	33.0
217.69641	32.0
273.11328	32.0
167.10535	32.0
217.40898	32.0
175.11215	31.0
273.1489	31.0
284.11343	31.0
284.07053	31.0
298.16138	31.0
179.041	30.0
151.10681	30.0
71.01223	30.0
273.06958	30.0
139.09044	30.0
95.05045	30.0
257.15689	29.0
81.03251	29.0
259.13464	29.0
200.93217	29.0
113.18002	29.0
265.21378	29.0
228.11282	29.0
203.77252	28.0
300.16342	28.0
213.60229	28.0
115.03889	28.0
283.26562	28.0
149.13667	28.0
268.31506	28.0
146.04591	28.0
282.06375	28.0
150.06374	28.0
200.04614	27.0
216.11284	27.0
243.13374	26.0
221.72147	26.0
310.11548	25.0
111.08018	24.0
256.1105	24.0
313.06445	24.0
124.05372	24.0
231.46768	24.0
176.38051	23.0
195.04587	23.0
231.21298	23.0
219.12193	23.0
142.04057	23.0
69.03412	22.0
259.12045	22.0
155.09929	22.0
140.62027	22.0
222.06282	22.0
281.13528	22.0
139.08235	21.0
134.03366	21.0
167.71227	20.0
192.07852	20.0
286.13904	20.0
123.04253	19.0
204.11375	19.0
84.02148	19.0
171.08086	19.0
198.06627	19.0
156.70227	18.0
161.01717	18.0
160.05063	18.0
121.09719	17.0
67.05588	15.0
145.02992	15.0
191.06874	15.0
163.07652	14.0
119.35986	13.0
107.05296	13.0
109.0675	13.0
162.10257	13.0
232.10429	13.0
125.84673	13.0
147.08801	13.0
273.18289	13.0
143.05074	13.0
134.83414	13.0
260.79407	13.0
52.45586	12.0

MSID: 9075
ID: 164
RETENTIONTIME: 19.40988
PRECURSORMZ: 345.1703
AREA: 1274640.5
PRECURSORTYPE: [M-H]-
SMILES: [H][C@@]12CCC3=C(C(O)=C(O)C(=C3)C(C)C)[C@@]11CCC[C@]2(C)C(O)OC1=O
NAME: clinopodiolide B
FORMULA: C20H26O5
INCHIKEY: UJSRRPXGXDAPTC-SZSAHWPVSA-N
CAS: nan
Molecular Weight: 346.423
Number of References: 1
Class: Abietane diterpenoids
Superclass: Diterpenoids
Pathway: Terpenoids
ppm: 0.10000000003174137
CMID: CM243
IONMODE: Negative
COLLISIONENERGY: 40±20eV
INSTRUMENTTYPE: AB SCIEX
INSTRUMENT: Q-TOF
Comment:  
Num Peaks: 74
345.1702	7234.0
297.14984	4601.0
282.12671	2777.0
315.15979	2659.0
281.11603	661.0
229.08743	592.0
266.09683	223.0
227.10855	213.0
267.10419	167.0
230.09494	122.0
217.08458	121.0
214.06375	121.0
201.09355	120.0
85.06614	88.0
272.1048	83.0
215.07074	71.0
252.07735	70.0
201.05328	67.0
186.06808	66.0
345.14471	65.0
243.10054	59.0
229.07262	54.0
317.17441	51.0
213.05484	50.0
254.09637	47.0
216.07576	46.0
213.08914	43.0
281.15378	42.0
251.06931	42.0
228.0777	38.0
255.13237	38.0
225.09271	37.0
226.09731	36.0
280.1088	33.0
345.13199	33.0
184.08705	32.0
237.0903	31.0
345.21387	30.0
282.07901	30.0
330.03534	30.0
238.06084	27.0
244.11237	27.0
315.11285	27.0
273.14932	26.0
224.04492	26.0
227.0938	25.0
239.10605	25.0
187.04448	25.0
217.07736	25.0
231.09871	24.0
250.40407	24.0
226.09142	24.0
212.08253	24.0
233.97032	24.0
279.14102	23.0
171.10036	23.0
173.09802	23.0
205.08199	23.0
281.08154	22.0
287.02142	22.0
287.16745	22.0
183.0442	21.0
184.05118	20.0
295.12592	20.0
201.04634	20.0
211.07405	20.0
219.10345	20.0
83.05054	20.0
185.09955	19.0
317.16568	19.0
327.15781	19.0
185.05959	15.0
149.009	13.0
177.01866	12.0

MSID: 9076
ID: 397
RETENTIONTIME: 30.52773
PRECURSORMZ: 327.1235
AREA: 1272682.25
PRECURSORTYPE: [M-H]-
SMILES: [H][C@@]12CCC(C)(C)C3=CC=C(C4=C([C@@H](C)CO4)C(O)=O)C(C(=O)O1)=C23
NAME: salvianolactone acid B
FORMULA: C19H20O5
INCHIKEY: ZTBRVDVFZVQVGH-CABZTGNLSA-N
CAS: nan
Molecular Weight: 328.365
Number of References: 1
Class: nan
Superclass: Sesquiterpenoids
Pathway: Terpenoids
ppm: 0.24999999999408828
CMID: CM243
IONMODE: Negative
COLLISIONENERGY: 40±20eV
INSTRUMENTTYPE: AB SCIEX
INSTRUMENT: Q-TOF
Comment:  
Num Peaks: 92
312.09995	7542.0
327.1235	5969.0
297.07666	1726.0
279.06357	1347.0
294.08994	1150.0
299.12756	990.0
283.09909	834.0
295.09506	493.0
269.08228	492.0
251.07036	460.0
311.09216	319.0
266.05957	307.0
284.10504	297.0
293.08151	276.0
266.09473	242.0
226.02618	240.0
238.0634	190.0
255.09901	157.0
268.07281	148.0
241.08575	147.0
271.13589	147.0
267.10046	139.0
254.05685	119.0
237.05515	99.0
241.05231	92.0
312.07919	92.0
253.04796	88.0
239.10558	70.0
258.05267	65.0
240.03926	64.0
256.06808	63.0
265.08612	62.0
228.0802	60.0
272.10263	58.0
223.07664	57.0
230.05588	55.0
267.06525	55.0
255.06931	55.0
280.0722	51.0
265.04944	50.0
209.05679	50.0
253.08691	50.0
282.05377	49.0
327.09695	42.0
224.04741	41.0
281.04651	40.0
250.06433	40.0
279.04068	39.0
211.04091	39.0
268.04074	38.0
269.03409	37.0
225.05847	36.0
297.12054	36.0
215.03584	35.0
180.05527	33.0
311.0697	33.0
252.0784	32.0
279.02432	32.0
299.09369	32.0
196.05231	31.0
236.04755	30.0
237.08983	29.0
240.11209	28.0
283.17157	27.0
271.06335	27.0
229.04993	27.0
195.96182	26.0
175.71391	26.0
227.10663	26.0
231.11166	26.0
225.09227	26.0
239.03139	26.0
272.09134	25.0
283.13037	25.0
187.03741	25.0
202.05806	25.0
226.06152	24.0
311.05762	24.0
227.06531	24.0
311.13535	24.0
277.08603	24.0
252.03954	23.0
326.04224	22.0
213.05156	22.0
294.05301	22.0
210.06329	22.0
240.08174	21.0
207.08203	21.0
243.06647	20.0
200.05023	20.0
296.07324	20.0
251.04088	18.0

MSID: 9077
ID: 11
RETENTIONTIME: 3.642283
PRECURSORMZ: 197.045
AREA: 1243051.25
PRECURSORTYPE: [M-H]-
SMILES: COC1=CC(=CC(OC)=C1O)C(O)=O
NAME: 3,5-dimethoxy-4-hydroxybenzoic acid
FORMULA: C9H10O5
INCHIKEY: JMSVCTWVEWCHDZ-UHFFFAOYSA-N
CAS: 530-57-4
Molecular Weight: 198.175
Number of References: 8886
Class: nan
Superclass: nan
Pathway: nan
ppm: -2.8421709430404007e-11
CMID: CM243
IONMODE: Negative
COLLISIONENERGY: 40±20eV
INSTRUMENTTYPE: AB SCIEX
INSTRUMENT: Q-TOF
Comment:  
Num Peaks: 35
135.04602	5302.0
72.99336	3483.0
123.04606	2689.0
134.03737	1619.0
179.03482	1012.0
122.0379	436.0
109.02992	349.0
151.03973	260.0
107.04916	227.0
108.02098	189.0
95.05067	170.0
89.03859	159.0
93.03364	150.0
197.04675	145.0
79.05445	142.0
77.0396	121.0
150.03049	108.0
105.03535	99.0
106.04238	99.0
53.03849	87.0
81.03447	82.0
91.05412	82.0
117.03496	66.0
65.03863	47.0
74.00079	41.0
121.0285	41.0
134.02829	38.0
69.03429	35.0
67.01836	34.0
80.02738	27.0
65.00309	26.0
197.03577	25.0
91.01488	25.0
72.98248	24.0
55.55231	12.0

MSID: 9078
ID: 590
RETENTIONTIME: 34.3922
PRECURSORMZ: 359.2205
AREA: 1223004.875
PRECURSORTYPE: [M-H]-
SMILES: [H][C@@]12C[C@@H](OCC)C3=C(C(=O)C(O)=C(C(C)C)C3=O)[C@@]1(C)CCCC2(C)C
NAME: 7α-ethoxyroyleanone
FORMULA: C22H32O4
INCHIKEY: WLUUXQOJNUDCBK-QLEMLULZSA-N
CAS: 101409-68-1
Molecular Weight: 360.494
Number of References: 4
Class: Abietane diterpenoids
Superclass: Diterpenoids
Pathway: Terpenoids
ppm: -1.734999999939646
CMID: CM243
IONMODE: Negative
COLLISIONENERGY: 40±20eV
INSTRUMENTTYPE: AB SCIEX
INSTRUMENT: Q-TOF
Comment:  
Num Peaks: 69
299.20041	10655.0
359.21866	5387.0
284.17606	4858.0
59.01302	2587.0
271.16977	1329.0
269.15457	970.0
359.18527	670.0
283.1716	486.0
299.16486	424.0
317.21564	258.0
315.15918	209.0
331.19562	190.0
267.13727	180.0
241.12378	155.0
189.09212	121.0
255.14282	118.0
229.12108	112.0
315.1557	100.0
269.14331	89.0
284.15622	88.0
256.1449	77.0
187.07359	73.0
359.16669	63.0
215.1091	60.0
202.10123	56.0
359.14813	52.0
255.13344	50.0
232.0699	50.0
243.13672	45.0
259.09671	44.0
231.10274	44.0
256.10886	43.0
271.1488	42.0
298.21878	40.0
283.1337	39.0
59.0055	35.0
331.15463	34.0
284.21402	34.0
227.10811	34.0
253.12276	33.0
241.11618	32.0
240.10907	30.0
201.09456	29.0
217.12167	29.0
269.12405	28.0
317.17728	26.0
216.11421	26.0
230.05737	26.0
281.14832	26.0
251.10605	25.0
203.10901	25.0
297.14081	25.0
228.08022	25.0
233.14525	24.0
215.06601	24.0
214.09628	23.0
204.26062	23.0
287.1619	23.0
299.25461	20.0
289.17834	19.0
286.3046	19.0
187.06689	18.0
163.07649	17.0
217.08704	16.0
185.09387	16.0
271.11816	16.0
297.16446	13.0
305.57764	12.0
348.23648	12.0

MSID: 9079
ID: 380
RETENTIONTIME: 30.03327
PRECURSORMZ: 347.1848
AREA: 1215580.375
PRECURSORTYPE: [M-H]-
SMILES: [H][C@@]12[C@@H](O)OC3=C(O)C(C(C)C)=C(O)C(C=O)=C3[C@@]1(C)CCCC2(C)C
NAME: salviadesertin G
FORMULA: C20H28O5
INCHIKEY: NVCYNUMMDXSHOT-CMKODMSKSA-N
CAS: nan
Molecular Weight: 348.439
Number of References: 1
Class: Secoabietane diterpenoids
Superclass: Diterpenoids
Pathway: Terpenoids
ppm: -1.049999999963802
CMID: CM243
IONMODE: Negative
COLLISIONENERGY: 40±20eV
INSTRUMENTTYPE: AB SCIEX
INSTRUMENT: Q-TOF
Comment:  
Num Peaks: 58
347.18503	6536.0
319.18991	3013.0
283.17023	2352.0
267.13596	791.0
345.16806	611.0
301.18076	412.0
281.15845	151.0
317.17761	132.0
301.17395	111.0
201.08922	100.0
347.16315	100.0
283.15045	91.0
233.15596	90.0
203.10503	85.0
265.11987	63.0
299.16177	61.0
243.13698	55.0
259.16635	51.0
217.1219	45.0
245.15367	44.0
319.15494	44.0
303.19803	42.0
303.1622	40.0
285.17596	39.0
267.11035	33.0
252.11288	33.0
189.08963	32.0
165.08997	32.0
214.10081	31.0
240.11539	29.0
255.14153	29.0
202.09865	29.0
229.1228	28.0
223.70186	26.0
331.13895	26.0
282.16263	26.0
281.14041	25.0
283.12247	25.0
253.12146	25.0
289.18201	25.0
268.14365	24.0
329.17987	23.0
236.68916	23.0
228.11447	23.0
205.15755	23.0
275.19864	22.0
204.11671	22.0
319.2424	22.0
213.09468	21.0
215.14235	20.0
271.15717	19.0
347.2197	18.0
234.1409	18.0
201.07672	16.0
347.13577	15.0
309.19891	13.0
301.21136	13.0
164.07487	13.0

MSID: 9080
ID: 128
RETENTIONTIME: 17.45602
PRECURSORMZ: 287.056
AREA: 1211999.25
PRECURSORTYPE: [M-H]-
SMILES: OC1=CC(O)=C2C(=O)C[C@H](OC2=C1)C1=CC=C(O)C(O)=C1
NAME: eriodictyol
FORMULA: C15H12O6
INCHIKEY: SBHXYTNGIZCORC-ZDUSSCGKSA-N
CAS: 552-58-9
Molecular Weight: 288.257
Number of References: 2967
Class: Flavanones
Superclass: Flavonoids
Pathway: Shikimates and Phenylpropanoids
ppm: 0.43499999998175554
CMID: CM243
IONMODE: Negative
COLLISIONENERGY: 40±20eV
INSTRUMENTTYPE: AB SCIEX
INSTRUMENT: Q-TOF
Comment:  
Num Peaks: 34
135.04478	9035.0
151.00352	4608.0
65.00304	974.0
134.03726	771.0
107.01463	649.0
83.01393	251.0
287.0545	248.0
63.0232	152.0
109.02779	103.0
125.02325	92.0
107.0511	84.0
79.05526	81.0
161.02113	62.0
177.0186	59.0
117.03487	59.0
89.04037	57.0
159.04399	57.0
106.04029	43.0
165.01332	42.0
137.02414	41.0
133.02675	37.0
269.04254	37.0
108.0209	33.0
201.056	32.0
91.05219	31.0
93.03074	24.0
225.0515	24.0
134.59792	23.0
124.3595	23.0
57.03642	22.0
64.99357	21.0
53.0413	21.0
200.04364	13.0
225.03975	13.0

MSID: 9081
ID: 312
RETENTIONTIME: 28.33982
PRECURSORMZ: 283.0613
AREA: 1207368.875
PRECURSORTYPE: [M-H]-
SMILES: COC1=CC=C(C=C1)C1=CC(=O)C2=C(O)C=C(O)C=C2O1
NAME: 5,7-dihydroxy-2-(4'-methoxyphenyl)-4H-1-benzopyran-4-one
FORMULA: C16H12O5
INCHIKEY: DANYIYRPLHHOCZ-UHFFFAOYSA-N
CAS: 480-44-4
Molecular Weight: 284.268
Number of References: 2135
Class: Flavones
Superclass: Flavonoids
Pathway: Shikimates and Phenylpropanoids
ppm: 0.6500000000642103
CMID: CM243
IONMODE: Negative
COLLISIONENERGY: 40±20eV
INSTRUMENTTYPE: AB SCIEX
INSTRUMENT: Q-TOF
Comment:  
Num Peaks: 81
268.03772	16034.0
283.0614	7107.0
211.03964	1083.0
240.04248	1045.0
239.03459	862.0
117.03477	791.0
267.02863	490.0
63.02315	416.0
151.00218	400.0
107.01352	314.0
183.04398	262.0
65.00378	245.0
83.01385	228.0
171.04507	222.0
212.0452	205.0
167.04848	202.0
195.04594	189.0
149.99425	171.0
200.05038	156.0
172.05321	154.0
148.01472	153.0
196.05246	147.0
184.0536	133.0
199.0378	103.0
223.04024	82.0
165.01694	73.0
158.03645	68.0
168.05748	68.0
210.03223	63.0
268.01208	59.0
94.00607	56.0
122.00092	52.0
182.03448	50.0
169.02623	50.0
155.0518	50.0
163.0416	49.0
166.04503	46.0
198.02914	42.0
197.02444	42.0
143.05199	42.0
211.01689	41.0
89.00241	38.0
224.04611	36.0
130.04144	36.0
147.00734	36.0
267.16309	35.0
267.00464	34.0
170.03096	34.0
135.00711	33.0
266.01984	31.0
131.05179	31.0
92.0265	30.0
185.02339	29.0
222.03226	29.0
123.00893	28.0
156.05453	28.0
97.0284	27.0
171.02969	27.0
213.01884	26.0
226.02635	26.0
141.03639	26.0
64.99904	26.0
116.02628	26.0
195.0309	25.0
238.99673	25.0
154.04137	25.0
239.99242	23.0
167.03708	23.0
186.03044	23.0
120.01881	22.0
144.05751	22.0
63.01848	21.0
188.36176	20.0
148.00639	18.0
121.02938	17.0
150.98654	17.0
105.99482	13.0
89.04399	12.0
81.37143	12.0
264.39319	12.0
75.62267	12.0

MSID: 9082
ID: 331
RETENTIONTIME: 28.81462
PRECURSORMZ: 387.1808
AREA: 1201582.0
PRECURSORTYPE: [M-H]-
SMILES: [H][C@]12O[C@@H]3[C@H](OCC)C4=C(C(=O)C(O)=C(C(C)C)C4=O)[C@]11CCC[C@](C)(CO2)[C@]31[H]
NAME: 7β-ethoxy-12-hydroxy-6β,20:19,20-diepoxy-11,14-dioxoabieta-8,12-diene
FORMULA: C22H28O6
INCHIKEY: CMYFGMQKIDYKRW-MCSHHISBSA-N
CAS: nan
Molecular Weight: 388.461
Number of References: 1
Class: Abietane diterpenoids
Superclass: Diterpenoids
Pathway: Terpenoids
ppm: 0.03500000002532033
CMID: CM243
IONMODE: Negative
COLLISIONENERGY: 40±20eV
INSTRUMENTTYPE: AB SCIEX
INSTRUMENT: Q-TOF
Comment:  
Num Peaks: 87
327.15945	17621.0
387.18073	6137.0
284.14182	3860.0
269.11801	2691.0
59.01386	874.0
283.13577	832.0
245.08173	621.0
345.16821	541.0
299.16528	444.0
246.08844	384.0
312.1333	360.0
217.12199	280.0
229.08734	176.0
267.10248	146.0
283.17203	133.0
216.07855	131.0
243.10043	128.0
215.07065	101.0
257.08182	97.0
251.10333	86.0
267.14087	85.0
241.08461	85.0
254.09158	81.0
387.1499	78.0
231.06735	75.0
283.11435	73.0
285.14633	66.0
201.05598	65.0
283.16544	61.0
230.06216	57.0
343.1535	51.0
345.15549	51.0
227.07304	46.0
311.12894	45.0
255.14008	45.0
241.12262	45.0
284.09393	41.0
253.08418	40.0
265.12	40.0
203.07024	39.0
268.11011	39.0
199.11533	38.0
239.14532	37.0
229.04584	36.0
281.15204	36.0
266.12869	35.0
204.07764	35.0
283.10446	32.0
246.06694	32.0
269.13892	31.0
309.14911	31.0
242.09377	31.0
202.06393	30.0
245.05107	29.0
283.20169	28.0
225.0603	28.0
270.12622	28.0
387.12869	28.0
255.09941	27.0
341.11032	26.0
252.0788	26.0
228.11754	26.0
327.10632	26.0
215.03761	25.0
385.90039	25.0
294.14078	25.0
256.07007	25.0
297.10751	25.0
219.10481	25.0
311.11856	24.0
209.09251	24.0
217.75592	23.0
63.20602	23.0
187.07922	23.0
240.07909	22.0
295.12579	22.0
256.14215	22.0
159.04396	22.0
225.1264	22.0
329.17648	21.0
251.09557	21.0
232.07474	20.0
244.06789	16.0
271.09601	16.0
294.09879	13.0
307.96219	12.0
148.79266	12.0

MSID: 9083
ID: 180
RETENTIONTIME: 20.9909
PRECURSORMZ: 313.0713
AREA: 1190937.625
PRECURSORTYPE: [M-H]-
SMILES: COC1=CC2=C(C(O)=C1)C(=O)C(OC)=C(O2)C1=CC=C(O)C=C1
NAME: kumatakenin
FORMULA: C17H14O6
INCHIKEY: BJBUTJQYZDYRMJ-UHFFFAOYSA-N
CAS: 3301-49-3
Molecular Weight: 314.295
Number of References: 120
Class: Flavonols
Superclass: Flavonoids
Pathway: Shikimates and Phenylpropanoids
ppm: 0.0850000000127693
CMID: CM243
IONMODE: Negative
COLLISIONENERGY: 40±20eV
INSTRUMENTTYPE: AB SCIEX
INSTRUMENT: Q-TOF
Comment:  
Num Peaks: 37
161.02464	11195.0
133.02995	5168.0
132.02211	862.0
151.03943	543.0
123.04581	360.0
150.03017	341.0
105.03413	173.0
77.03944	109.0
313.07309	79.0
149.02431	75.0
122.03765	71.0
89.03841	62.0
104.02592	62.0
115.02106	61.0
108.02076	49.0
161.00848	47.0
121.03256	35.0
95.04762	33.0
160.01595	31.0
81.03606	30.0
160.50191	26.0
171.10263	25.0
135.0412	25.0
149.01474	24.0
313.05402	23.0
160.99606	23.0
117.03154	23.0
109.03174	22.0
269.07755	22.0
134.02802	20.0
55.55949	19.0
177.01445	15.0
141.07704	12.0
75.47794	12.0
276.53052	12.0
99.22746	12.0
85.10123	12.0

MSID: 9084
ID: 177
RETENTIONTIME: 20.61793
PRECURSORMZ: 717.1455
AREA: 1184639.25
PRECURSORTYPE: [M-H]-
SMILES: OC(=O)[C@@H](CC1=CC=C(O)C(O)=C1)OC(=O)\C=C\C1=C(/C(=C\C2=CC=C(O)C(O)=C2)/C(=O)O[C@H](CC2=CC(O)=C(O)C=C2)C(O)=O)C(O)=C(O)C=C1
NAME: salvianolic acid E
FORMULA: C36H30O16
INCHIKEY: SOXUSBQFIOBYJU-VPIXDIMLSA-N
CAS: 142998-46-7
Molecular Weight: 718.625
Number of References: 16
Class: Neolignans
Superclass: Lignans
Pathway: Shikimates and Phenylpropanoids
ppm: -0.06499999994957761
CMID: CM243
IONMODE: Negative
COLLISIONENERGY: 40±20eV
INSTRUMENTTYPE: AB SCIEX
INSTRUMENT: Q-TOF
Comment:  
Num Peaks: 104
519.09216	23744.0
339.05139	17983.0
135.04469	5904.0
161.02351	2866.0
311.05621	1277.0
179.03458	857.0
717.13971	487.0
359.07611	465.0
357.05817	454.0
177.01979	350.0
267.0639	235.0
134.03831	226.0
197.04375	217.0
133.02892	181.0
239.07098	175.0
283.05817	173.0
295.05835	165.0
520.09888	152.0
178.02444	83.0
313.07501	76.0
251.0706	68.0
177.01328	67.0
457.08362	65.0
340.05652	64.0
293.0466	62.0
163.04039	62.0
321.0401	59.0
265.0481	59.0
151.03954	57.0
249.05284	57.0
221.05865	54.0
223.07539	53.0
121.03157	52.0
175.00215	50.0
189.01825	49.0
179.02278	45.0
431.11087	40.0
519.05426	40.0
176.01147	37.0
72.99242	36.0
135.02194	36.0
491.09137	33.0
353.06137	32.0
205.06497	32.0
221.04555	31.0
173.02055	31.0
267.04633	31.0
339.00992	31.0
133.01762	30.0
324.06161	26.0
340.03482	25.0
280.06592	24.0
501.0874	24.0
341.05588	24.0
136.04686	24.0
147.0062	23.0
149.02679	23.0
160.0173	23.0
447.11841	23.0
162.02539	22.0
517.41125	22.0
269.07611	22.0
132.0222	22.0
160.49706	21.0
107.05002	21.0
395.00629	21.0
134.01337	20.0
341.02332	20.0
296.07355	20.0
294.05328	20.0
222.0688	20.0
337.90015	19.0
266.05347	19.0
249.04512	19.0
439.07712	18.0
235.03632	18.0
225.13217	17.0
286.69608	17.0
493.11166	17.0
717.26294	16.0
373.11511	15.0
117.03056	15.0
445.08936	15.0
522.8338	14.0
475.0741	14.0
514.46844	14.0
518.36505	14.0
471.62259	14.0
716.40039	14.0
479.17676	14.0
521.05963	14.0
493.89047	14.0
524.05707	14.0
527.20026	14.0
671.34167	14.0
311.08902	13.0
669.6073	12.0
686.13879	12.0
497.95541	12.0
632.4538	12.0
534.87061	12.0
487.56476	12.0
503.77631	12.0
195.29498	12.0

MSID: 9085
ID: 147
RETENTIONTIME: 18.68175
PRECURSORMZ: 361.1651
AREA: 1180041.125
PRECURSORTYPE: [M-H]-
SMILES: [H][C@]12C[C@H](O)C=C3C(=O)OC[C@@]13C[C@@H](O)[C@@H](C)[C@]2(C)CCC1=CCOC1=O
NAME: 2β,7α-Dihydroxy-neo-clerodan-3,13-dien-18,19:16,15-diolide
FORMULA: C20H26O6
INCHIKEY: JHBRNAUUDDJVDQ-BGWFHQCASA-N
CAS: nan
Molecular Weight: 362.423
Number of References: 2
Class: Colensane and Clerodane diterpenoids
Superclass: Diterpenoids
Pathway: Terpenoids
ppm: -0.01499999996212864
CMID: CM243
IONMODE: Negative
COLLISIONENERGY: 40±20eV
INSTRUMENTTYPE: AB SCIEX
INSTRUMENT: Q-TOF
Comment:  
Num Peaks: 115
361.16321	5004.0
179.07135	2226.0
315.1579	1521.0
287.16565	659.0
333.1701	658.0
317.17426	405.0
343.15347	234.0
231.1001	228.0
205.08611	212.0
164.0461	207.0
297.14633	179.0
178.06636	167.0
269.15497	165.0
299.16699	147.0
203.10651	145.0
253.12312	134.0
216.07997	128.0
164.08372	108.0
281.11588	107.0
229.08585	96.0
303.15894	94.0
271.1347	84.0
267.10086	83.0
177.09024	77.0
217.08447	74.0
299.12634	71.0
331.14978	70.0
150.06754	68.0
244.10919	68.0
283.13245	66.0
151.0733	64.0
272.10306	64.0
163.03673	61.0
285.1463	58.0
188.0811	56.0
225.12787	55.0
287.1474	52.0
269.11801	51.0
286.15427	51.0
282.12326	49.0
254.1306	49.0
281.15036	48.0
191.07033	48.0
187.07788	47.0
343.14624	47.0
313.14102	46.0
236.12013	45.0
257.07864	44.0
243.13554	44.0
213.08905	44.0
299.15344	42.0
230.09485	42.0
257.12106	42.0
201.09068	42.0
305.17081	41.0
270.1246	40.0
272.13858	40.0
255.13695	39.0
233.08578	38.0
259.09708	38.0
314.15387	38.0
215.07207	38.0
229.12291	38.0
325.14331	37.0
188.04619	36.0
177.05637	35.0
241.11957	35.0
189.09105	35.0
243.10196	34.0
190.06184	34.0
207.06543	33.0
185.09547	33.0
192.08011	32.0
265.12479	32.0
361.13531	31.0
203.07162	30.0
199.07248	29.0
268.14377	28.0
214.10234	28.0
201.05458	27.0
333.13794	26.0
136.01494	26.0
254.09157	25.0
227.10844	25.0
275.16626	25.0
249.11325	25.0
285.07687	25.0
317.15509	25.0
343.11176	25.0
289.13715	25.0
245.08173	25.0
162.06786	24.0
164.01097	24.0
315.11792	24.0
233.07233	24.0
273.14111	24.0
135.04819	24.0
149.06871	23.0
202.06532	23.0
211.07396	23.0
264.11163	23.0
218.0537	23.0
219.1077	22.0
235.09648	22.0
179.04253	21.0
361.11484	20.0
240.11398	20.0
258.09238	19.0
251.14212	19.0
71.01399	18.0
242.09375	18.0
173.05672	18.0
157.06308	13.0
313.08038	13.0
181.10434	13.0

MSID: 9086
ID: 83
RETENTIONTIME: 14.25382
PRECURSORMZ: 447.0939
AREA: 1173276.625
PRECURSORTYPE: [M-H]-
SMILES: OC[C@H]1O[C@@H](OC2=CC3=C(C(O)=C2)C(=O)C=C(O3)C2=CC=C(O)C(O)=C2)[C@H](O)[C@@H](O)[C@H]1O
NAME: luteolin-7-O-β-galactopyranoside
FORMULA: C21H20O11
INCHIKEY: PEFNSGRTCBGNAN-OBJCFNGXSA-N
CAS: nan
Molecular Weight: 448.383
Number of References: 6
Class: Flavones
Superclass: Flavonoids
Pathway: Shikimates and Phenylpropanoids
ppm: 1.1600000000271393
CMID: CM243
IONMODE: Negative
COLLISIONENERGY: 40±20eV
INSTRUMENTTYPE: AB SCIEX
INSTRUMENT: Q-TOF
Comment:  
Num Peaks: 77
285.04056	28207.0
447.0939	1025.0
133.02902	490.0
151.00475	439.0
217.04846	323.0
175.03986	319.0
199.03938	261.0
241.05122	197.0
284.03293	171.0
213.05623	145.0
243.03026	144.0
257.04575	120.0
201.01854	110.0
149.02452	105.0
107.0116	74.0
267.02573	69.0
215.03336	63.0
256.03564	61.0
198.02797	54.0
132.02231	54.0
175.03339	50.0
185.06088	49.0
83.01484	48.0
239.03333	45.0
242.0222	43.0
223.03902	43.0
327.05325	40.0
173.0619	36.0
65.00227	35.0
171.04269	35.0
150.98911	34.0
284.01974	34.0
199.02419	34.0
269.04901	34.0
284.1138	33.0
133.01886	32.0
212.04828	31.0
226.02953	28.0
240.04272	28.0
281.04865	27.0
208.1675	26.0
187.03909	25.0
214.02933	25.0
145.03015	25.0
206.51628	25.0
211.03987	24.0
185.05156	24.0
192.0598	24.0
132.01443	23.0
195.04478	23.0
135.04822	23.0
189.84325	23.0
196.04991	22.0
161.02736	22.0
188.04355	21.0
298.0502	21.0
285.94235	21.0
169.06842	21.0
63.02477	21.0
189.0507	21.0
177.01732	20.0
227.03325	20.0
190.13615	20.0
229.0459	20.0
147.04549	19.0
287.54919	18.0
188.45738	18.0
283.0271	18.0
248.94795	17.0
225.01775	16.0
154.04396	15.0
255.0244	13.0
163.00551	13.0
323.29724	12.0
79.95201	12.0
358.42349	12.0
60.88816	12.0

MSID: 9087
ID: 538
RETENTIONTIME: 32.67235
PRECURSORMZ: 285.1491
AREA: 1145989.25
PRECURSORTYPE: [M-H]-
SMILES: C[C@H]1CO[C@]2(C1)OC(=O)C1=C2C=CC2=C1CCCC2(C)C
NAME: epicryptoacetalide
FORMULA: C18H22O3
INCHIKEY: HUTQFIYQAWCICW-ADLMAVQZSA-N
CAS: 132152-57-9
Molecular Weight: 286.371
Number of References: 4
Class: Illudalane sesquiterpenoids
Superclass: Sesquiterpenoids
Pathway: Terpenoids
ppm: 0.0299999999811007
CMID: CM243
IONMODE: Negative
COLLISIONENERGY: 40±20eV
INSTRUMENTTYPE: AB SCIEX
INSTRUMENT: Q-TOF
Comment:  
Num Peaks: 68
285.1492	14187.0
242.0934	1896.0
227.06976	1279.0
241.15877	997.0
270.12421	452.0
242.12997	204.0
225.12755	191.0
226.13663	169.0
227.1037	167.0
185.09654	163.0
255.1006	162.0
211.03951	161.0
257.1568	111.0
209.06105	108.0
269.11761	108.0
242.07512	85.0
199.07634	84.0
214.1006	83.0
200.0461	80.0
241.08273	76.0
241.14964	71.0
225.05409	69.0
226.05859	65.0
213.05444	64.0
241.12379	64.0
211.11206	63.0
186.03166	60.0
212.04649	55.0
183.08096	54.0
225.09375	53.0
199.03766	52.0
253.1212	45.0
201.09041	43.0
133.10335	38.0
254.09277	38.0
174.06534	36.0
270.10168	35.0
229.08403	34.0
213.12592	33.0
171.04367	33.0
285.12772	32.0
181.06323	32.0
243.10008	30.0
285.17899	30.0
158.03758	30.0
257.14267	29.0
187.03743	28.0
214.05905	27.0
143.04721	25.0
168.05609	25.0
188.04591	25.0
240.07721	22.0
284.20908	22.0
201.16678	22.0
169.0694	22.0
197.06143	22.0
172.05052	22.0
185.05923	22.0
226.09688	21.0
256.14804	20.0
210.02641	20.0
170.06787	19.0
214.13641	19.0
239.07532	18.0
216.07678	18.0
201.05013	17.0
224.04742	16.0
181.06059	14.0

MSID: 9088
ID: 360
RETENTIONTIME: 29.55855
PRECURSORMZ: 391.2122
AREA: 1143578.0
PRECURSORTYPE: [M-H]-
SMILES: [H][C@@]12C[C@H](O)[C@]3([H])[C@]([C@@H]1O)([C@H](O)C[C@]1([H])C(C)(C)[C@H](CC[C@@]31C)OC(C)=O)C(=O)C2=C
NAME: 7α,11β,14β-trihydroxy-3β-acetoxy-ent-kaur-16-en-15-one
FORMULA: C22H32O6
INCHIKEY: JKLOLXJMNPUYHT-NMFLFKJTSA-N
CAS: 1486563-94-3
Molecular Weight: 392.492
Number of References: 1
Class: Kaurane and Phyllocladane diterpenoids
Superclass: Diterpenoids
Pathway: Terpenoids
ppm: 0.13500000000021828
CMID: CM243
IONMODE: Negative
COLLISIONENERGY: 40±20eV
INSTRUMENTTYPE: AB SCIEX
INSTRUMENT: Q-TOF
Comment:  
Num Peaks: 97
299.16498	13184.0
391.21027	5546.0
59.0138	1825.0
359.18542	1386.0
217.08569	1291.0
217.12177	497.0
301.17889	417.0
281.155	377.0
317.17395	323.0
216.07832	255.0
331.18866	203.0
215.10489	157.0
265.11972	154.0
284.13986	153.0
361.20007	152.0
256.11053	140.0
283.13217	134.0
301.14319	121.0
243.10172	106.0
201.09326	104.0
271.16827	92.0
298.15634	86.0
297.14771	86.0
174.06799	76.0
174.03181	70.0
266.1348	68.0
283.17172	67.0
273.14569	66.0
269.11935	59.0
202.06233	56.0
257.11765	54.0
230.09164	53.0
165.08987	47.0
341.17508	44.0
255.13824	42.0
241.12238	42.0
165.05589	40.0
215.07042	38.0
228.0818	38.0
391.18314	38.0
255.10071	37.0
229.0871	37.0
59.00477	37.0
200.08218	37.0
202.09436	36.0
331.15836	36.0
201.05299	34.0
189.09355	34.0
199.07504	33.0
331.17795	33.0
244.10742	32.0
171.08217	31.0
271.12958	31.0
203.10631	30.0
137.06181	30.0
146.03648	30.0
281.13531	30.0
216.11143	29.0
241.08131	28.0
273.18777	27.0
281.12054	27.0
217.06694	27.0
188.08495	26.0
205.88745	26.0
258.12833	26.0
359.1279	26.0
253.15871	26.0
257.15219	25.0
214.10213	25.0
250.18526	25.0
217.0453	25.0
331.15125	25.0
163.07782	25.0
159.04381	24.0
212.12216	24.0
216.0481	24.0
200.04478	24.0
243.08492	24.0
164.07854	24.0
242.09045	23.0
299.20224	23.0
226.09697	23.0
215.0977	23.0
269.15469	22.0
282.15588	22.0
172.0506	21.0
223.07382	21.0
179.10394	20.0
313.17365	20.0
231.10432	20.0
227.06985	19.0
299.10062	18.0
317.12512	18.0
155.37874	18.0
327.11661	13.0
150.06378	13.0
308.11142	12.0

MSID: 9089
ID: 458
RETENTIONTIME: 31.1864
PRECURSORMZ: 303.1958
AREA: 1143313.125
PRECURSORTYPE: [M-H]-
SMILES: CC(C)C1=C(O)C=C(O)C(CC[C@@H]2C(=O)CCCC2(C)C)=C1
NAME: 20-nor-9,10-seco-abieta-9,12-dihydroxy-8,11,13-trien-10-one
FORMULA: C19H28O3
INCHIKEY: XEXXEXFDBLRHOC-OAHLLOKOSA-N
CAS: nan
Molecular Weight: 304.43
Number of References: 1
Class: Secoabietane diterpenoids
Superclass: Diterpenoids
Pathway: Terpenoids
ppm: -0.21999999995614417
CMID: CM243
IONMODE: Negative
COLLISIONENERGY: 40±20eV
INSTRUMENTTYPE: AB SCIEX
INSTRUMENT: Q-TOF
Comment:  
Num Peaks: 76
303.19583	24166.0
285.18546	5704.0
203.10751	2868.0
301.17859	359.0
243.14117	343.0
215.10611	325.0
267.13715	279.0
269.15442	232.0
283.1698	214.0
216.11697	213.0
259.1691	193.0
201.09306	183.0
255.13644	160.0
188.08476	116.0
229.12393	112.0
287.16507	109.0
270.16272	99.0
253.12106	91.0
217.123	86.0
271.16965	84.0
285.1474	73.0
189.08932	70.0
288.17493	64.0
227.10652	60.0
187.07617	59.0
57.0363	54.0
202.10112	51.0
244.14543	48.0
175.07574	44.0
241.12366	43.0
191.11055	40.0
247.1306	38.0
159.04611	34.0
161.06056	33.0
268.14163	32.0
172.05299	29.0
302.19064	28.0
281.15146	27.0
286.15866	26.0
303.15833	26.0
198.10609	25.0
229.08391	25.0
136.69505	25.0
199.07623	25.0
285.22183	24.0
177.09511	24.0
201.08057	24.0
207.94527	24.0
173.05894	24.0
206.04747	24.0
200.082	24.0
213.09149	23.0
215.08456	23.0
270.12891	22.0
238.09955	22.0
285.12259	22.0
271.13254	22.0
164.08215	22.0
269.11749	22.0
160.05051	21.0
214.10622	21.0
217.0119	21.0
218.99712	20.0
168.92036	20.0
185.0578	20.0
219.14061	19.0
216.0882	18.0
253.10548	18.0
199.43149	17.0
240.11198	17.0
162.07127	16.0
239.10092	16.0
184.09192	16.0
255.11298	16.0
245.83301	12.0
278.01093	12.0

MSID: 9090
ID: 606
RETENTIONTIME: 35.60905
PRECURSORMZ: 455.3511
AREA: 1119889.75
PRECURSORTYPE: [M-H]-
SMILES: [H][C@]12[C@@H](CC[C@@]1(CC[C@]1(C)[C@]2([H])CC[C@]2([H])[C@@]3(C)CC[C@H](O)C(C)(C)[C@]3([H])CC[C@@]12C)C(O)=O)C(C)=C
NAME: Betulinic acid
FORMULA: C30H48O3
INCHIKEY: QGJZLNKBHJESQX-FZFNOLFKSA-N
CAS: 472-15-1
Molecular Weight: 456.709
Number of References: 4764
Class: Lupane triterpenoids
Superclass: Triterpenoids
Pathway: Terpenoids
ppm: -1.41999999999598
CMID: CM243
IONMODE: Negative
COLLISIONENERGY: 40±20eV
INSTRUMENTTYPE: AB SCIEX
INSTRUMENT: Q-TOF
Comment:  
Num Peaks: 50
455.353	22529.0
455.31122	49.0
380.19958	24.0
411.3288	22.0
453.85803	17.0
302.35739	16.0
324.67831	13.0
326.21704	13.0
328.30392	13.0
331.20963	13.0
332.19055	13.0
335.7088	13.0
337.20865	13.0
339.97464	13.0
349.15598	13.0
342.56522	13.0
319.23306	13.0
367.11035	13.0
391.92868	13.0
393.21701	13.0
395.19827	13.0
423.21072	13.0
449.06201	13.0
323.1221	13.0
320.60278	13.0
296.26343	13.0
303.57953	13.0
251.70053	13.0
290.88254	13.0
292.54172	13.0
293.14835	13.0
317.52768	13.0
298.41302	13.0
252.9839	13.0
299.89337	13.0
304.44348	13.0
305.88904	13.0
307.0668	13.0
310.46008	13.0
312.10318	13.0
313.20444	13.0
315.16586	13.0
268.14154	13.0
214.11761	12.0
237.34908	12.0
205.54027	12.0
407.32669	12.0
278.19373	12.0
372.04269	12.0
153.28365	12.0

MSID: 9091
ID: 277
RETENTIONTIME: 27.40953
PRECURSORMZ: 343.1551
AREA: 1119382.5
PRECURSORTYPE: [M-H]-
SMILES: [H][C@]12CCC=C3C(=O)OC[C@@]13CC(=O)[C@@H](C)[C@]2(C)CCC1=CCOC1=O
NAME: 7-keto-ent-clerodan-3,13-dien-18,19:16,15-diolide
FORMULA: C20H24O5
INCHIKEY: JUGXEOXLYIYYCQ-WWIODWGFSA-N
CAS: nan
Molecular Weight: 344.408
Number of References: 3
Class: Colensane and Clerodane diterpenoids
Superclass: Diterpenoids
Pathway: Terpenoids
ppm: 0.550000000032469
CMID: CM243
IONMODE: Negative
COLLISIONENERGY: 40±20eV
INSTRUMENTTYPE: AB SCIEX
INSTRUMENT: Q-TOF
Comment:  
Num Peaks: 303
328.05762	8358.0
313.03488	6610.0
270.01801	5324.0
298.0108	4843.0
285.04007	2481.0
343.08228	1227.0
295.13376	1147.0
214.0275	1095.0
343.15302	1069.0
198.03313	854.0
269.00839	847.0
242.02177	846.0
281.15326	827.0
284.03244	609.0
343.10947	599.0
299.16486	548.0
170.03592	520.0
257.00919	470.0
226.02765	420.0
132.02205	373.0
343.13486	343.0
136.98836	326.0
265.08612	315.0
182.03697	306.0
267.03006	298.0
256.03677	296.0
112.98837	294.0
241.01582	274.0
312.0256	254.0
186.03297	252.0
229.01288	248.0
254.02408	222.0
315.12268	222.0
65.00369	215.0
213.01868	210.0
59.01373	208.0
165.98938	184.0
297.14926	183.0
169.12158	180.0
211.03949	171.0
133.02988	160.0
325.14285	157.0
171.10129	154.0
200.01144	151.0
213.05441	149.0
142.04402	142.0
183.04382	141.0
243.10007	141.0
185.02324	132.0
110.00011	129.0
257.02646	124.0
241.04927	122.0
300.05984	121.0
239.03441	114.0
197.02567	113.0
255.02708	113.0
265.12439	111.0
283.1337	110.0
172.01581	110.0
283.02332	110.0
227.03432	109.0
169.02608	103.0
210.03206	101.0
267.10046	100.0
174.03171	98.0
327.04916	94.0
89.00323	94.0
213.03154	93.0
223.70747	92.0
216.08109	90.0
279.10284	89.0
242.01263	88.0
280.11154	88.0
313.1423	87.0
211.13339	87.0
206.06021	87.0
201.01678	87.0
269.04532	87.0
266.13147	86.0
158.03877	84.0
225.09227	84.0
201.09177	80.0
256.98093	77.0
84.99279	76.0
253.01215	74.0
144.02213	73.0
265.10526	73.0
195.04442	72.0
315.14874	71.0
186.04765	70.0
145.02869	69.0
215.5905	68.0
251.03313	67.0
240.0423	67.0
219.33064	66.0
241.08424	66.0
299.08527	66.0
177.01959	66.0
223.0386	65.0
153.12738	64.0
229.08401	64.0
173.01779	63.0
212.52301	63.0
229.11662	62.0
287.16855	60.0
256.10886	60.0
127.5342	60.0
281.11877	60.0
237.09285	59.0
255.10216	58.0
250.06433	56.0
164.98158	56.0
295.02274	56.0
226.06299	54.0
202.02603	54.0
147.04402	53.0
201.11537	53.0
282.01266	53.0
253.12119	52.0
299.05984	52.0
227.07269	52.0
101.02351	52.0
199.03763	52.0
166.94962	51.0
77.0411	51.0
187.03874	49.0
193.12627	49.0
231.10124	48.0
266.09952	48.0
141.03394	48.0
231.06848	48.0
105.03607	47.0
268.10971	46.0
135.04454	46.0
183.13658	46.0
310.08603	45.0
290.25348	45.0
212.1192	45.0
178.99638	45.0
228.07724	45.0
252.11261	44.0
300.04965	44.0
163.0027	44.0
69.03246	44.0
167.04959	44.0
297.04294	43.0
215.06886	42.0
82.00683	42.0
269.08228	42.0
183.36061	42.0
151.00446	42.0
72.99315	42.0
130.04243	42.0
198.01796	41.0
166.22917	41.0
181.0184	40.0
295.10181	40.0
200.08347	40.0
161.02457	39.0
149.0589	39.0
207.6729	39.0
89.01802	39.0
185.03789	39.0
281.01041	38.0
297.00919	38.0
238.09966	38.0
237.02048	38.0
133.02536	37.0
154.04366	37.0
309.03674	37.0
325.03162	37.0
114.04738	37.0
123.00446	36.0
146.03639	36.0
242.08882	36.0
251.09518	35.0
203.07271	35.0
226.10274	35.0
283.09744	35.0
251.10916	35.0
282.10312	35.0
272.06711	34.0
225.01587	34.0
311.02484	34.0
226.01292	34.0
171.0462	34.0
185.05788	33.0
104.02686	33.0
282.08502	33.0
225.30241	33.0
276.5451	33.0
195.57817	33.0
73.03081	33.0
325.1199	33.0
222.67168	33.0
267.11807	32.0
289.18002	32.0
284.01926	32.0
213.99886	32.0
314.12216	32.0
271.13269	32.0
198.43849	32.0
230.093	32.0
175.04341	32.0
255.0177	31.0
149.99292	31.0
137.99538	31.0
272.10748	31.0
215.04015	31.0
150.62924	31.0
224.12656	30.0
269.13046	30.0
108.99282	30.0
273.07596	30.0
259.09985	30.0
211.03236	30.0
119.00595	29.0
139.00378	29.0
264.07782	29.0
187.08026	29.0
241.12529	29.0
238.02562	29.0
229.04401	29.0
213.09158	29.0
132.01192	28.0
281.08594	28.0
267.05246	28.0
297.1189	28.0
188.27962	28.0
311.98581	28.0
178.06346	28.0
257.0563	28.0
71.01385	27.0
271.02304	27.0
155.04678	27.0
120.99156	27.0
139.52266	27.0
159.04617	26.0
201.05705	26.0
255.13969	26.0
299.05478	26.0
57.03481	25.0
209.02138	25.0
111.08221	25.0
227.01956	25.0
240.99757	25.0
66.00868	25.0
184.05214	24.0
254.05217	24.0
279.99683	24.0
184.01627	24.0
196.05093	24.0
263.10638	24.0
310.11707	23.0
297.24042	23.0
242.06139	22.0
125.10078	22.0
284.14798	22.0
307.19577	22.0
222.05981	22.0
297.09525	22.0
209.11342	21.0
252.03798	21.0
314.10654	21.0
218.41069	20.0
245.04456	20.0
279.13394	20.0
129.03154	20.0
129.09161	20.0
295.06143	20.0
137.98962	19.0
180.004	19.0
239.14041	19.0
151.11278	19.0
327.02792	19.0
216.10988	19.0
199.1012	18.0
135.00699	18.0
107.00733	18.0
152.01335	17.0
228.03879	17.0
83.05124	17.0
257.1568	16.0
78.95848	16.0
233.34415	15.0
59.00847	15.0
281.8844	15.0
325.23822	13.0
343.20923	13.0
293.04465	13.0
261.12936	13.0
191.35574	13.0
155.11142	13.0
142.12807	13.0
135.1151	13.0
130.93846	13.0
124.01878	13.0
119.05189	13.0
92.99844	12.0
85.06413	12.0
73.19492	12.0
67.06066	12.0
55.27367	12.0

MSID: 9092
ID: 621
RETENTIONTIME: 36.35445
PRECURSORMZ: 343.1544
AREA: 1099437.875
PRECURSORTYPE: [M-H]-
SMILES: [H][C@]12C(=O)OC3=C(C(C=O)=CC(C(C)C)=C3O)[C@]1(CCCC2(C)C)C=O
NAME: safficinolide
FORMULA: C20H24O5
INCHIKEY: VBEKTSBYXBBXEO-XLIONFOSSA-N
CAS: nan
Molecular Weight: 344.408
Number of References: 3
Class: Secoabietane diterpenoids
Superclass: Diterpenoids
Pathway: Terpenoids
ppm: -0.14999999996234692
CMID: CM243
IONMODE: Negative
COLLISIONENERGY: 40±20eV
INSTRUMENTTYPE: AB SCIEX
INSTRUMENT: Q-TOF
Comment:  
Num Peaks: 104
343.15445	5692.0
315.15714	3670.0
287.1633	1798.0
299.16626	328.0
271.13403	268.0
269.15591	251.0
201.05548	243.0
216.078	236.0
229.08528	230.0
215.06866	183.0
231.09953	178.0
243.06624	175.0
259.16898	171.0
243.10136	171.0
231.0638	134.0
244.07494	116.0
219.06512	96.0
188.04573	93.0
257.12042	87.0
203.06833	83.0
187.03859	79.0
230.09279	74.0
188.08333	72.0
217.08682	69.0
254.12685	67.0
325.14252	65.0
315.12061	61.0
243.138	60.0
241.08705	58.0
272.14438	57.0
244.10707	56.0
256.10861	56.0
299.14761	54.0
297.14728	54.0
191.0685	51.0
229.05119	49.0
325.13544	49.0
281.15134	46.0
187.04796	45.0
269.13983	45.0
218.05606	43.0
257.07959	43.0
227.06952	42.0
163.07509	41.0
271.16949	40.0
185.09502	40.0
204.07993	40.0
215.10457	40.0
214.09895	40.0
258.08704	39.0
284.14276	39.0
285.14893	39.0
201.08464	39.0
175.03938	37.0
161.06172	37.0
213.09138	36.0
343.11636	36.0
240.07849	36.0
199.07614	36.0
216.04059	36.0
179.0683	35.0
241.11899	35.0
216.11111	35.0
190.06273	35.0
253.12094	35.0
281.11685	33.0
259.09802	33.0
158.03865	33.0
255.14101	33.0
200.08189	32.0
214.06169	32.0
203.03206	31.0
173.06015	31.0
299.12561	31.0
164.07956	29.0
160.05415	29.0
283.12848	27.0
287.1301	27.0
242.0901	27.0
258.16098	26.0
315.09106	26.0
202.06065	25.0
217.04643	24.0
254.11281	24.0
285.12909	24.0
267.06659	23.0
201.03882	23.0
212.19318	23.0
343.18347	23.0
226.06131	22.0
213.05136	22.0
246.05403	22.0
178.05939	22.0
199.03607	21.0
298.14914	20.0
223.07497	20.0
243.1716	20.0
171.04607	20.0
244.04892	18.0
328.13177	17.0
325.11426	13.0
281.07745	13.0
259.90887	12.0
337.18884	12.0

MSID: 9093
ID: 501
RETENTIONTIME: 31.9099
PRECURSORMZ: 361.1645
AREA: 1098966.5
PRECURSORTYPE: [M+FA-H]-
SMILES: [H][C@]12CC[C@@]3(OC(=O)C(C)=C3)C3=CC(=O)OC[C@@]13CCCC2(C)C
NAME: epi-castanolide
FORMULA: C19H24O4
INCHIKEY: CMUMLTURMRRALD-VMDGZTHMSA-N
CAS: nan
Molecular Weight: 316.397
Number of References: 1
Class: Secoabietane diterpenoids
Superclass: Diterpenoids
Pathway: Terpenoids
ppm: -0.61500000003889
CMID: CM243
IONMODE: Negative
COLLISIONENERGY: 40±20eV
INSTRUMENTTYPE: AB SCIEX
INSTRUMENT: Q-TOF
Comment:  
Num Peaks: 229
361.16449	2221.0
209.08226	2168.0
274.15799	1560.0
150.06729	1316.0
285.14917	936.0
315.15738	828.0
301.14301	764.0
317.17725	686.0
313.14398	494.0
333.17136	366.0
229.08548	352.0
151.07547	338.0
331.1528	308.0
289.17999	288.0
285.11279	276.0
343.15475	274.0
302.15329	270.0
259.09668	265.0
315.19565	264.0
300.09882	256.0
329.13684	254.0
243.13821	248.0
259.13135	212.0
258.16119	211.0
269.11758	203.0
257.15833	189.0
219.06531	182.0
203.03502	175.0
259.17233	174.0
257.08295	170.0
227.06972	161.0
149.0601	161.0
258.08725	155.0
247.16763	152.0
241.12526	152.0
245.08133	151.0
285.13925	144.0
299.16479	144.0
270.12418	131.0
284.13968	130.0
209.07234	126.0
242.09488	122.0
213.05583	121.0
181.08691	120.0
300.13782	119.0
311.12668	119.0
232.07137	118.0
166.06003	115.0
293.21393	115.0
177.05478	114.0
231.06252	109.0
240.07869	108.0
246.12337	106.0
161.09665	105.0
255.10056	105.0
217.04805	104.0
231.09973	101.0
179.07237	101.0
298.11896	100.0
243.06645	98.0
297.11209	95.0
214.06331	93.0
215.06885	92.0
241.16176	92.0
230.09595	91.0
287.12866	91.0
231.13695	91.0
330.14316	90.0
243.10156	84.0
285.07806	84.0
233.08093	82.0
273.15359	81.0
218.09239	81.0
133.10106	80.0
268.06958	79.0
233.11681	77.0
150.06129	76.0
286.12067	76.0
253.04794	75.0
215.03438	74.0
199.07631	70.0
257.12064	68.0
193.05006	68.0
287.16519	68.0
201.08759	67.0
218.06058	66.0
194.05823	65.0
135.04568	63.0
217.08846	61.0
175.0771	60.0
246.16025	59.0
203.10619	58.0
271.13748	58.0
299.12924	56.0
151.03937	56.0
225.05846	54.0
229.04991	54.0
189.0894	54.0
318.10922	53.0
259.12189	53.0
243.0298	53.0
136.05127	52.0
214.09912	51.0
173.06158	51.0
361.20358	50.0
203.07129	49.0
245.15031	49.0
283.13199	48.0
187.07356	47.0
333.14813	46.0
225.12604	46.0
177.09256	45.0
175.11079	45.0
186.06903	44.0
121.06807	43.0
241.15112	43.0
209.05394	42.0
197.06276	42.0
201.16675	42.0
189.02208	42.0
164.08347	42.0
285.07309	41.0
270.08878	41.0
244.10727	40.0
227.11104	40.0
267.14044	40.0
328.13205	40.0
233.07794	39.0
343.19104	39.0
219.103	39.0
283.10071	38.0
213.0887	38.0
283.17319	37.0
215.10907	37.0
175.03824	37.0
275.09113	37.0
273.11316	36.0
167.07239	36.0
187.03606	35.0
271.17618	35.0
245.04607	35.0
241.08574	34.0
229.15811	34.0
195.13879	34.0
275.05701	33.0
274.13043	33.0
313.11627	33.0
216.03932	33.0
163.07397	33.0
359.14624	33.0
191.07001	33.0
174.03171	32.0
269.14972	32.0
192.04179	32.0
244.07361	32.0
254.09584	32.0
221.04094	32.0
189.05977	31.0
199.039	31.0
269.08224	30.0
243.12141	30.0
190.09529	30.0
204.04092	30.0
161.06061	29.0
327.15891	29.0
205.08717	28.0
301.177	28.0
256.14487	28.0
252.11725	27.0
171.07951	27.0
205.04932	27.0
204.07729	27.0
272.10745	26.0
302.12946	26.0
333.11774	26.0
273.19083	26.0
246.08957	26.0
228.11716	26.0
286.11737	26.0
241.05228	26.0
200.04051	25.0
247.06604	25.0
260.1033	25.0
239.14189	25.0
148.05392	25.0
225.09224	25.0
286.14883	25.0
125.06245	25.0
133.06039	25.0
159.04617	24.0
312.13278	24.0
296.10355	24.0
299.09198	24.0
192.00108	24.0
75.00732	24.0
361.12915	23.0
165.05203	23.0
183.08224	23.0
318.14417	23.0
205.12645	23.0
287.08554	23.0
273.07593	23.0
195.13058	23.0
83.05216	23.0
275.20157	23.0
224.03859	23.0
317.12842	22.0
59.01151	22.0
254.13019	22.0
286.08423	22.0
211.04231	22.0
212.08496	22.0
303.0766	22.0
254.08647	22.0
234.01477	21.0
295.13202	21.0
137.0239	21.0
331.1243	21.0
220.03458	21.0
93.07214	21.0
81.03427	20.0
279.10117	20.0
178.05954	19.0
235.06007	19.0
204.03113	19.0
217.04083	19.0
188.98572	19.0
134.03363	14.0
338.50668	12.0

MSID: 9094
ID: 34
RETENTIONTIME: 10.95293
PRECURSORMZ: 537.1039
AREA: 1082917.25
PRECURSORTYPE: [M-H]-
SMILES: OC(=O)[C@@H](CC1=CC=C(O)C(O)=C1)OC(=O)\C=C\C1=C2[C@@H]([C@H](OC2=C(O)C=C1)C1=CC=C(O)C(O)=C1)C(O)=O
NAME: lithospermic acid
FORMULA: C27H22O12
INCHIKEY: UJZQBMQZMKFSRV-RGKBJLTCSA-N
CAS: nan
Molecular Weight: 538.464
Number of References: 79
Class: Neolignans
Superclass: Lignans
Pathway: Shikimates and Phenylpropanoids
ppm: 0.5949999999756983
CMID: CM243
IONMODE: Negative
COLLISIONENERGY: 40±20eV
INSTRUMENTTYPE: AB SCIEX
INSTRUMENT: Q-TOF
Comment:  
Num Peaks: 90
339.04953	5040.0
197.04509	2715.0
135.04468	1976.0
295.06168	1962.0
493.11374	1309.0
269.08249	1129.0
267.06546	1062.0
179.03455	1037.0
229.01308	904.0
313.06979	596.0
72.99325	398.0
159.04262	266.0
203.03381	236.0
277.05203	234.0
313.06458	204.0
293.04657	186.0
109.02975	177.0
157.02861	156.0
537.10138	133.0
123.04478	126.0
134.0383	126.0
339.02249	108.0
185.02475	107.0
266.05823	84.0
249.05281	82.0
254.05551	72.0
239.07246	69.0
267.05426	69.0
253.04663	69.0
294.05661	66.0
241.05099	63.0
240.04251	62.0
221.06007	60.0
383.07553	60.0
251.06902	58.0
238.0636	56.0
197.02446	51.0
147.04535	50.0
313.04898	49.0
265.05603	45.0
493.04636	41.0
229.03679	40.0
280.03638	39.0
266.05341	38.0
278.06192	37.0
239.03764	36.0
179.01883	36.0
158.0377	36.0
237.05536	35.0
107.05405	35.0
357.05994	34.0
145.03001	34.0
277.02759	33.0
225.04985	33.0
211.07239	32.0
251.06436	32.0
339.00989	32.0
186.03447	30.0
295.09363	29.0
254.05238	29.0
151.0383	28.0
223.53633	26.0
232.05518	26.0
119.58794	25.0
209.05838	25.0
269.04556	25.0
493.08548	24.0
294.99606	24.0
109.02055	23.0
375.06213	22.0
134.02922	22.0
228.98344	22.0
203.02264	22.0
177.06667	22.0
153.05484	22.0
383.05826	21.0
248.05083	20.0
133.02777	20.0
205.06635	19.0
337.02942	18.0
267.03506	18.0
123.02958	17.0
294.16745	17.0
252.07861	16.0
345.12796	15.0
173.02052	15.0
292.03323	13.0
280.03146	13.0
276.03421	13.0
139.72763	12.0

MSID: 9095
ID: 292
RETENTIONTIME: 27.76142
PRECURSORMZ: 375.1436
AREA: 1082407.375
PRECURSORTYPE: [M-H]-
SMILES: CC(C)C1=C(O)C2=C(C(O)=C1O)[C@@](C)(CC(O)=O)[C@@H](CC2=O)C(=C)C(C)=O
NAME: 11,12,14-trihydroxy-3,7-dione-2,3-seco-4(18),8,11,13-abietatetraen-2-oic acid
FORMULA: C20H24O7
INCHIKEY: VWUUQRGQZMDCGW-YBTHPKLGSA-N
CAS: nan
Molecular Weight: 376.406
Number of References: 1
Class: Secoabietane diterpenoids
Superclass: Diterpenoids
Pathway: Terpenoids
ppm: -0.7799999999633656
CMID: CM243
IONMODE: Negative
COLLISIONENERGY: 40±20eV
INSTRUMENTTYPE: AB SCIEX
INSTRUMENT: Q-TOF
Comment:  
Num Peaks: 157
375.14374	9480.0
287.16385	1844.0
275.16452	1632.0
331.15317	1523.0
313.14432	1006.0
303.16046	893.0
244.1106	687.0
259.17105	653.0
269.15161	345.0
232.11191	275.0
247.17099	256.0
219.067	233.0
285.14618	221.0
166.06274	185.0
232.0746	183.0
204.04254	167.0
244.10295	165.0
274.15503	156.0
243.1736	150.0
217.04973	139.0
187.04028	121.0
189.0546	118.0
218.05792	117.0
257.15231	117.0
165.05724	111.0
254.12891	110.0
213.0918	109.0
229.08276	107.0
178.06235	105.0
207.06532	98.0
275.14664	95.0
175.04102	94.0
206.05479	94.0
245.15211	94.0
272.14166	88.0
151.07443	87.0
243.1003	84.0
203.1064	80.0
179.07126	79.0
271.13293	77.0
231.10295	77.0
259.13162	77.0
203.03384	77.0
229.12427	76.0
216.07986	72.0
270.12607	67.0
137.05959	67.0
78.95947	66.0
242.13019	63.0
188.11995	62.0
204.07751	61.0
163.11041	60.0
298.11929	60.0
147.11545	59.0
347.14487	58.0
201.0892	58.0
257.11621	57.0
188.04878	57.0
241.15898	57.0
218.09842	57.0
260.13834	56.0
176.04655	55.0
244.14578	53.0
152.04613	53.0
217.0858	52.0
211.0966	52.0
260.10361	51.0
253.12456	49.0
343.15332	46.0
315.12643	45.0
206.09134	44.0
175.11229	43.0
201.05447	43.0
216.11298	41.0
273.14743	40.0
191.06886	40.0
139.04205	38.0
163.03664	38.0
242.09363	37.0
203.06734	36.0
230.09175	35.0
199.07652	35.0
286.15909	35.0
232.14323	35.0
137.0229	35.0
258.15991	34.0
269.11948	34.0
219.10033	34.0
301.14163	33.0
375.10391	33.0
192.08	33.0
217.12476	33.0
259.09854	33.0
244.07234	33.0
299.16342	32.0
227.11276	32.0
214.09506	32.0
225.16449	32.0
316.16684	31.0
151.03952	31.0
329.16919	30.0
331.11041	30.0
167.07004	30.0
211.07527	30.0
345.16986	29.0
229.15392	29.0
190.05905	28.0
295.13235	28.0
281.15186	28.0
287.13065	28.0
247.14326	27.0
293.30817	26.0
161.06451	26.0
329.22781	26.0
225.08955	26.0
280.11508	25.0
161.02475	25.0
231.06573	24.0
285.10812	24.0
213.159	24.0
245.08159	24.0
191.10677	24.0
191.03368	24.0
275.14014	24.0
185.09804	23.0
228.07747	23.0
226.10002	23.0
123.04589	23.0
267.13913	23.0
198.06778	23.0
313.1842	23.0
227.07292	22.0
81.03612	22.0
288.09058	22.0
160.05199	22.0
283.09772	22.0
241.12401	22.0
174.03448	21.0
251.14043	21.0
214.02629	21.0
113.06035	21.0
215.14377	21.0
188.0367	21.0
217.0656	21.0
331.08902	21.0
246.09138	20.0
83.05047	20.0
215.1768	20.0
158.0365	20.0
147.07744	20.0
241.07991	20.0
125.05712	20.0
135.04926	19.0
159.04388	18.0
303.18265	13.0
106.7139	12.0
309.90182	12.0

MSID: 9096
ID: 68
RETENTIONTIME: 12.94465
PRECURSORMZ: 717.1456
AREA: 1071751.0
PRECURSORTYPE: [M-H]-
SMILES: OC(=O)[C@@H](CC1=CC=C(O)C(O)=C1)OC(=O)\C=C\C1=C2[C@@H]([C@H](OC2=C(O)C=C1)C1=CC=C(O)C(O)=C1)C(=O)O[C@@H](CC1=CC=C(O)C(O)=C1)C(O)=O
NAME: lithospermic acid B
FORMULA: C36H30O16
INCHIKEY: SNKFFCBZYFGCQN-ZQDRKSDISA-N
CAS: nan
Molecular Weight: 718.625
Number of References: 8
Class: Neolignans
Superclass: Lignans
Pathway: Shikimates and Phenylpropanoids
ppm: 0.03500000002532033
CMID: CM243
IONMODE: Negative
COLLISIONENERGY: 40±20eV
INSTRUMENTTYPE: AB SCIEX
INSTRUMENT: Q-TOF
Comment:  
Num Peaks: 99
475.10187	4722.0
339.04962	4513.0
519.09442	4192.0
717.14764	3563.0
365.06497	2275.0
243.03011	1328.0
353.06693	1007.0
295.06006	698.0
229.01462	624.0
197.04514	428.0
321.07523	425.0
321.0419	306.0
537.10382	273.0
135.04471	242.0
717.12402	238.0
431.11295	223.0
335.05664	204.0
267.06555	183.0
493.11169	181.0
311.0545	173.0
253.0498	162.0
269.07935	155.0
313.07159	151.0
179.03328	149.0
109.02978	148.0
309.07495	127.0
366.07419	113.0
187.03897	108.0
221.04266	108.0
277.04883	99.0
215.03465	92.0
293.04831	92.0
491.10443	79.0
203.03665	68.0
338.04422	64.0
457.08786	63.0
337.03308	63.0
72.99243	59.0
241.04953	53.0
475.06985	49.0
157.02866	49.0
491.0849	48.0
159.04637	41.0
161.02353	40.0
717.08209	40.0
493.0769	37.0
475.03143	37.0
365.01822	35.0
307.05881	35.0
413.10107	35.0
255.02267	35.0
339.0929	34.0
162.02914	31.0
520.09448	31.0
338.98651	30.0
476.10562	30.0
295.03818	29.0
265.04813	29.0
340.05112	29.0
177.05238	28.0
294.04828	28.0
244.03873	27.0
537.05615	26.0
291.06351	26.0
313.056	26.0
322.04456	26.0
171.04257	25.0
354.06677	25.0
309.05429	25.0
501.07867	25.0
249.05441	25.0
383.07562	24.0
216.03815	24.0
475.14456	23.0
242.02205	23.0
493.00949	23.0
199.03925	22.0
72.99076	22.0
474.99942	22.0
555.16644	21.0
228.97757	21.0
321.00854	21.0
242.98582	20.0
185.0248	20.0
717.04279	20.0
306.05063	19.0
109.01649	19.0
281.07474	18.0
158.04021	17.0
717.00342	16.0
311.01651	16.0
195.04875	16.0
312.06915	15.0
403.11484	13.0
89.69947	12.0
506.98392	12.0
219.15109	12.0
181.24004	12.0
57.93105	12.0

MSID: 9097
ID: 145
RETENTIONTIME: 18.59417
PRECURSORMZ: 691.3468
AREA: 1052362.625
PRECURSORTYPE: [2M-H]-
SMILES: [H][C@@]12O[C@@H](O)[C@]3([H])[C@]1(CCCC3(C)C)C1=C(O2)C=C(C(C)C)C(O)=C1C=O
NAME: cariocal
FORMULA: C20H26O5
INCHIKEY: HXWRUXWCFMWHMA-XFKSJGNHSA-N
CAS: nan
Molecular Weight: 346.423
Number of References: 1
Class: Secoabietane diterpenoids
Superclass: Diterpenoids
Pathway: Terpenoids
ppm: -0.7124999999632564
CMID: CM243
IONMODE: Negative
COLLISIONENERGY: 40±20eV
INSTRUMENTTYPE: AB SCIEX
INSTRUMENT: Q-TOF
Comment:  
Num Peaks: 205
345.17184	65556.0
297.14966	6656.0
315.16135	1999.0
346.17322	315.0
257.11945	305.0
691.34088	280.0
217.08588	241.0
281.11914	193.0
255.14005	91.0
216.07994	70.0
232.16869	68.0
237.27567	65.0
327.15765	63.0
193.41924	63.0
235.03189	62.0
223.54083	62.0
282.80792	61.0
344.03748	61.0
61.98803	59.0
254.13368	57.0
691.38464	56.0
282.12491	55.0
250.2211	54.0
273.98007	52.0
228.29501	51.0
236.75552	50.0
230.25526	50.0
295.53134	50.0
260.79907	49.0
478.10367	48.0
359.07816	47.0
242.87447	46.0
267.10242	45.0
230.74887	44.0
317.17249	44.0
227.90308	44.0
233.03343	43.0
263.73932	43.0
347.17786	43.0
297.13278	42.0
298.14984	41.0
247.18648	41.0
344.02478	40.0
238.35995	40.0
645.11627	39.0
135.04472	39.0
300.27234	38.0
161.02231	38.0
483.28226	37.0
226.26064	37.0
253.12154	37.0
253.23529	37.0
225.70564	36.0
219.85916	36.0
199.87601	36.0
240.37956	35.0
234.56673	35.0
242.49919	34.0
645.10632	34.0
241.08609	33.0
225.97791	33.0
299.01791	32.0
232.00308	32.0
247.61777	31.0
279.03125	31.0
229.70726	31.0
246.65714	31.0
227.35493	31.0
257.94135	30.0
252.07098	30.0
231.20876	30.0
192.32851	30.0
197.04517	30.0
478.09937	30.0
315.12659	30.0
213.09044	29.0
227.6666	29.0
262.38452	29.0
352.61087	28.0
232.41644	28.0
691.19153	27.0
253.13245	27.0
229.06802	27.0
314.10526	27.0
247.99852	26.0
344.66806	26.0
230.84706	26.0
219.10042	25.0
241.90176	25.0
285.04211	25.0
239.06956	25.0
249.23224	24.0
477.10208	24.0
346.47028	24.0
319.08157	23.0
346.155	23.0
483.25214	23.0
259.58276	23.0
179.03725	23.0
229.12138	23.0
239.39369	23.0
239.92126	22.0
272.10464	22.0
196.31866	22.0
691.13489	22.0
249.45181	21.0
243.07443	21.0
202.0625	21.0
267.09442	20.0
215.10219	20.0
208.19424	20.0
691.28168	20.0
238.21333	20.0
230.09332	20.0
529.08649	20.0
344.00116	19.0
299.1297	19.0
194.71933	19.0
254.34135	19.0
250.00429	18.0
241.36137	18.0
316.15829	17.0
190.74419	17.0
255.10406	17.0
279.13757	17.0
673.23627	17.0
239.77264	17.0
96.95802	17.0
191.85349	16.0
301.14349	15.0
267.69653	15.0
161.02727	15.0
480.25803	14.0
257.09903	14.0
475.4458	14.0
492.40109	14.0
501.31787	14.0
504.37903	14.0
529.19464	14.0
509.46112	14.0
520.95935	14.0
537.65344	14.0
628.12469	14.0
629.13385	14.0
641.22461	14.0
515.07306	14.0
655.04858	14.0
659.22577	14.0
665.0921	14.0
469.02127	13.0
417.10355	13.0
417.68176	13.0
423.12506	13.0
449.6879	13.0
451.25711	13.0
149.17749	13.0
163.08545	13.0
158.10056	13.0
156.07419	13.0
151.43939	13.0
400.25735	13.0
411.04578	13.0
177.0459	13.0
394.76907	13.0
322.16769	13.0
390.10547	13.0
307.91061	13.0
302.5437	13.0
209.95004	13.0
211.78587	13.0
214.06935	13.0
217.5175	13.0
221.5351	13.0
287.02957	13.0
235.47348	13.0
277.67355	13.0
275.0704	13.0
269.16296	13.0
264.15298	13.0
250.70154	13.0
205.90729	13.0
207.39526	13.0
329.33636	13.0
173.29636	13.0
381.98022	13.0
369.96869	13.0
170.23158	13.0
354.52588	13.0
171.77467	13.0
349.06345	13.0
337.3569	13.0
347.18698	13.0
181.95927	13.0
188.44519	13.0
341.08859	13.0
339.75516	13.0
605.18671	12.0
584.22943	12.0
109.65543	12.0
470.7258	12.0
557.12738	12.0
182.02136	12.0
438.5481	12.0
70.17881	12.0
57.94221	12.0

MSID: 9098
ID: 96
RETENTIONTIME: 14.71335
PRECURSORMZ: 197.0452
AREA: 1046737.0
PRECURSORTYPE: [M-H]-
SMILES: OC(CC1=CC=C(O)C(O)=C1)C(O)=O
NAME: danshensu
FORMULA: C9H10O5
INCHIKEY: PAFLSMZLRSPALU-UHFFFAOYSA-N
CAS: 23028-17-3
Molecular Weight: 198.175
Number of References: 222
Class: nan
Superclass: nan
Pathway: Shikimates and Phenylpropanoids
ppm: 0.1999999999782176
CMID: CM243
IONMODE: Negative
COLLISIONENERGY: 40±20eV
INSTRUMENTTYPE: AB SCIEX
INSTRUMENT: Q-TOF
Comment:  
Num Peaks: 8
135.04596	72.0
72.99081	59.0
123.04383	40.0
134.03731	33.0
179.03474	27.0
130.98805	21.0
68.43266	12.0
77.04301	12.0

MSID: 9099
ID: 578
RETENTIONTIME: 33.71045
PRECURSORMZ: 345.206
AREA: 1045941.4375
PRECURSORTYPE: [M-H]-
SMILES: [H][C@@]12CCC3=C(C(O)=C(O)C(=C3)C(C)C)[C@]1(CCCC2(C)C)C(=O)OC
NAME: methyl carnosate
FORMULA: C21H30O4
INCHIKEY: IIJLVJMZYPZQLW-YCRPNKLZSA-N
CAS: 82684-06-8
Molecular Weight: 346.467
Number of References: 21
Class: Abietane diterpenoids
Superclass: Diterpenoids
Pathway: Terpenoids
ppm: -0.5849999999441025
CMID: CM243
IONMODE: Negative
COLLISIONENERGY: 40±20eV
INSTRUMENTTYPE: AB SCIEX
INSTRUMENT: Q-TOF
Comment:  
Num Peaks: 91
345.20596	28721.0
216.11424	1612.0
285.18564	979.0
201.09181	484.0
313.18048	480.0
215.10626	291.0
315.15747	262.0
203.10764	249.0
283.13208	197.0
229.1226	173.0
283.16998	168.0
301.18219	155.0
269.11765	152.0
217.12459	146.0
329.1778	140.0
285.14926	110.0
298.15793	108.0
330.1842	107.0
269.15784	100.0
214.0992	79.0
255.1413	78.0
267.14053	75.0
241.11926	72.0
330.17706	68.0
297.14761	63.0
242.12848	63.0
229.08554	61.0
299.20554	60.0
299.1615	56.0
253.12434	56.0
271.17303	55.0
200.08351	53.0
187.07629	49.0
268.10654	44.0
227.10667	43.0
317.16687	42.0
243.1398	42.0
287.16528	39.0
270.12427	38.0
202.09987	37.0
301.13971	36.0
257.15054	35.0
227.09634	33.0
344.0643	33.0
295.17249	31.0
189.09215	31.0
255.09595	31.0
267.17572	30.0
228.11426	29.0
315.12793	29.0
240.1167	29.0
345.17502	27.0
329.14404	26.0
244.1456	26.0
216.07538	26.0
226.11899	26.0
299.13611	25.0
239.14499	25.0
261.10724	25.0
231.10129	25.0
230.58054	25.0
259.13458	24.0
199.07637	24.0
231.14148	24.0
163.07652	23.0
344.04611	23.0
270.16611	23.0
279.13724	23.0
298.13596	22.0
229.06628	22.0
229.57344	22.0
257.11758	22.0
313.15274	21.0
239.09503	21.0
243.08026	21.0
183.08098	21.0
265.12283	20.0
227.47871	19.0
230.09305	19.0
201.05571	19.0
186.07042	19.0
159.04251	19.0
161.06065	19.0
232.14455	18.0
176.0815	18.0
212.08788	17.0
204.07596	17.0
238.46098	17.0
253.11189	17.0
172.05312	13.0
53.87535	12.0

MSID: 9100
ID: 539
RETENTIONTIME: 32.72467
PRECURSORMZ: 299.2017
AREA: 1034326.1875
PRECURSORTYPE: [M-H]-
SMILES: [H][C@@]12CC(=O)C3=C(C=C(O)C(=C3)C(C)C)[C@@]1(C)CCCC2(C)C
NAME: (+)-sugiol
FORMULA: C20H28O2
INCHIKEY: IPEHJNRNYPOFII-AZUAARDMSA-N
CAS: 511-05-7
Molecular Weight: 300.441
Number of References: 153
Class: Abietane diterpenoids
Superclass: Diterpenoids
Pathway: Terpenoids
ppm: 0.5950000000325417
CMID: CM243
IONMODE: Negative
COLLISIONENERGY: 40±20eV
INSTRUMENTTYPE: AB SCIEX
INSTRUMENT: Q-TOF
Comment:  
Num Peaks: 39
299.2019	17872.0
227.10648	4808.0
283.16809	509.0
213.08858	223.0
269.15439	198.0
241.12361	184.0
215.10606	176.0
284.17749	108.0
228.11554	98.0
214.099	95.0
184.05069	94.0
200.08334	71.0
211.07492	69.0
201.09163	59.0
299.16632	56.0
185.05777	45.0
255.13638	44.0
268.1496	40.0
226.09964	34.0
225.09064	34.0
183.04372	32.0
199.07758	29.0
256.14316	26.0
199.90884	24.0
267.14188	24.0
297.16254	23.0
281.15631	23.0
213.06714	23.0
298.23038	23.0
152.69016	22.0
185.09373	22.0
228.64534	22.0
157.06273	22.0
239.10541	21.0
244.14079	20.0
227.07549	19.0
283.14172	18.0
298.20502	18.0
253.93182	12.0

MSID: 9101
ID: 526
RETENTIONTIME: 32.48158
PRECURSORMZ: 343.1546
AREA: 1010769.0625
PRECURSORTYPE: [M-H]-
SMILES: CC(C)C1=C(O)C(=O)[C@@]23O[C@@]2(C(=O)C=C2C(C)(C)CCC[C@]32C)C1=O
NAME: 8α,9α-epoxy-6-deoxycoleon U
FORMULA: C20H24O5
INCHIKEY: SUQKGPKQQJGMMG-UFYCRDLUSA-N
CAS: nan
Molecular Weight: 344.408
Number of References: 2
Class: Abeoabietane diterpenoids
Superclass: Diterpenoids
Pathway: Terpenoids
ppm: 0.05000000004429239
CMID: CM243
IONMODE: Negative
COLLISIONENERGY: 40±20eV
INSTRUMENTTYPE: AB SCIEX
INSTRUMENT: Q-TOF
Comment:  
Num Peaks: 112
299.16473	12517.0
343.15466	5765.0
271.16965	1405.0
315.15903	702.0
283.13193	452.0
281.15475	411.0
284.14127	397.0
287.16345	334.0
242.09482	285.0
253.15848	215.0
243.09998	204.0
269.15445	183.0
265.12268	159.0
269.11591	145.0
256.14636	137.0
216.07669	125.0
343.14014	119.0
297.14746	116.0
266.12817	104.0
215.10757	102.0
315.13992	101.0
215.0731	97.0
255.13646	88.0
251.1044	86.0
227.18182	85.0
299.1427	80.0
229.08394	75.0
241.1252	75.0
227.06966	75.0
343.17822	75.0
225.1627	71.0
225.09218	69.0
187.07484	67.0
200.0834	66.0
201.0542	61.0
211.11197	59.0
241.09023	58.0
259.17068	56.0
183.11798	56.0
253.12576	54.0
231.10265	52.0
243.06485	51.0
298.14932	48.0
255.10518	47.0
271.13419	46.0
282.12604	45.0
202.09697	45.0
244.0766	44.0
268.11118	43.0
244.10873	42.0
137.02386	40.0
187.03735	40.0
343.12744	40.0
200.04877	40.0
230.09441	36.0
267.10355	36.0
281.13507	35.0
185.05782	34.0
213.05292	33.0
213.09007	33.0
164.08215	32.0
315.1347	32.0
280.14255	32.0
231.06841	32.0
188.04852	32.0
257.07974	31.0
325.14624	31.0
199.07349	30.0
299.10883	29.0
214.10767	29.0
243.17326	28.0
197.1342	28.0
188.08478	28.0
83.04857	28.0
283.16653	27.0
284.12146	26.0
229.04391	26.0
300.09872	26.0
299.1207	25.0
215.02858	25.0
216.04071	25.0
227.11392	25.0
240.0771	25.0
255.17088	25.0
257.11429	25.0
219.06525	25.0
328.13019	24.0
211.14897	24.0
239.10699	24.0
217.35396	23.0
212.11627	23.0
270.12411	23.0
296.14389	23.0
225.12598	22.0
266.1138	22.0
297.1272	22.0
209.05812	22.0
238.1026	22.0
238.1313	22.0
315.52945	21.0
191.0686	20.0
152.04713	20.0
287.12363	20.0
210.06606	20.0
281.11536	20.0
279.14691	20.0
231.06096	19.0
240.06952	19.0
283.08908	18.0
271.09387	17.0
189.8253	16.0
71.04852	12.0

MSID: 9102
ID: 358
RETENTIONTIME: 29.53265
PRECURSORMZ: 331.1548
AREA: 998106.375
PRECURSORTYPE: [M-H]-
SMILES: [H][C@@]12C[C@@]3([H])C(C)(C)CCC[C@]3(CO1)C(=CC(O)=O)[C@]21OC(=O)C(C)=C1
NAME: salvialba acid
FORMULA: C19H24O5
INCHIKEY: FQPIFAKBVLAUIK-ZCFKWTISSA-N
CAS: nan
Molecular Weight: 332.397
Number of References: 1
Class: Secoabietane diterpenoids
Superclass: Diterpenoids
Pathway: Terpenoids
ppm: 0.2500000000509317
CMID: CM243
IONMODE: Negative
COLLISIONENERGY: 40±20eV
INSTRUMENTTYPE: AB SCIEX
INSTRUMENT: Q-TOF
Comment:  
Num Peaks: 97
243.17499	9821.0
287.16534	6855.0
331.11737	653.0
269.15469	490.0
331.194	414.0
301.17886	319.0
331.14764	306.0
283.17007	290.0
173.09647	246.0
227.14363	198.0
201.09187	193.0
188.11986	162.0
260.06555	149.0
254.1319	131.0
228.14983	128.0
259.06213	124.0
231.06711	110.0
313.10605	94.0
267.13898	85.0
213.12743	80.0
227.03442	77.0
285.1113	77.0
161.02591	77.0
173.06297	75.0
253.12131	73.0
214.09781	72.0
215.03307	71.0
87.04454	68.0
187.07635	65.0
313.17709	64.0
243.06201	63.0
268.14828	61.0
172.05316	54.0
313.14417	53.0
215.10344	53.0
217.04674	50.0
331.24747	50.0
188.08495	49.0
201.05438	48.0
245.04161	47.0
287.09235	44.0
216.07687	42.0
230.05746	40.0
270.05029	39.0
260.04977	37.0
232.073	37.0
199.07504	35.0
200.08218	35.0
228.04333	35.0
215.07184	35.0
165.09364	35.0
269.1322	34.0
275.16437	34.0
241.11932	33.0
227.06837	33.0
281.155	33.0
303.16031	32.0
133.02545	31.0
299.16327	31.0
227.10822	29.0
165.08986	28.0
269.08398	26.0
225.12616	26.0
301.15848	26.0
243.04979	26.0
188.06479	25.0
254.11784	25.0
145.73013	25.0
243.12308	25.0
331.0835	24.0
226.10284	24.0
157.08623	24.0
211.06946	24.0
244.07069	23.0
255.13512	23.0
285.19067	23.0
145.02878	22.0
135.04121	22.0
217.12032	22.0
247.17239	22.0
229.04411	22.0
287.10892	21.0
216.03944	21.0
288.06549	21.0
252.11118	21.0
164.08481	21.0
174.10675	21.0
239.07237	21.0
298.16141	20.0
257.12549	20.0
240.11525	20.0
212.07794	19.0
171.07704	19.0
205.0943	19.0
186.06779	19.0
104.60204	12.0
83.31211	12.0

MSID: 9103
ID: 256
RETENTIONTIME: 26.52407
PRECURSORMZ: 343.155
AREA: 967847.125
PRECURSORTYPE: [M-H]-
SMILES: [H][C@]12CCC=C3C(=O)OC[C@@]13CC=C(CO)[C@]2(C)C[C@@H](O)C1=COC=C1
NAME: (5S,9R,10R,12R)-12,17-dihydroxy-15,16-epoxy-neo-cleroda-3,7,13(16),14-tetraen-18,19-olide
FORMULA: C20H24O5
INCHIKEY: PIRXQBQYQNZNDZ-IZBJGVDFSA-N
CAS: nan
Molecular Weight: 344.408
Number of References: 2
Class: Colensane and Clerodane diterpenoids
Superclass: Diterpenoids
Pathway: Terpenoids
ppm: 0.4500000000007276
CMID: CM243
IONMODE: Negative
COLLISIONENERGY: 40±20eV
INSTRUMENTTYPE: AB SCIEX
INSTRUMENT: Q-TOF
Comment:  
Num Peaks: 81
343.15506	14078.0
216.07982	457.0
229.08717	366.0
313.14255	359.0
327.12378	258.0
231.10291	170.0
256.07458	145.0
214.06349	141.0
297.11066	140.0
295.13229	134.0
150.06863	134.0
283.09601	123.0
298.11923	117.0
270.09384	115.0
270.12604	106.0
242.05853	105.0
255.10548	105.0
269.11783	102.0
151.07561	89.0
256.11063	86.0
215.07048	69.0
257.11615	68.0
280.10846	64.0
269.08249	62.0
311.12695	62.0
213.05745	61.0
328.13058	59.0
201.05722	57.0
315.1629	54.0
343.11697	51.0
155.10547	46.0
201.09193	42.0
252.11436	41.0
165.09244	41.0
228.07446	38.0
201.10999	38.0
343.08795	37.0
267.13589	36.0
240.0789	34.0
297.1478	34.0
271.13129	32.0
203.07288	32.0
257.0816	31.0
230.09616	29.0
199.03918	29.0
59.01758	28.0
283.13391	26.0
312.13135	26.0
343.19861	26.0
179.07123	26.0
213.10892	26.0
226.06317	25.0
149.05785	25.0
299.12781	25.0
217.08575	25.0
287.16544	25.0
253.08556	25.0
241.08748	24.0
238.09834	24.0
253.1245	24.0
178.06493	24.0
295.09698	24.0
252.07704	24.0
147.04416	23.0
153.10088	23.0
342.03671	22.0
251.09694	22.0
254.09296	22.0
282.08853	22.0
230.08577	21.0
125.102	21.0
273.14737	20.0
227.07434	20.0
265.09271	19.0
214.02625	18.0
245.08002	18.0
298.09894	17.0
187.07909	13.0
307.1651	13.0
147.22708	13.0
55.57485	12.0

MSID: 9104
ID: 302
RETENTIONTIME: 28.07012
PRECURSORMZ: 373.1644
AREA: 967791.8125
PRECURSORTYPE: [M-H]-
SMILES: [H][C@@]12CC[C@@]3(C)C(=CC[C@H](O)[C@]3([H])[C@@]1(C)C[C@H](OC2=O)C1=COC=C1)C(=O)OC
NAME: Salvinorin F
FORMULA: C21H26O6
INCHIKEY: GFUASHMLKMINGK-KZVLABISSA-N
CAS: nan
Molecular Weight: 374.434
Number of References: 7
Class: Colensane and Clerodane diterpenoids
Superclass: Diterpenoids
Pathway: Terpenoids
ppm: -0.7149999999569445
CMID: CM243
IONMODE: Negative
COLLISIONENERGY: 40±20eV
INSTRUMENTTYPE: AB SCIEX
INSTRUMENT: Q-TOF
Comment:  
Num Peaks: 100
297.14957	12988.0
373.16434	5076.0
255.1384	1298.0
281.11905	803.0
343.15332	617.0
241.08601	616.0
267.10074	484.0
282.12479	475.0
213.09181	450.0
254.12892	407.0
215.10645	276.0
253.12302	203.0
240.11539	182.0
198.06779	137.0
254.09459	137.0
239.10735	125.0
314.15372	122.0
299.16345	116.0
315.15775	109.0
313.14435	102.0
214.09938	86.0
269.15485	86.0
327.1221	84.0
230.09474	78.0
226.06323	72.0
279.13586	72.0
229.08426	70.0
199.07793	70.0
226.09857	65.0
200.08092	64.0
241.12402	61.0
239.06798	57.0
187.07646	56.0
296.146	53.0
201.09338	51.0
211.07387	51.0
172.05199	46.0
297.11749	44.0
373.13217	43.0
343.04269	43.0
267.08795	43.0
225.08957	42.0
281.15518	41.0
296.1713	40.0
224.08282	40.0
341.13547	40.0
358.06366	39.0
197.05887	36.0
265.12466	35.0
264.1163	35.0
225.16156	34.0
329.1781	32.0
238.10143	32.0
329.10168	31.0
257.15863	31.0
237.12326	30.0
285.14618	30.0
231.09999	29.0
296.13422	28.0
255.11493	27.0
236.12303	27.0
298.15988	26.0
242.09059	26.0
272.10455	25.0
252.08023	25.0
255.09929	25.0
193.10335	25.0
217.08727	25.0
269.08575	24.0
227.06998	24.0
271.09909	24.0
255.07739	24.0
185.09406	24.0
253.15573	24.0
210.06494	24.0
283.13397	24.0
285.004	24.0
325.14316	24.0
225.05431	24.0
228.07896	23.0
240.07896	22.0
221.03537	22.0
241.05713	22.0
188.08774	22.0
281.09277	21.0
251.07217	21.0
212.08092	21.0
238.06516	21.0
287.16718	21.0
244.08002	21.0
265.08002	21.0
133.91931	20.0
97.06219	20.0
223.07541	19.0
313.09412	19.0
301.13486	19.0
207.50664	18.0
175.0786	18.0
246.28654	17.0
84.63849	12.0

MSID: 9105
ID: 80
RETENTIONTIME: 13.60818
PRECURSORMZ: 719.1614
AREA: 964725.25
PRECURSORTYPE: [M-H]-
SMILES: OC(=O)C(CC1=CC=C(O)C(O)=C1)OC(=O)[C@H]1[C@@H]([C@@H]([C@H]1C1=CC(O)=C(O)C=C1)C1=CC(O)=C(O)C=C1)C(=O)OC(CC1=CC=C(O)C(O)=C1)C(O)=O
NAME: sagerinic acid
FORMULA: C36H32O16
INCHIKEY: SUYLTDFWHNXGDX-JMCFDMAJSA-N
CAS: nan
Molecular Weight: 720.64
Number of References: 1
Class: Neolignans
Superclass: Lignans
Pathway: Shikimates and Phenylpropanoids
ppm: 0.18499999998766725
CMID: CM243
IONMODE: Negative
COLLISIONENERGY: 40±20eV
INSTRUMENTTYPE: AB SCIEX
INSTRUMENT: Q-TOF
Comment:  
Num Peaks: 77
161.02487	11448.0
719.15833	7477.0
359.07639	7394.0
197.04526	2456.0
341.06516	864.0
179.03603	801.0
135.04366	548.0
133.02902	459.0
539.12134	444.0
495.12991	209.0
521.11145	190.0
315.08322	126.0
297.07382	126.0
255.06506	104.0
231.0287	93.0
323.05252	91.0
72.99248	83.0
187.03909	73.0
132.02118	71.0
281.04373	70.0
223.02292	63.0
359.04855	58.0
377.08307	55.0
271.09445	48.0
243.06384	44.0
197.0219	41.0
359.02628	36.0
134.03728	35.0
279.06406	34.0
719.05066	33.0
149.06038	32.0
385.091	31.0
133.01772	30.0
175.03856	30.0
341.02539	30.0
123.0449	29.0
161.05968	25.0
358.99844	25.0
221.0428	24.0
160.48601	23.0
360.07727	23.0
205.05251	22.0
162.0305	22.0
521.15619	22.0
155.90181	21.0
539.03497	21.0
339.05347	20.0
246.01784	20.0
465.67014	19.0
151.03964	17.0
367.07938	16.0
109.02883	16.0
113.43977	15.0
72.98914	15.0
484.23438	14.0
531.79761	14.0
469.85519	14.0
718.08466	14.0
582.96387	14.0
556.23096	14.0
488.73996	14.0
478.88135	14.0
472.41226	14.0
507.71432	14.0
500.96942	14.0
498.50226	14.0
482.36786	14.0
315.06757	13.0
187.02034	13.0
157.01772	13.0
516.88165	12.0
540.12909	12.0
558.19122	12.0
589.20361	12.0
623.34314	12.0
668.46289	12.0
706.17352	12.0

MSID: 9106
ID: 225
RETENTIONTIME: 24.53413
PRECURSORMZ: 329.1016
AREA: 948122.0
PRECURSORTYPE: [M-H]-
SMILES: [H][C@]12CO[C@H](C3=CC=C(O)C(O)=C3)[C@@]1([H])CO[C@@H]2C1=CC(O)=C(O)C=C1
NAME: (-)-3,3'-bisdemethylpinoresinol
FORMULA: C18H18O6
INCHIKEY: OQSOTSIYXPYTRE-YDOWWZDFSA-N
CAS: nan
Molecular Weight: 330.337
Number of References: 19
Class: Furofuranoid lignans
Superclass: Lignans
Pathway: Shikimates and Phenylpropanoids
ppm: -0.9149999999635838
CMID: CM243
IONMODE: Negative
COLLISIONENERGY: 40±20eV
INSTRUMENTTYPE: AB SCIEX
INSTRUMENT: Q-TOF
Comment:  
Num Peaks: 86
329.10339	9566.0
314.07901	1705.0
313.0715	957.0
285.07336	659.0
286.08286	607.0
271.06033	398.0
243.03003	268.0
258.08908	240.0
257.08163	240.0
299.05499	238.0
258.05289	180.0
296.06674	161.0
268.06982	139.0
243.06514	138.0
297.07184	131.0
269.08249	123.0
258.08276	120.0
230.0932	102.0
230.05458	97.0
215.07193	96.0
215.03027	94.0
301.10422	94.0
273.11017	94.0
270.05038	93.0
271.02487	89.0
229.05013	74.0
225.05719	69.0
314.06339	68.0
298.04993	65.0
242.02197	64.0
281.04346	64.0
242.05855	55.0
313.04898	53.0
295.05997	51.0
240.07739	49.0
200.04762	47.0
201.09193	46.0
329.06787	45.0
257.04395	44.0
253.04973	44.0
313.09924	43.0
241.089	42.0
256.03699	41.0
300.09738	40.0
227.0714	40.0
229.01158	39.0
255.1008	39.0
271.0426	39.0
214.02483	37.0
254.0555	37.0
187.04427	36.0
285.11139	35.0
201.05722	35.0
159.04138	35.0
171.04124	35.0
257.05338	33.0
284.03101	32.0
296.0499	31.0
213.09177	30.0
270.08578	28.0
269.11462	28.0
281.15018	27.0
227.03452	26.0
239.07246	26.0
267.06067	26.0
297.03809	26.0
299.16168	25.0
199.07373	25.0
285.03699	25.0
328.01352	25.0
222.4688	24.0
265.12299	23.0
199.03229	23.0
240.04402	23.0
313.01953	23.0
314.03217	22.0
282.05563	22.0
284.06567	21.0
241.05099	21.0
287.05759	20.0
175.03969	20.0
312.1106	19.0
311.08896	19.0
270.99265	19.0
204.61923	19.0
314.13281	14.0

MSID: 9107
ID: 373
RETENTIONTIME: 29.84048
PRECURSORMZ: 485.3251
AREA: 947333.125
PRECURSORTYPE: [M-H]-
SMILES: [H][C@@]12CC[C@]3(C)[C@]([H])(CC=C4[C@]5([H])[C@@H](C)C(=C)CC[C@@]5(CC[C@@]34C)C(O)=O)[C@@]1(C)C[C@@H](O)[C@@H](O)[C@@]2(C)CO
NAME: 2α,3α,23-trihydroxyursa-12,20(30)-dien-28-oic acid
FORMULA: C30H46O5
INCHIKEY: FFMVHFPLIIYYNC-OKSSEWIBSA-N
CAS: 143839-01-4
Molecular Weight: 486.692
Number of References: 16
Class: Ursane and Taraxastane triterpenoids
Superclass: Triterpenoids
Pathway: Terpenoids
ppm: -1.5999999999394277
CMID: CM243
IONMODE: Negative
COLLISIONENERGY: 40±20eV
INSTRUMENTTYPE: AB SCIEX
INSTRUMENT: Q-TOF
Comment:  
Num Peaks: 15
485.32495	12677.0
485.28397	112.0
439.32129	53.0
441.33508	40.0
485.23434	35.0
485.37888	31.0
423.32224	27.0
373.29102	26.0
483.75137	26.0
353.80142	25.0
483.55969	14.0
484.5939	14.0
281.1272	13.0
372.17368	12.0
413.13483	12.0

MSID: 9108
ID: 122
RETENTIONTIME: 16.3527
PRECURSORMZ: 285.0405
AREA: 947319.3125
PRECURSORTYPE: [M-H]-
SMILES: OC1=CC(O)=C2C(=O)C=C(OC2=C1)C1=CC(O)=C(O)C=C1
NAME: 2-(3,4-Dihydroxy-phenyl)-5,7-dihydroxy-chromen-4-on
FORMULA: C15H10O6
INCHIKEY: IQPNAANSBPBGFQ-UHFFFAOYSA-N
CAS: 491-70-3
Molecular Weight: 286.241
Number of References: 21640
Class: Flavones
Superclass: Flavonoids
Pathway: Shikimates and Phenylpropanoids
ppm: 0.5850000000577893
CMID: CM243
IONMODE: Negative
COLLISIONENERGY: 40±20eV
INSTRUMENTTYPE: AB SCIEX
INSTRUMENT: Q-TOF
Comment:  
Num Peaks: 86
285.03891	6305.0
117.03595	1254.0
137.02415	588.0
139.00406	355.0
239.03484	329.0
119.04893	289.0
165.01964	273.0
65.00227	222.0
195.04616	216.0
136.98634	192.0
166.99803	185.0
211.03987	178.0
67.01833	169.0
267.03052	167.0
185.06088	130.0
223.04048	127.0
93.03642	122.0
213.05481	116.0
257.04263	114.0
167.04865	108.0
111.00814	105.0
159.04771	104.0
192.00824	97.0
241.0497	93.0
171.04269	93.0
183.04417	92.0
187.03909	91.0
229.04738	91.0
163.00551	85.0
145.03015	81.0
147.00749	76.0
197.02328	75.0
199.03799	73.0
225.01775	73.0
96.99185	72.0
164.98441	69.0
243.02875	64.0
109.99726	62.0
95.01339	61.0
155.04953	58.0
165.99347	58.0
123.00797	56.0
268.03482	55.0
182.036	54.0
190.99728	51.0
157.0668	49.0
137.0127	48.0
201.05464	47.0
164.01228	47.0
124.98714	46.0
136.01727	46.0
68.99683	46.0
82.00435	46.0
210.03102	46.0
217.05423	44.0
195.03932	44.0
169.06715	43.0
240.04576	38.0
143.04863	37.0
212.04401	36.0
161.06091	35.0
108.02092	35.0
65.04017	33.0
169.03278	33.0
117.02324	31.0
135.01067	29.0
284.02798	28.0
89.03762	28.0
119.01367	28.0
91.01763	27.0
285.0108	26.0
158.03786	25.0
215.03192	24.0
156.05226	24.0
127.05495	24.0
79.01697	24.0
182.02939	23.0
148.01608	22.0
121.99889	21.0
154.04031	19.0
177.98671	13.0
238.01094	13.0
187.64763	13.0
139.99297	13.0
63.81633	12.0
55.01783	12.0

MSID: 9109
ID: 157
RETENTIONTIME: 19.03978
PRECURSORMZ: 631.1086
AREA: 946491.6875
PRECURSORTYPE: [2M-H]-
SMILES: COC1=C(O)C=C(C=C1)C1=C(O)C(=O)C2=C(O)C=C(O)C=C2O1
NAME: tamarixetin
FORMULA: C16H12O7
INCHIKEY: FPLMIPQZHHQWHN-UHFFFAOYSA-N
CAS: 603-61-2
Molecular Weight: 316.267
Number of References: 193
Class: Flavonols
Superclass: Flavonoids
Pathway: Shikimates and Phenylpropanoids
ppm: -0.09249999999383363
CMID: CM243
IONMODE: Negative
COLLISIONENERGY: 40±20eV
INSTRUMENTTYPE: AB SCIEX
INSTRUMENT: Q-TOF
Comment:  
Num Peaks: 123
315.05048	51575.0
300.0267	36700.0
136.98759	494.0
65.00232	373.0
201.01872	330.0
216.0428	309.0
227.03198	254.0
228.04088	240.0
299.01999	239.0
199.03955	203.0
200.04799	200.0
243.02742	164.0
272.03229	160.0
202.02658	158.0
255.02933	158.0
133.03027	140.0
256.03745	133.0
230.01936	123.0
165.98984	118.0
134.03627	116.0
175.04131	104.0
213.02069	100.0
283.0224	100.0
244.03452	97.0
173.02213	97.0
149.99695	96.0
174.0322	92.0
271.02377	85.0
214.02522	73.0
215.03497	72.0
188.05043	72.0
171.04411	72.0
172.05482	71.0
211.03864	71.0
226.02678	70.0
254.02007	65.0
316.05768	63.0
145.02792	61.0
314.01364	61.0
301.03	60.0
139.00072	58.0
241.0119	57.0
190.99745	56.0
146.0368	53.0
164.00992	48.0
164.98204	47.0
187.0406	47.0
183.04301	46.0
145.02673	46.0
198.02953	46.0
204.04289	45.0
159.04291	42.0
166.9969	41.0
182.0388	40.0
158.0343	39.0
129.03191	38.0
199.03265	37.0
299.04709	37.0
108.99007	37.0
111.00927	36.0
186.03482	36.0
229.01645	35.0
151.00247	35.0
82.00531	34.0
212.04419	34.0
203.03279	32.0
297.03864	32.0
239.03203	31.0
134.02153	31.0
185.02509	31.0
300.05554	30.0
110.00043	28.0
143.0511	28.0
215.22888	26.0
631.14288	26.0
124.98725	26.0
200.43878	25.0
157.02644	25.0
177.99469	24.0
214.16563	24.0
144.05661	24.0
250.38875	24.0
161.02377	24.0
64.99048	24.0
171.03516	24.0
193.42767	24.0
282.02164	23.0
272.00806	23.0
208.56631	23.0
205.90897	23.0
313.99283	23.0
199.84721	23.0
315.01224	23.0
132.01793	23.0
228.01279	23.0
176.04684	22.0
229.51021	22.0
94.00435	21.0
162.9994	21.0
119.01378	21.0
249.17381	21.0
96.99194	20.0
229.00609	20.0
108.02305	20.0
210.97462	19.0
139.00995	19.0
137.99232	19.0
147.04324	19.0
299.98428	18.0
300.96036	18.0
243.01216	17.0
216.7256	17.0
133.01219	17.0
185.01976	16.0
122.00008	14.0
477.10049	14.0
593.10657	14.0
108.01491	13.0
148.93381	12.0
95.01347	12.0
582.31909	12.0
595.3194	12.0
624.46649	12.0

MSID: 9110
ID: 293
RETENTIONTIME: 27.81343
PRECURSORMZ: 253.0498
AREA: 935749.1875
PRECURSORTYPE: [M-H]-
SMILES: CC1=CC2=C(C(O)=C1)C(=O)C1=C(C(O)=CC=C1)C2=O
NAME: ziganein
FORMULA: C15H10O4
INCHIKEY: IYNJGYCVIYBFBS-UHFFFAOYSA-N
CAS: 21891-63-4
Molecular Weight: 254.242
Number of References: 21
Class: Anthraquinones and anthrones
Superclass: Polycyclic aromatic polyketides
Pathway: Polyketides
ppm: -0.2849999999909869
CMID: CM243
IONMODE: Negative
COLLISIONENERGY: 40±20eV
INSTRUMENTTYPE: AB SCIEX
INSTRUMENT: Q-TOF
Comment:  
Num Peaks: 36
253.04997	6393.0
63.02399	827.0
143.0498	561.0
65.00306	494.0
209.06142	302.0
145.03133	243.0
107.01262	177.0
181.06618	135.0
165.06995	120.0
180.05952	119.0
211.03702	109.0
119.05	109.0
167.04991	107.0
101.04144	99.0
150.99994	85.0
155.05075	81.0
139.05487	76.0
185.06223	71.0
115.05483	65.0
225.05447	61.0
89.00158	58.0
77.04042	52.0
153.06831	49.0
197.06177	46.0
208.05449	42.0
79.0161	35.0
179.04913	33.0
183.0455	32.0
187.03642	30.0
61.00666	28.0
253.08424	26.0
148.01489	24.0
119.03931	13.0
106.99945	13.0
80.9137	12.0
69.00008	12.0

MSID: 9111
ID: 467
RETENTIONTIME: 31.367
PRECURSORMZ: 313.1801
AREA: 931132.4375
PRECURSORTYPE: [M-H]-
SMILES: [H][C@@]12C=CC3=C(C(=O)C(O)=C(C(C)C)C3=O)[C@@]1(C)CCCC2(C)C
NAME: 6,7-dehydroroyleanone
FORMULA: C20H26O3
INCHIKEY: UAZRHHCHUYOJQV-RBZFPXEDSA-N
CAS: nan
Molecular Weight: 314.425
Number of References: 107
Class: Icetexane diterpenoids
Superclass: Diterpenoids
Pathway: Terpenoids
ppm: -0.27000000000043656
CMID: CM243
IONMODE: Negative
COLLISIONENERGY: 40±20eV
INSTRUMENTTYPE: AB SCIEX
INSTRUMENT: Q-TOF
Comment:  
Num Peaks: 46
283.16965	4200.0
267.13861	1884.0
313.18011	699.0
201.09296	219.0
281.15295	151.0
227.1064	107.0
313.14197	100.0
268.14468	78.0
285.15057	76.0
253.11781	72.0
252.11237	64.0
281.14804	60.0
267.1178	59.0
283.14822	55.0
265.12253	50.0
199.07751	49.0
228.11548	41.0
267.10818	35.0
164.08331	31.0
251.10735	28.0
270.09015	27.0
298.15588	27.0
202.09406	27.0
265.15759	26.0
209.05658	25.0
223.14517	25.0
266.12802	25.0
295.13513	24.0
297.10843	24.0
283.1268	24.0
213.09424	24.0
313.116	24.0
196.14537	23.0
212.08334	22.0
239.10686	21.0
240.11337	21.0
187.07741	20.0
242.12363	20.0
210.09857	20.0
192.07555	19.0
227.06509	18.0
200.08051	17.0
249.10645	13.0
265.08585	13.0
186.07288	13.0
278.04016	12.0

MSID: 9112
ID: 166
RETENTIONTIME: 19.5259
PRECURSORMZ: 359.1485
AREA: 929491.625
PRECURSORTYPE: [M-H]-
SMILES: [H][C@]12CCC=C(C(O)=O)[C@@]11COC[C@]2(C[C@@H](O)C2=COC=C2)[C@H](C)C(=O)C1
NAME: (5S,8S,9S,10R,12R)-15,16:19,20-diepoxy-7-oxo-neo-cleroda-3,13(16),14-trien-18-oic acid
FORMULA: C20H24O6
INCHIKEY: QIEKSXNZSTZQPU-HZQMFNGWSA-N
CAS: nan
Molecular Weight: 360.407
Number of References: 1
Class: Colensane and Clerodane diterpenoids
Superclass: Diterpenoids
Pathway: Terpenoids
ppm: -0.9649999999510328
CMID: CM243
IONMODE: Negative
COLLISIONENERGY: 40±20eV
INSTRUMENTTYPE: AB SCIEX
INSTRUMENT: Q-TOF
Comment:  
Num Peaks: 85
297.14984	6268.0
359.14883	4944.0
255.13863	950.0
281.11603	647.0
267.10098	429.0
282.12341	350.0
241.08623	335.0
213.09058	292.0
254.12759	258.0
253.12169	175.0
297.13126	170.0
161.02118	154.0
215.10808	152.0
240.11864	109.0
239.10605	107.0
254.0948	99.0
198.0666	90.0
313.14984	83.0
269.15027	72.0
161.01993	69.0
229.08743	66.0
239.0697	61.0
133.02904	56.0
197.04256	54.0
297.19879	49.0
225.08977	48.0
226.06049	46.0
279.13937	42.0
135.04938	42.0
254.11667	42.0
238.10013	41.0
217.08456	40.0
297.08905	39.0
200.08249	39.0
214.09813	38.0
257.12115	38.0
255.1089	37.0
287.16745	36.0
179.03082	35.0
199.07533	34.0
242.09233	33.0
187.07394	32.0
270.09094	31.0
72.99249	29.0
315.14413	29.0
266.09204	29.0
252.11777	28.0
267.08179	28.0
272.1048	27.0
225.16617	27.0
211.0399	27.0
237.1295	26.0
282.09543	26.0
285.14975	26.0
265.12329	26.0
212.08112	25.0
226.10466	24.0
135.04256	24.0
201.01579	24.0
296.14291	24.0
172.05084	24.0
216.07863	24.0
357.94727	23.0
239.06516	23.0
264.11493	23.0
197.06042	23.0
241.05125	23.0
236.08562	23.0
210.06512	23.0
198.79356	22.0
132.01895	21.0
281.09302	21.0
231.1002	21.0
161.00751	20.0
170.03627	20.0
197.09753	20.0
252.0789	20.0
214.06375	20.0
279.12793	20.0
179.02689	14.0
123.05144	13.0
331.12677	13.0
341.13034	13.0
119.05322	12.0
67.11137	12.0

MSID: 9113
ID: 282
RETENTIONTIME: 27.48478
PRECURSORMZ: 315.1957
AREA: 918979.875
PRECURSORTYPE: [M-H]-
SMILES: [H][C@@]1(C)CC[C@@]2(C)C(=CCC[C@]2([H])C1(C)CCC1=COC=C1)C(O)=O
NAME: hardwickiic acid
FORMULA: C20H28O3
INCHIKEY: HHWOKJDCJVESIF-WDVOVXDBSA-N
CAS: nan
Molecular Weight: 316.441
Number of References: 49
Class: Colensane and Clerodane diterpenoids
Superclass: Diterpenoids
Pathway: Terpenoids
ppm: -0.31999999998788553
CMID: CM243
IONMODE: Negative
COLLISIONENERGY: 40±20eV
INSTRUMENTTYPE: AB SCIEX
INSTRUMENT: Q-TOF
Comment:  
Num Peaks: 117
315.19586	16564.0
283.16846	2333.0
227.10675	1510.0
214.09926	930.0
213.09027	702.0
279.19791	328.0
235.20738	302.0
297.20514	269.0
299.16333	169.0
201.09048	140.0
199.07504	130.0
297.18488	125.0
253.21637	120.0
285.14935	116.0
231.10136	97.0
300.02777	92.0
215.10632	92.0
200.08357	74.0
214.08636	66.0
297.14941	64.0
267.13742	62.0
272.1044	55.0
257.07999	54.0
202.65298	53.0
300.17535	53.0
224.61661	51.0
206.46114	51.0
257.11768	50.0
228.11729	48.0
267.10382	48.0
230.09312	46.0
299.13284	44.0
271.16669	44.0
313.14249	44.0
230.48991	43.0
241.12543	42.0
271.12961	41.0
220.97992	40.0
299.12268	37.0
211.07516	35.0
285.13449	35.0
253.21326	34.0
227.93245	34.0
295.78534	32.0
251.1993	32.0
279.17007	31.0
228.10547	31.0
271.22635	31.0
297.13254	30.0
254.10226	30.0
212.78304	30.0
243.13837	29.0
185.05931	29.0
233.18724	28.0
300.09903	28.0
209.95554	28.0
229.08118	28.0
198.06769	27.0
83.05039	27.0
314.15704	26.0
285.0766	25.0
200.04478	25.0
256.27356	25.0
227.09052	24.0
281.11234	24.0
187.03751	24.0
186.06647	24.0
216.08408	23.0
172.05444	23.0
287.17203	23.0
215.02159	22.0
253.12132	22.0
265.12454	21.0
184.0509	21.0
282.12631	21.0
255.09917	20.0
256.10898	20.0
125.09756	20.0
244.14415	19.0
283.12396	19.0
201.04744	18.0
173.09647	18.0
198.06355	18.0
272.07697	18.0
259.09369	17.0
187.07501	17.0
135.04233	17.0
281.15341	17.0
230.08421	16.0
239.14357	16.0
139.00502	16.0
217.09003	16.0
269.20612	15.0
202.02754	15.0
287.14383	15.0
183.04128	15.0
97.065	14.0
169.05418	13.0
125.93795	13.0
132.021	13.0
139.11472	13.0
142.1223	13.0
166.45914	13.0
175.08498	13.0
274.57019	13.0
189.08817	13.0
195.11292	13.0
203.5266	13.0
219.66156	13.0
231.48859	13.0
243.03607	13.0
163.30048	12.0
62.51182	12.0
95.22717	12.0
81.03869	12.0
68.99589	12.0
55.017	12.0

MSID: 9114
ID: 173
RETENTIONTIME: 20.1753
PRECURSORMZ: 475.1255
AREA: 908449.875
PRECURSORTYPE: [M-H]-
SMILES: CO[C@@H]1[C@@H](CO)O[C@@H](OC2=CC3=C(C(=O)C=C(O3)C3=CC=C(O)C=C3)C(O)=C2OC)[C@H](O)[C@H]1O
NAME: hispidulin 7-glucoside
FORMULA: C23H24O11
INCHIKEY: FFJAXGPEQTZIDV-NPNODJHLSA-N
CAS: nan
Molecular Weight: 476.437
Number of References: 1
Class: Flavones
Superclass: Flavonoids
Pathway: Shikimates and Phenylpropanoids
ppm: 1.4600000000086766
CMID: CM243
IONMODE: Negative
COLLISIONENERGY: 40±20eV
INSTRUMENTTYPE: AB SCIEX
INSTRUMENT: Q-TOF
Comment:  
Num Peaks: 33
313.07156	956.0
297.03983	666.0
298.04657	461.0
283.02521	278.0
475.12103	251.0
269.04398	116.0
460.095	63.0
166.04254	54.0
254.06178	53.0
254.02119	49.0
255.02733	47.0
313.02997	38.0
299.04996	32.0
297.01956	31.0
475.08047	29.0
283.00378	27.0
298.00769	26.0
242.06163	23.0
242.05553	23.0
227.02718	20.0
311.06137	19.0
339.01352	18.0
210.03085	18.0
281.04514	18.0
295.06339	18.0
355.07355	17.0
199.03369	16.0
182.03056	13.0
346.16211	13.0
207.66324	12.0
320.06	12.0
236.07637	12.0
443.1412	12.0

